LAMMPS (23 Jun 2022 - Update 1)
OMP_NUM_THREADS environment is not set. Defaulting to 1 thread. (src/comm.cpp:98)
  using 1 OpenMP thread(s) per MPI task


variable        runtime equal 1000000
variable		subsample_rate equal 1000

variable		outputfile_created string '3_created.data'
variable		outputfile_relaxed string '5_relaxed.data'
variable		outputfile_selfasb string '6_a_self_assemble.lammpstrj'
variable		outputfile_trajlin string '6_b_trajlin.data'
variable		outputfile_assembled string '7_assembled.data'

units           lj
atom_style      full
dimension       3
boundary        p p p
timestep        0.005

read_data       ${outputfile_created}
read_data       3_created.data
Reading data file ...
  orthogonal box = (0 0 0) to (35 35 35)
  1 by 1 by 1 MPI processor grid
  reading atoms ...
  100 atoms
  reading velocities ...
  100 velocities
  scanning bonds ...
  1 = max bonds/atom
  reading bonds ...
  99 bonds
Finding 1-2 1-3 1-4 neighbors ...
  special bond factors lj:    0        0        0       
  special bond factors coul:  0        0        0       
     2 = max # of 1-2 neighbors
     2 = max # of 1-3 neighbors
     4 = max # of 1-4 neighbors
     6 = max # of special neighbors
  special bonds CPU = 0.000 seconds
  read_data CPU = 0.005 seconds

bond_style      fene
bond_coeff      * 30.0 1.5 1.0 1.0
special_bonds   fene
Finding 1-2 1-3 1-4 neighbors ...
  special bond factors lj:    0        1        1       
  special bond factors coul:  0        1        1       
     2 = max # of 1-2 neighbors
     6 = max # of special neighbors
  special bonds CPU = 0.000 seconds

variable        Temp equal 1.0
variable        velSeed equal 926458

velocity        all create ${Temp} ${velSeed}
velocity        all create 1 ${velSeed}
velocity        all create 1 926458

### Output
thermo_style    custom step temp density press etotal pe ke epair spcpu
thermo          1000

###########################################################################
# Soft relaxation (to remove overlaps of particles)
######################################################################

pair_style      soft 1.0
pair_coeff      * * 0.0
variable        prefactor equal ramp(0,300)
fix             rampSoft all adapt 1 pair soft a * * v_prefactor

minimize        0.0 1.0e-8 1000 100000
WARNING: Using 'neigh_modify every 1 delay 0 check yes' setting during minimization (src/min.cpp:187)
Generated 0 of 6 mixed pair_coeff terms from geometric mixing rule
Neighbor list info ...
  update every 1 steps, delay 0 steps, check yes
  max neighbors/atom: 2000, page size: 100000
  master list distance cutoff = 1.3
  ghost atom cutoff = 1.3
  binsize = 0.65, bins = 54 54 54
  1 neighbor lists, perpetual/occasional/extra = 1 0 0
  (1) pair soft, perpetual
      attributes: half, newton on
      pair build: half/bin/newton
      stencil: half/bin/3d
      bin: standard
WARNING: Communication cutoff 1.3 is shorter than a bond length based estimate of 1.7550000000000001. This may lead to errors. (src/comm.cpp:727)
Per MPI rank memory allocation (min/avg/max) = 8.346 | 8.346 | 8.346 Mbytes
   Step          Temp         Density         Press          TotEng         PotEng         KinEng         E_pair         S/CPU     
         0   1              0.0023323615  -0.0039617958   21.524174      20.039174      1.485          0              0            
       362   1              0.0023323615   0.0023090379   21.485548      20.000548      1.485          0              67624.443    
Loop time of 0.00535551 on 1 procs for 362 steps with 100 atoms

99.4% CPU use with 1 MPI tasks x 1 OpenMP threads

Minimization stats:
  Stopping criterion = force tolerance
  Energy initial, next-to-last, final = 
      20.0391741078675   20.0005480767337   20.0005480767337
  Force two-norm initial, final = 11.878422 7.9509778e-09
  Force max component initial, final = 6.6117807 1.3572772e-09
  Final line search alpha, max atom move = 1 1.3572772e-09
  Iterations, force evaluations = 362 738

MPI task timing breakdown:
Section |  min time  |  avg time  |  max time  |%varavg| %total
---------------------------------------------------------------
Pair    | 0.00022325 | 0.00022325 | 0.00022325 |   0.0 |  4.17
Bond    | 0.0023427  | 0.0023427  | 0.0023427  |   0.0 | 43.74
Neigh   | 0.0016108  | 0.0016108  | 0.0016108  |   0.0 | 30.08
Comm    | 0.00018394 | 0.00018394 | 0.00018394 |   0.0 |  3.43
Output  | 0          | 0          | 0          |   0.0 |  0.00
Modify  | 0          | 0          | 0          |   0.0 |  0.00
Other   |            | 0.0009948  |            |       | 18.58

Nlocal:            100 ave         100 max         100 min
Histogram: 1 0 0 0 0 0 0 0 0 0
Nghost:             20 ave          20 max          20 min
Histogram: 1 0 0 0 0 0 0 0 0 0
Neighs:              0 ave           0 max           0 min
Histogram: 1 0 0 0 0 0 0 0 0 0

Total # of neighbors = 0
Ave neighs/atom = 0
Ave special neighs/atom = 1.98
Neighbor list builds = 17
Dangerous builds = 0

fix             nvtSoft all nvt temp ${Temp} ${Temp} 0.5
fix             nvtSoft all nvt temp 1 ${Temp} 0.5
fix             nvtSoft all nvt temp 1 1 0.5
run             100000
Generated 0 of 6 mixed pair_coeff terms from geometric mixing rule
WARNING: Communication cutoff 1.3 is shorter than a bond length based estimate of 1.7550000000000001. This may lead to errors. (src/comm.cpp:727)
Per MPI rank memory allocation (min/avg/max) = 7.221 | 7.221 | 7.221 Mbytes
   Step          Temp         Density         Press          TotEng         PotEng         KinEng         E_pair         S/CPU     
       362   1              0.0023323615   0.0023090379   21.485548      20.000548      1.485          0              0            
      1000   0.90989032     0.0023323615  -0.0021940042   21.776974      20.425787      1.3511871      0.00036425437  75651.343    
      2000   0.86546688     0.0023323615   0.0034714157   21.677128      20.39191       1.2852183      0.0025814786   74239.943    
      3000   0.98199538     0.0023323615   0.0028144228   21.866132      20.407869      1.4582631      0.0011756043   69011.75     
      4000   1.004495       0.0023323615  -0.0014058211   21.945624      20.453949      1.4916751      0.011986179    72024.922    
      5000   1.1222705      0.0023323615   0.0044495116   21.986385      20.319813      1.6665718      0.0050317639   73118.956    
      6000   1.0538243      0.0023323615   0.0023957538   21.985713      20.420784      1.564929       0.012100514    71647.562    
      7000   1.0210598      0.0023323615  -0.00038820026  21.904665      20.388391      1.5162738      0              74922.255    
      8000   0.94819751     0.0023323615   0.0024943091   21.747889      20.339816      1.4080733      0              75878.907    
      9000   0.92364502     0.0023323615   0.0020053029   21.724166      20.352554      1.3716129      1.7780894e-05  74621.865    
     10000   0.86685188     0.0023323615   0.00078277366  21.644879      20.357604      1.287275       0.0098636418   74897.8      
     11000   1.0057103      0.0023323615   0.00010113276  21.8558        20.362321      1.4934798      0.020705341    74577.261    
     12000   0.97901664     0.0023323615  -0.0026996968   21.871206      20.417366      1.4538397      0.0052928539   74299.626    
     13000   0.97718436     0.0023323615  -6.1641422e-06  21.963706      20.512587      1.4511188      0.025022446    74396.044    
     14000   1.0530014      0.0023323615  -0.0009993112   21.947994      20.384287      1.5637071      0.0020860456   73711.642    
     15000   0.99094527     0.0023323615   0.0011068478   21.895146      20.423592      1.4715537      0.0015091113   74699.653    
     16000   0.91285091     0.0023323615  -0.00025424173  21.87524       20.519657      1.3555836      0.0047853639   74061.687    
     17000   0.82806978     0.0023323615  -0.00054698156  21.701984      20.472301      1.2296836      0              74716.542    
     18000   1.043278       0.0023323615  -6.6143919e-05  22.003299      20.454031      1.5492679      0.0034319132   75373.922    
     19000   1.0879249      0.0023323615  -0.0017804642   21.998985      20.383416      1.6155685      0.015376175    74045.531    
     20000   1.1144506      0.0023323615   0.0025198298   22.190904      20.535944      1.6549592      0              75014.832    
     21000   1.0427751      0.0023323615   0.0011345349   22.099492      20.550971      1.548521       0.00040047813  75453.458    
     22000   1.0586695      0.0023323615   0.0017882747   22.05673       20.484606      1.5721242      0              74966.829    
     23000   1.0058426      0.0023323615  -0.0055245362   21.954628      20.460951      1.4936763      0.0027619031   74141.4      
     24000   0.98273442     0.0023323615   0.0015147357   21.862067      20.402707      1.4593606      0              74462.592    
     25000   0.95835343     0.0023323615   0.0017808774   21.937761      20.514606      1.4231548      0.00020839942  74064.265    
     26000   0.93993778     0.0023323615  -0.0021777292   21.884849      20.489042      1.3958076      0.0088889834   74640.501    
     27000   0.9308188      0.0023323615  -0.00011239942  21.842252      20.459986      1.3822659      0.021612409    73858.582    
     28000   1.0149581      0.0023323615   0.0041996387   21.906846      20.399633      1.5072129      0.0064059022   74025.212    
     29000   0.92841138     0.0023323615  -2.5398808e-05  21.987185      20.608494      1.3786909      0.0046112484   74398.485    
     30000   1.021043       0.0023323615   0.001589158    22.097958      20.581709      1.5162489      0.016799508    72266.632    
     31000   1.0465985      0.0023323615  -0.0021744286   22.037917      20.483718      1.5541987      0.0057879149   74814.997    
     32000   0.98907108     0.0023323615  -0.0015558606   22.044089      20.575318      1.4687705      0.009448173    74374.757    
     33000   1.0918536      0.0023323615  -0.0025643847   22.039275      20.417873      1.6214025      0              73450.242    
     34000   0.99801543     0.0023323615   0.0016279766   21.932339      20.450286      1.4820529      0.017384617    75896.737    
     35000   1.0352271      0.0023323615  -0.0052971711   22.076004      20.538692      1.5373122      0.00010473809  74262.646    
     36000   1.1141579      0.0023323615  -0.00093279925  22.222491      20.567966      1.6545245      0.00033678641  75479.366    
     37000   1.0369415      0.0023323615   0.00013065175  22.217841      20.677983      1.5398581      0.013788831    74684.06     
     38000   1.0515596      0.0023323615   0.0021717558   22.070766      20.5092        1.561566       0.0067894678   75426.033    
     39000   1.0238495      0.0023323615   0.00026414509  22.040141      20.519725      1.5204165      0.00044464649  74017.201    
     40000   1.0749111      0.0023323615  -0.0026849368   22.039327      20.443084      1.596243       0.012651334    72773.398    
     41000   0.99070886     0.0023323615  -0.0030385564   22.03241       20.561207      1.4712027      0.00092855646  75786.949    
     42000   0.95315224     0.0023323615   0.0019788197   21.965263      20.549832      1.4154311      0.020233689    74203.353    
     43000   1.0644183      0.0023323615  -0.0011168725   22.287172      20.706511      1.5806611      0.039694129    74325.636    
     44000   1.0253747      0.0023323615  -0.006676522    22.066233      20.543552      1.5226814      0              73549.454    
     45000   0.94179556     0.0023323615  -0.0047206018   21.970644      20.572077      1.3985664      0.019869988    74001.668    
     46000   1.0083495      0.0023323615  -0.0017646918   21.972114      20.474715      1.497399       0.00026040605  74185.594    
     47000   0.98767959     0.0023323615  -0.00080218158  22.091674      20.62497       1.4667042      0.024266258    73720.021    
     48000   1.1473449      0.0023323615  -0.0025885687   22.080512      20.376705      1.7038072      0.00065962995  74172.036    
     49000   1.0679312      0.0023323615   0.0017688272   21.970482      20.384604      1.5858779      0.014142422    75221.797    
     50000   0.9581935      0.0023323615   0.0014398836   21.955202      20.532284      1.4229173      0.0055011948   75014.208    
     51000   1.0215759      0.0023323615  -0.00093292688  21.934681      20.41764       1.5170402      0              74583.78     
     52000   0.98079591     0.0023323615   0.0040701936   21.977374      20.520892      1.4564819      0.0020862422   75379.383    
     53000   1.0090927      0.0023323615   0.0013324753   22.095438      20.596935      1.4985027      0              74730.138    
     54000   0.97519627     0.0023323615   0.0013260734   22.070151      20.621984      1.4481665      0.026885444    75566.456    
     55000   1.1805087      0.0023323615  -0.001586238    22.424088      20.671033      1.7530554      0.024690954    75226.33     
     56000   0.98387121     0.0023323615   0.0037155145   22.104425      20.643376      1.4610487      0.01435493     74701.668    
     57000   1.0723812      0.0023323615  -0.0037916262   22.122726      20.53024       1.592486       0.013635549    74902.58     
     58000   1.0152349      0.0023323615   0.00021908047  22.082827      20.575203      1.5076238      0.00077375639  74251.271    
     59000   1.1424502      0.0023323615  -0.0052108657   22.30072       20.604182      1.6965385      0.013308184    75582.819    
     60000   1.0359703      0.0023323615  -0.00097887545  22.188218      20.649802      1.538416       0.00011346294  73997.44     
     61000   1.1646839      0.0023323615  -0.002085017    22.239945      20.51039       1.7295556      0.012918477    76308.71     
     62000   1.101836       0.0023323615   0.0010338878   22.171386      20.53516       1.6362265      0.001396566    75278.361    
     63000   0.96616435     0.0023323615   0.00097550571  21.903821      20.469067      1.4347541      0.013027663    76570.669    
     64000   1.0068907      0.0023323615  -0.0020278726   22.061652      20.566419      1.4952327      0.013750276    75020.19     
     65000   0.98723233     0.0023323615   0.0022441476   22.031073      20.565033      1.46604        0.0066686189   75488.271    
     66000   1.0273881      0.0023323615  -0.0003515278   22.183579      20.657908      1.5256713      0              73485.342    
     67000   0.96528212     0.0023323615  -0.00014822656  21.9396        20.506156      1.4334439      0.010365557    75441.937    
     68000   1.069702       0.0023323615   9.4754668e-05  22.081119      20.492611      1.5885075      0.00049153926  72879.137    
     69000   1.1229502      0.0023323615   0.0011504079   22.200329      20.532748      1.6675811      0.0068454249   75610.187    
     70000   1.0062775      0.0023323615  -0.00085311964  22.094021      20.599699      1.4943221      0.013222355    73981.373    
     71000   1.0906935      0.0023323615   0.00015260357  22.145362      20.525682      1.6196798      0.018338513    74820.326    
     72000   1.010401       0.0023323615  -6.0487182e-06  22.154105      20.653659      1.5004455      0.0013793953   73511.212    
     73000   1.1177599      0.0023323615  -0.0034084797   22.254435      20.594562      1.6598735      0.00011231735  76172.497    
     74000   0.9768019      0.0023323615   0.00016143893  22.07312       20.622569      1.4505508      0.0084515956   74396.818    
     75000   1.1360996      0.0023323615   0.002159116    22.161595      20.474487      1.6871079      0.0089909162   74905.559    
     76000   0.97379329     0.0023323615  -0.00068458621  21.988928      20.542845      1.446083       0              74215.992    
     77000   0.94876793     0.0023323615  -0.0016073976   21.923496      20.514575      1.4089204      0.017745108    74443.762    
     78000   0.83947996     0.0023323615  -0.00062768559  21.726727      20.480099      1.2466277      0.0054510099   75006.826    
     79000   1.0090614      0.0023323615  -0.00080262643  22.068192      20.569736      1.4984562      0.00023011166  75762.213    
     80000   1.1217643      0.0023323615  -0.0038177864   22.367902      20.702082      1.66582        0.032902439    75038.913    
     81000   1.0240158      0.0023323615   0.00023547123  22.031597      20.510933      1.5206635      0.0068767308   74406.251    
     82000   1.003236       0.0023323615  -0.0022802982   21.894199      20.404393      1.4898055      0.019136282    73557.201    
     83000   1.0554159      0.0023323615   0.004011718    22.104562      20.537269      1.5672927      0.0080869707   73292.381    
     84000   0.83527346     0.0023323615  -0.0034122221   21.874648      20.634267      1.2403811      0.0030083664   74443.097    
     85000   1.036002       0.0023323615   0.0013573923   21.962923      20.42446       1.5384629      0.015709144    74705.915    
     86000   0.9432002      0.0023323615  -0.0032183248   21.913588      20.512936      1.4006523      0.013730309    75154.173    
     87000   0.95566008     0.0023323615  -0.00049614223  21.91653       20.497375      1.4191552      0.0035862035   74265.63     
     88000   0.93373351     0.0023323615  -0.00097093893  21.870485      20.483891      1.3865943      0.0018212145   74062.893    
     89000   0.9684944      0.0023323615  -0.00047342045  21.973429      20.535215      1.4382142      0.00087524744  74241.442    
     90000   0.98293324     0.0023323615  -0.0032204602   22.050919      20.591263      1.4596559      0.015353933    75651.789    
     91000   1.0832827      0.0023323615   0.0048517083   22.11977       20.511095      1.6086749      0.0052867789   76415.093    
     92000   0.85899662     0.0023323615  -0.0013049519   21.765697      20.490087      1.27561        0.0024124001   75447.014    
     93000   0.96176266     0.0023323615  -4.4223672e-05  21.874222      20.446004      1.4282176      0.0045653365   76070.323    
     94000   0.96019503     0.0023323615   0.00024459347  21.944954      20.519064      1.4258896      3.8053462e-05  75512.144    
     95000   0.94702149     0.0023323615  -0.0033658915   21.86315       20.456823      1.4063269      0              76099.435    
     96000   0.91119348     0.0023323615  -0.0013197298   21.825018      20.471896      1.3531223      0.00043282989  74769.491    
     97000   1.0016687      0.0023323615  -0.0019514304   22.013024      20.525546      1.487478       0.0048369955   74280.166    
     98000   1.02143        0.0023323615  -0.0057874974   22.177965      20.661142      1.5168235      0              73365.262    
     99000   1.032786       0.0023323615   0.0018228259   21.975336      20.441649      1.5336871      7.1595851e-05  76396.435    
    100000   1.0594928      0.0023323615   0.0036169719   22.011024      20.437677      1.5733468      0.00032948157  74728.904    
    100362   1.1904942      0.0023323615  -0.00089755607  22.316856      20.548972      1.7678839      0.00063845255  74244.668    
Loop time of 1.34146 on 1 procs for 100000 steps with 100 atoms

Performance: 32203606.731 tau/day, 74545.386 timesteps/s
99.1% CPU use with 1 MPI tasks x 1 OpenMP threads

MPI task timing breakdown:
Section |  min time  |  avg time  |  max time  |%varavg| %total
---------------------------------------------------------------
Pair    | 0.049156   | 0.049156   | 0.049156   |   0.0 |  3.66
Bond    | 0.1293     | 0.1293     | 0.1293     |   0.0 |  9.64
Neigh   | 0.80614    | 0.80614    | 0.80614    |   0.0 | 60.09
Comm    | 0.054875   | 0.054875   | 0.054875   |   0.0 |  4.09
Output  | 0.0010836  | 0.0010836  | 0.0010836  |   0.0 |  0.08
Modify  | 0.26719    | 0.26719    | 0.26719    |   0.0 | 19.92
Other   |            | 0.03371    |            |       |  2.51

Nlocal:            100 ave         100 max         100 min
Histogram: 1 0 0 0 0 0 0 0 0 0
Nghost:             60 ave          60 max          60 min
Histogram: 1 0 0 0 0 0 0 0 0 0
Neighs:             36 ave          36 max          36 min
Histogram: 1 0 0 0 0 0 0 0 0 0

Total # of neighbors = 36
Ave neighs/atom = 0.36
Ave special neighs/atom = 1.98
Neighbor list builds = 9821
Dangerous builds = 8265
unfix           nvtSoft
unfix           rampSoft
reset_timestep  0

write_data      ${outputfile_relaxed}
write_data      5_relaxed.data
System init for write_data ...
Generated 0 of 6 mixed pair_coeff terms from geometric mixing rule
WARNING: Communication cutoff 1.3 is shorter than a bond length based estimate of 1.7550000000000001. This may lead to errors. (src/comm.cpp:727)
WARNING: Not all mixed pair coeffs generated from mixing. Use write_data with 'pair ij' option to store all pair coeffs. (src/write_data.cpp:309)

###########################################################################
# Full LJ with Coulomb
######################################################################

# Cutoffs and parameters:
# - Values: Marcel Verkade's Bachelor Thesis
# - Mapping to atom groups: Patrick Onck's paper
# - 1: aliphatic, 2: aromatic, 3: anion, 4: cation
# pair_style	lj/cut/coul/cut <lj_cut_global> <coul_cut_global>
# pair_coeff	<type_1>  <type_2>  <eps>  <sigma>  <r_cut_lj>  <r_cut_coul>

# Problem: Onck's model is much more complex, and Marcel has no sigma reported
# Using sigma=1 randomly

variable		glob_ljeps equal 1.0
variable		glob_ljsig 	equal 1.0
variable		glob_coulcut equal 10.0
variable		att_ljcut equal 2.50
variable		rep_ljcut equal 1.12

pair_style		lj/cut/coul/cut 						${att_ljcut} 	${glob_coulcut}
pair_style		lj/cut/coul/cut 						2.5 	${glob_coulcut}
pair_style		lj/cut/coul/cut 						2.5 	10
pair_coeff		1 1 	${glob_ljeps} 	${glob_ljsig}	${att_ljcut} 	${glob_coulcut}
pair_coeff		1 1 	1 	${glob_ljsig}	${att_ljcut} 	${glob_coulcut}
pair_coeff		1 1 	1 	1	${att_ljcut} 	${glob_coulcut}
pair_coeff		1 1 	1 	1	2.5 	${glob_coulcut}
pair_coeff		1 1 	1 	1	2.5 	10
pair_coeff		1 2 	${glob_ljeps} 	${glob_ljsig}	${att_ljcut} 	${glob_coulcut}
pair_coeff		1 2 	1 	${glob_ljsig}	${att_ljcut} 	${glob_coulcut}
pair_coeff		1 2 	1 	1	${att_ljcut} 	${glob_coulcut}
pair_coeff		1 2 	1 	1	2.5 	${glob_coulcut}
pair_coeff		1 2 	1 	1	2.5 	10
pair_coeff		1 3 	${glob_ljeps} 	${glob_ljsig}	${rep_ljcut} 	${glob_coulcut}
pair_coeff		1 3 	1 	${glob_ljsig}	${rep_ljcut} 	${glob_coulcut}
pair_coeff		1 3 	1 	1	${rep_ljcut} 	${glob_coulcut}
pair_coeff		1 3 	1 	1	1.12 	${glob_coulcut}
pair_coeff		1 3 	1 	1	1.12 	10
pair_coeff		1 4 	${glob_ljeps} 	${glob_ljsig}	${rep_ljcut} 	${glob_coulcut}
pair_coeff		1 4 	1 	${glob_ljsig}	${rep_ljcut} 	${glob_coulcut}
pair_coeff		1 4 	1 	1	${rep_ljcut} 	${glob_coulcut}
pair_coeff		1 4 	1 	1	1.12 	${glob_coulcut}
pair_coeff		1 4 	1 	1	1.12 	10
pair_coeff		2 2 	${glob_ljeps} 	${glob_ljsig}	${att_ljcut} 	${glob_coulcut}
pair_coeff		2 2 	1 	${glob_ljsig}	${att_ljcut} 	${glob_coulcut}
pair_coeff		2 2 	1 	1	${att_ljcut} 	${glob_coulcut}
pair_coeff		2 2 	1 	1	2.5 	${glob_coulcut}
pair_coeff		2 2 	1 	1	2.5 	10
pair_coeff		2 3 	${glob_ljeps} 	${glob_ljsig}	${rep_ljcut} 	${glob_coulcut}
pair_coeff		2 3 	1 	${glob_ljsig}	${rep_ljcut} 	${glob_coulcut}
pair_coeff		2 3 	1 	1	${rep_ljcut} 	${glob_coulcut}
pair_coeff		2 3 	1 	1	1.12 	${glob_coulcut}
pair_coeff		2 3 	1 	1	1.12 	10
pair_coeff		2 4 	${glob_ljeps} 	${glob_ljsig}	${att_ljcut} 	${glob_coulcut}
pair_coeff		2 4 	1 	${glob_ljsig}	${att_ljcut} 	${glob_coulcut}
pair_coeff		2 4 	1 	1	${att_ljcut} 	${glob_coulcut}
pair_coeff		2 4 	1 	1	2.5 	${glob_coulcut}
pair_coeff		2 4 	1 	1	2.5 	10
pair_coeff		3 3 	${glob_ljeps} 	${glob_ljsig}	${rep_ljcut} 	${glob_coulcut}
pair_coeff		3 3 	1 	${glob_ljsig}	${rep_ljcut} 	${glob_coulcut}
pair_coeff		3 3 	1 	1	${rep_ljcut} 	${glob_coulcut}
pair_coeff		3 3 	1 	1	1.12 	${glob_coulcut}
pair_coeff		3 3 	1 	1	1.12 	10
pair_coeff		3 4 	${glob_ljeps} 	${glob_ljsig}	${att_ljcut} 	${glob_coulcut}
pair_coeff		3 4 	1 	${glob_ljsig}	${att_ljcut} 	${glob_coulcut}
pair_coeff		3 4 	1 	1	${att_ljcut} 	${glob_coulcut}
pair_coeff		3 4 	1 	1	2.5 	${glob_coulcut}
pair_coeff		3 4 	1 	1	2.5 	10
pair_coeff		4 4 	${glob_ljeps} 	${glob_ljsig}	${rep_ljcut} 	${glob_coulcut}
pair_coeff		4 4 	1 	${glob_ljsig}	${rep_ljcut} 	${glob_coulcut}
pair_coeff		4 4 	1 	1	${rep_ljcut} 	${glob_coulcut}
pair_coeff		4 4 	1 	1	1.12 	${glob_coulcut}
pair_coeff		4 4 	1 	1	1.12 	10


fix             noDriftRot 	all momentum 10 linear 1 1 1 angular
fix             nvt1 		all nvt temp ${Temp} ${Temp} 0.5
fix             nvt1 		all nvt temp 1 ${Temp} 0.5
fix             nvt1 		all nvt temp 1 1 0.5

# dump          assemble 	all custom 1000 				${outputfile_selfasb} id type xu yu zu vx vy vz
dump            lindump 	all custom ${subsample_rate} 	${outputfile_trajlin} id type xu yu zu vx vy vz
dump            lindump 	all custom 1000 	${outputfile_trajlin} id type xu yu zu vx vy vz
dump            lindump 	all custom 1000 	6_b_trajlin.data id type xu yu zu vx vy vz

run             ${runtime}
run             1000000
Generated 0 of 6 mixed pair_coeff terms from geometric mixing rule
Neighbor list info ...
  update every 1 steps, delay 10 steps, check yes
  max neighbors/atom: 2000, page size: 100000
  master list distance cutoff = 10.3
  ghost atom cutoff = 10.3
  binsize = 5.15, bins = 7 7 7
  1 neighbor lists, perpetual/occasional/extra = 1 0 0
  (1) pair lj/cut/coul/cut, perpetual
      attributes: half, newton on
      pair build: half/bin/newton
      stencil: half/bin/3d
      bin: standard
Per MPI rank memory allocation (min/avg/max) = 7.712 | 7.712 | 7.712 Mbytes
   Step          Temp         Density         Press          TotEng         PotEng         KinEng         E_pair         S/CPU     
         0   1.1904942      0.0023323615  -0.0015912671   21.870228      20.102344      1.7678839     -0.4459899      0            
      1000   0.9556629      0.0023323615  -0.0012804474   21.008027      19.588868      1.4191594     -0.81812216     32942.279    
      2000   0.9019958      0.0023323615   0.00018590269  20.848989      19.509525      1.3394638     -0.92827944     30618.432    
      3000   0.99114221     0.0023323615   0.0023299884   21.043684      19.571838      1.4718462     -1.0135692      28170.128    
      4000   1.0057209      0.0023323615  -0.0031570351   20.486347      18.992852      1.4934955     -1.4286228      21102.912    
      5000   1.177628       0.0023323615   0.0026931541   20.634266      18.885488      1.7487776     -1.6998724      18428.274    
      6000   1.0140192      0.0023323615  -0.0052441761   20.314374      18.808555      1.5058186     -1.6641788      18022.207    
      7000   1.0458649      0.0023323615   0.0016757521   20.374336      18.821226      1.5531094     -1.7182738      18307.541    
      8000   1.0601673      0.0023323615  -0.00282679     20.577514      19.003165      1.5743484     -1.4941081      18270.574    
      9000   1.0078819      0.0023323615   0.0016377743   20.417226      18.920522      1.4967047     -1.6814892      18348.175    
     10000   1.1022505      0.0023323615   0.0012038625   20.628739      18.991897      1.636842      -1.6268913      18225.719    
     11000   0.92138004     0.0023323615  -0.0032893795   19.909714      18.541465      1.3682494     -1.9812929      18090.915    
     12000   1.1380383      0.0023323615  -0.0021746863   20.346437      18.65645       1.6899869     -1.8719979      18111.75     
     13000   0.98910061     0.0023323615  -0.00083246975  20.121248      18.652433      1.4688144     -1.7895902      18060.783    
     14000   0.95117826     0.0023323615  -0.0041525629   20.083149      18.670649      1.4124997     -1.7788233      18298.543    
     15000   0.97306002     0.0023323615  -0.0024109783   20.595605      19.150611      1.4449941     -1.5079828      18249.405    
     16000   0.90327641     0.0023323615   0.00078384825  20.340394      18.999028      1.3413655     -1.6523124      18213.301    
     17000   0.97034103     0.0023323615  -0.0012817239   20.091006      18.650049      1.4409564     -1.8491329      18209.729    
     18000   0.99658773     0.0023323615  -0.0014324861   20.065567      18.585634      1.4799328     -1.8696307      18121.954    
     19000   1.0544903      0.0023323615  -0.0030344699   20.48416       18.918241      1.5659182     -1.4794398      18042.053    
     20000   1.0513746      0.0023323615   0.0019122377   20.359621      18.79833       1.5612912     -1.8218833      18071.433    
     21000   0.96501877     0.0023323615   0.0030939869   20.030263      18.59721       1.4330529     -1.8262167      18033.008    
     22000   0.99134511     0.0023323615   0.00069606084  20.571572      19.099424      1.4721475     -1.4587542      18266.171    
     23000   1.0105691      0.0023323615   0.0031381804   20.397175      18.89648       1.5006951     -1.6233869      18256.085    
     24000   0.85178742     0.0023323615   0.00071073001  20.11077       18.845866      1.2649043     -1.6366961      18082.685    
     25000   1.0891277      0.0023323615  -0.0026541699   20.279869      18.662514      1.6173547     -1.8535948      18081.31     
     26000   1.0504142      0.0023323615   0.0017264919   20.043656      18.483791      1.559865      -1.9272273      18032.291    
     27000   0.89603673     0.0023323615   0.00015085597  20.36939       19.038775      1.3306145     -1.5593594      18197.163    
     28000   1.032756       0.0023323615  -0.00098090484  20.380247      18.846604      1.5336427     -1.7561173      18173.732    
     29000   0.94519437     0.0023323615  -0.0032966052   20.094148      18.690535      1.4036136     -1.7910121      18098.903    
     30000   0.94497033     0.0023323615   0.0030215033   20.081154      18.677873      1.4032809     -1.8167522      18002.577    
     31000   1.001172       0.0023323615  -0.00028598668  20.255765      18.769025      1.4867405     -1.7264317      18086.512    
     32000   0.96719424     0.0023323615  -0.0028693016   20.214641      18.778357      1.4362834     -1.7391822      18044.17     
     33000   0.97715198     0.0023323615  -0.00022321002  20.168374      18.717303      1.4510707     -1.8183945      18110.094    
     34000   1.1807915      0.0023323615   0.001362772    20.217192      18.463717      1.7534753     -1.9963386      18014.954    
     35000   0.87825037     0.0023323615  -0.0034045984   20.017393      18.713191      1.3042018     -1.8190312      18096.849    
     36000   1.0205718      0.0023323615  -0.0027685852   20.067897      18.552348      1.5155492     -1.8598148      18162.878    
     37000   0.95353242     0.0023323615   0.0010998208   19.995621      18.579626      1.4159956     -1.840052       18173.801    
     38000   1.0539576      0.0023323615  -0.001177418    20.118273      18.553146      1.5651271     -2.0439366      18114.061    
     39000   1.1331995      0.0023323615   0.00026507822  20.291936      18.609135      1.6828012     -1.8397108      17988.279    
     40000   0.92749182     0.0023323615  -0.0012783644   20.11826       18.740935      1.3773254     -1.8151416      17989.904    
     41000   1.1098648      0.0023323615   0.0038142139   20.213237      18.565088      1.6481492     -1.8965526      18064.002    
     42000   1.0438097      0.0023323615  -0.0011113291   20.492282      18.942224      1.5500575     -1.6788613      18102.773    
     43000   0.90845845     0.0023323615   0.0014761098   20.058275      18.709214      1.3490608     -1.832609       17880.413    
     44000   0.97359696     0.0023323615  -0.001916238    20.489391      19.043599      1.4457915     -1.5738781      17974.46     
     45000   0.95817235     0.0023323615  -0.00093837179  20.191054      18.768168      1.4228859     -1.7447791      18147.103    
     46000   1.0764815      0.0023323615   0.00078002802  20.451854      18.853279      1.5985751     -1.7748907      18186.924    
     47000   0.97755623     0.0023323615  -0.00034810885  20.274933      18.823262      1.451671      -1.6137612      18162.957    
     48000   1.0585127      0.0023323615   0.0037238259   20.579749      19.007857      1.5718913     -1.4570098      18249.352    
     49000   0.99313732     0.0023323615   0.0058929738   20.433983      18.959174      1.4748089     -1.6185163      18150.03     
     50000   1.0332396      0.0023323615   0.0012298673   20.321464      18.787103      1.5343609     -1.6833487      18017.481    
     51000   1.0251938      0.0023323615   0.00078335951  20.509985      18.987572      1.5224128     -1.7333286      18103.518    
     52000   1.0849293      0.0023323615  -0.0059907198   20.663581      19.052461      1.6111201     -1.6230864      18151.664    
     53000   1.0954014      0.0023323615  -0.0012467938   20.465698      18.839027      1.6266712     -1.8400158      18207.334    
     54000   1.0223299      0.0023323615  -0.0028542964   19.939676      18.421516      1.51816       -2.0163088      18293.784    
     55000   0.81794856     0.0023323615  -0.0042476526   19.716059      18.501405      1.2146536     -2.0359868      18233.803    
     56000   0.99486415     0.0023323615  -0.0013404774   20.180018      18.702645      1.4773733     -1.7339398      18236.199    
     57000   0.86747849     0.0023323615   0.0002887902   20.078801      18.790595      1.2882056     -1.6107616      18275.348    
     58000   0.96233464     0.0023323615  -0.0031892187   20.117098      18.688031      1.4290669     -1.7628268      18186.341    
     59000   0.88279208     0.0023323615  -0.0025924863   19.87005       18.559104      1.3109462     -1.9745487      18233.187    
     60000   1.1081905      0.0023323615   0.0036295832   20.240324      18.594661      1.6456629     -1.8815852      18123.711    
     61000   1.1410876      0.0023323615   0.0024071828   20.455825      18.76131       1.6945151     -1.7405726      18139.307    
     62000   1.035862       0.0023323615  -0.0028618052   20.081707      18.543452      1.5382551     -1.8840473      18075.635    
     63000   1.0851891      0.0023323615  -0.00017511704  20.363894      18.752388      1.6115058     -1.6810159      18243.915    
     64000   1.0049682      0.0023323615  -0.00080021773  20.237596      18.745218      1.4923777     -1.7564832      18260.366    
     65000   1.1253646      0.0023323615   0.0036519865   20.266427      18.595261      1.6711664     -1.9021534      18124.86     
     66000   1.0791334      0.0023323615   0.0028900641   20.466229      18.863716      1.6025132     -1.7082794      18127.892    
     67000   1.0528933      0.0023323615   0.001655958    20.266269      18.702722      1.5635466     -1.7575019      18139.188    
     68000   1.0486857      0.0023323615  -0.001629154    20.349577      18.792278      1.5572982     -1.7347486      18142.792    
     69000   1.0690325      0.0023323615   3.5288836e-06  20.403656      18.816143      1.5875132     -1.6120232      18143.673    
     70000   0.94597848     0.0023323615  -0.0006999351   20.074439      18.669661      1.404778      -1.7848892      18127.503    
     71000   1.0217178      0.0023323615   0.0011447333   20.410565      18.893314      1.5172509     -1.6433049      18246.77     
     72000   1.0210311      0.0023323615   0.0063240161   20.457319      18.941088      1.5162312     -1.5015709      18302.777    
     73000   0.97716586     0.0023323615   0.0010897234   20.15008       18.698989      1.4510913     -1.8032119      18211.546    
     74000   1.0577728      0.0023323615  -0.0021301005   20.50695       18.936157      1.5707926     -1.4954603      18115.856    
     75000   1.1337366      0.0023323615  -0.0031311948   20.320358      18.636759      1.6835989     -1.7875089      18138.809    
     76000   0.82051829     0.0023323615  -7.8034336e-05  19.973612      18.755143      1.2184697     -1.7360671      18078.293    
     77000   1.0385283      0.0023323615   0.0023325233   20.571448      19.029233      1.5422146     -1.6103016      18057.747    
     78000   1.1478496      0.0023323615   0.0034733493   20.920769      19.216213      1.7045566     -1.3443214      18253.273    
     79000   1.0331855      0.0023323615   0.0023370331   20.552649      19.018368      1.5342805     -1.5534148      18266.779    
     80000   0.92418788     0.0023323615  -0.00091879868  20.395178      19.022759      1.372419      -1.4605282      18278.976    
     81000   0.95225278     0.0023323615   0.0011555838   20.490713      19.076618      1.4140954     -1.480321       18281.671    
     82000   1.0061337      0.0023323615   0.00087859555  20.463346      18.969237      1.4941085     -1.5208913      18265.292    
     83000   0.86078725     0.0023323615  -0.00097545988  20.010071      18.731801      1.2782691     -1.6711101      18236.671    
     84000   1.1215583      0.0023323615  -0.0011201313   20.765938      19.100423      1.665514      -1.4972396      18280.844    
     85000   0.92875493     0.0023323615   0.00036634015  20.075207      18.696005      1.3792011     -1.9114301      18070.621    
     86000   1.0063549      0.0023323615   0.00047887299  20.078614      18.584177      1.494437      -1.9180216      18018.063    
     87000   0.9284088      0.0023323615  -0.0022177327   20.176079      18.797392      1.3786871     -1.689338       18033.787    
     88000   1.0458898      0.0023323615  -0.00026831671  20.486469      18.933322      1.5531463     -1.6631826      18198.152    
     89000   0.94355062     0.0023323615  -0.001316917    20.09131       18.690137      1.4011727     -1.8187758      18108.468    
     90000   0.96314287     0.0023323615  -0.0029947322   19.971912      18.541645      1.4302672     -1.8915243      18030.304    
     91000   1.0255064      0.0023323615   0.0040716338   20.201707      18.67883       1.5228771     -1.8623834      18145.711    
     92000   1.1385612      0.0023323615  -0.0044635599   20.441436      18.750673      1.6907633     -1.8174743      18128.01     
     93000   0.97310968     0.0023323615   0.00045848602  20.129934      18.684867      1.4450679     -1.7209285      18229.284    
     94000   0.98482623     0.0023323615  -0.00081252524  20.207131      18.744664      1.4624669     -1.8466748      18186.885    
     95000   0.98080461     0.0023323615  -0.0028873946   20.268799      18.812304      1.4564948     -1.6984205      18279.404    
     96000   1.0200186      0.0023323615  -0.0017504538   20.324828      18.810101      1.5147277     -1.8831505      18198.494    
     97000   0.89453422     0.0023323615  -0.00022178548  20.216563      18.88818       1.3283833     -1.6483788      18150.684    
     98000   1.0423041      0.0023323615   0.00059641599  20.405769      18.857948      1.5478216     -1.7356066      18206.374    
     99000   0.89026282     0.0023323615  -0.00070488224  20.116186      18.794145      1.3220403     -1.7487165      18113.818    
    100000   0.92568094     0.0023323615  -0.00099416313  20.063663      18.689027      1.3746362     -1.8591533      18079.76     
    101000   0.95692902     0.0023323615   0.00099170411  20.574192      19.153152      1.4210396     -1.3836485      18114.972    
    102000   1.0157619      0.0023323615  -0.0033241298   20.293337      18.78493       1.5084064     -1.8376112      17987.764    
    103000   0.9952297      0.0023323615  -0.0050960601   20.403939      18.926023      1.4779161     -1.5517375      18102.789    
    104000   0.87400634     0.0023323615  -0.00038747609  20.024716      18.726816      1.2978994     -1.6942066      18113.453    
    105000   0.94391563     0.0023323615   0.0011044831   20.305207      18.903492      1.4017147     -1.7338553      18046.363    
    106000   0.95209106     0.0023323615  -0.0026154547   20.227102      18.813246      1.4138552     -1.7631888      18135.428    
    107000   1.058487       0.0023323615   0.0017693199   20.508172      18.936319      1.5718531     -1.6073156      18243.928    
    108000   1.0547797      0.0023323615  -0.0036865016   20.34275       18.776403      1.5663479     -1.7779837      18092.837    
    109000   0.95944019     0.0023323615   0.0026858328   20.151754      18.726986      1.4247687     -1.844094       18107.634    
    110000   0.95855411     0.0023323615   0.0014672787   20.27477       18.851317      1.4234529     -1.7006631      18152.839    
    111000   1.0082179      0.0023323615  -0.001160276    20.378353      18.881149      1.4972035     -1.6585302      18196.891    
    112000   1.0215186      0.0023323615  -4.6057895e-05  20.269647      18.752692      1.5169552     -1.758013       18230.549    
    113000   0.9477819      0.0023323615  -0.002400411    20.303475      18.896019      1.4074561     -1.6322395      18150.988    
    114000   1.0715581      0.0023323615  -0.00059566509  20.317815      18.726551      1.5912638     -1.757208       18166.775    
    115000   0.98535235     0.0023323615   0.0055887028   20.316269      18.853021      1.4632482     -1.6610327      18068.636    
    116000   0.99936585     0.0023323615  -0.0018417692   20.206146      18.722088      1.4840583     -1.8260757      18051.434    
    117000   0.91973606     0.0023323615  -0.00096307263  19.98307       18.617261      1.365808      -1.895478       17915.774    
    118000   1.0080043      0.0023323615   0.0049291286   20.35486       18.857974      1.4968864     -1.6573515      18035.791    
    119000   0.89287994     0.0023323615   0.0040637698   20.060311      18.734384      1.3259267     -1.7075317      17941.221    
    120000   1.0745133      0.0023323615  -0.00079795295  20.61771       19.022057      1.5956523     -1.6147669      18102.894    
    121000   1.0579601      0.0023323615   0.0042040192   20.364044      18.792973      1.5710708     -1.7704114      18092.991    
    122000   1.0720555      0.0023323615   0.00027753143  20.240332      18.64833       1.5920024     -1.8397759      18179.518    
    123000   0.96644294     0.0023323615  -0.0027856608   20.183687      18.748519      1.4351678     -1.7539231      18142.977    
    124000   1.2314286      0.0023323615   0.00058808091  20.578239      18.749568      1.8286715     -1.7479456      18073.399    
    125000   0.83403962     0.0023323615  -0.0030860321   19.999981      18.761433      1.2385488     -1.798705       18044.6      
    126000   1.0018081      0.0023323615  -0.00052076934  19.987708      18.500023      1.487685      -1.9371356      18045.315    
    127000   1.0203878      0.0023323615  -0.0031165121   20.272109      18.756833      1.5152759     -1.7892643      18119.392    
    128000   0.97699718     0.0023323615  -0.001679263    20.254191      18.80335       1.4508408     -1.7555629      18034.696    
    129000   0.92901884     0.0023323615  -0.0010751253   20.238934      18.859341      1.379593      -1.7149459      18116.487    
    130000   0.99914493     0.0023323615  -0.0030538175   20.146058      18.662328      1.4837302     -1.8920137      17978.371    
    131000   0.97104481     0.0023323615   0.00058590527  19.897771      18.455769      1.4420016     -1.999135       17947.354    
    132000   0.88141728     0.0023323615   0.0024463409   20.154648      18.845743      1.3089047     -1.7347811      18100.685    
    133000   1.0981752      0.0023323615   0.00082493222  20.070774      18.439984      1.6307902     -2.0609954      18226.522    
    134000   0.94045647     0.0023323615  -0.0039007944   20.041104      18.644526      1.3965779     -1.7715366      18065.434    
    135000   1.1134217      0.0023323615   0.0011308514   20.263112      18.60968       1.6534312     -1.9534453      18202.961    
    136000   1.0356791      0.0023323615   0.0024559749   20.086461      18.548477      1.5379834     -1.9940439      18247.367    
    137000   0.97191155     0.0023323615   0.0024912794   20.112654      18.669365      1.4432887     -1.893029       18069.611    
    138000   0.98271539     0.0023323615  -0.0014054378   20.216879      18.757546      1.4593324     -1.7498846      17974.946    
    139000   0.89342001     0.0023323615  -1.7354816e-05  19.94502       18.618292      1.3267287     -1.836741       17921.738    
    140000   1.0903868      0.0023323615   5.7276745e-05  20.512814      18.89359       1.6192244     -1.6331192      17981.824    
    141000   0.93272775     0.0023323615  -0.0020322857   20.301361      18.916261      1.3851007     -1.5472576      18142.403    
    142000   1.0539663      0.0023323615   0.0018991364   20.284696      18.719556      1.56514       -1.7698666      17952.825    
    143000   0.95061551     0.0023323615   0.00021348761  20.245343      18.833679      1.411664      -1.7719483      17998.091    
    144000   1.1190672      0.0023323615   0.0015478809   20.279507      18.617692      1.6618148     -1.8297093      18155.075    
    145000   1.1216391      0.0023323615  -0.0008918977   20.264914      18.59928       1.6656341     -1.7873948      17976.137    
    146000   0.95104197     0.0023323615  -0.0014724738   20.140618      18.728321      1.4122973     -1.7920853      17953.329    
    147000   1.0388986      0.0023323615  -2.4596334e-05  20.500458      18.957694      1.5427644     -1.5243396      18074.935    
    148000   0.92708625     0.0023323615  -0.0026888201   20.115436      18.738713      1.3767231     -1.7359921      18749.477    
    149000   0.95351911     0.0023323615  -0.00093357788  20.345307      18.929331      1.4159759     -1.5817578      19027.216    
    150000   1.0188147      0.0023323615   0.00071988884  20.277526      18.764586      1.5129399     -1.6432979      18661.695    
    151000   1.063446       0.0023323615  -0.0053446533   20.263559      18.684342      1.5792173     -1.8084663      18213.66     
    152000   0.91708195     0.0023323615   0.0020546828   19.80353       18.441664      1.3618667     -2.0366074      18043.603    
    153000   1.0395434      0.0023323615   0.001843911    20.015165      18.471443      1.543722      -1.9086543      18153.189    
    154000   0.85019195     0.0023323615  -0.0054325917   20.153411      18.890876      1.262535      -1.776995       18219.92     
    155000   1.0412183      0.0023323615   0.0089568099   20.227331      18.681122      1.5462091     -1.8505622      18174.79     
    156000   1.0273745      0.0023323615   0.00024685881  20.164414      18.638763      1.5256511     -1.9193676      18194.45     
    157000   0.96419757     0.0023323615  -0.00058142382  20.161563      18.72973       1.4318334     -1.8233         18218.344    
    158000   0.89270883     0.0023323615  -0.0023277575   20.080243      18.75457       1.3256726     -1.7843789      18091.066    
    159000   0.82369931     0.0023323615  -7.8995485e-05  20.242711      19.019518      1.2231935     -1.475102       18279.043    
    160000   1.1022206      0.0023323615   0.0019468939   20.839622      19.202825      1.6367977     -1.2295676      18368.718    
    161000   1.1441889      0.0023323615   0.0032837605   20.508059      18.808938      1.6991205     -1.6909068      18389.809    
    162000   0.99400071     0.0023323615   0.0019807791   20.018182      18.542091      1.476091      -1.8954124      18410.029    
    163000   0.89846325     0.0023323615   0.0015418432   20.143228      18.80901       1.3342179     -1.6971792      18354.541    
    164000   0.98887498     0.0023323615  -0.0026979774   20.27476       18.806281      1.4684793     -1.7598617      18250.036    
    165000   0.95539037     0.0023323615  -0.00097022141  20.054182      18.635427      1.4187547     -1.752407       18126.124    
    166000   1.0747065      0.0023323615   0.0050226417   20.370288      18.774348      1.5959392     -1.7099654      18052.459    
    167000   1.152366       0.0023323615   0.0016360492   20.363618      18.652354      1.7112635     -1.8700528      18100.091    
    168000   1.0420385      0.0023323615   0.0047217664   20.679705      19.132278      1.5474272     -1.3430773      18384.071    
    169000   1.0891205      0.0023323615   0.0004961993   20.833822      19.216478      1.617344      -1.3795663      18306.789    
    170000   1.0560427      0.0023323615  -0.0025729941   20.413295      18.845072      1.5682234     -1.586095       18173.973    
    171000   0.95481627     0.0023323615  -0.0047615191   20.191352      18.77345       1.4179022     -1.7318409      18094.372    
    172000   0.88389404     0.0023323615  -0.00032122757  20.020001      18.707418      1.3125827     -1.7880017      18109.683    
    173000   0.93188354     0.0023323615  -0.0027872191   20.326507      18.94266       1.3838471     -1.6360078      17999.442    
    174000   0.90322429     0.0023323615  -0.00070550666  20.408216      19.066928      1.3412881     -1.6044247      18050.922    
    175000   0.9979314      0.0023323615   0.0020582621   20.324929      18.843001      1.4819281     -1.7120067      18082.849    
    176000   1.0088146      0.0023323615   0.0060837872   20.175069      18.676979      1.4980898     -1.9236717      17963.766    
    177000   1.1362181      0.0023323615  -0.00057660421  20.587967      18.900683      1.6872838     -1.6120223      18006.059    
    178000   0.98715111     0.0023323615  -0.0021590959   20.332226      18.866306      1.4659194     -1.595069       18144.718    
    179000   0.95543405     0.0023323615   0.0023874523   20.331836      18.913017      1.4188196     -1.6151854      18097.597    
    180000   0.92723957     0.0023323615   0.00061459314  20.038753      18.661802      1.3769508     -1.9465599      18028.614    
    181000   0.94964427     0.0023323615  -0.00027759137  20.054819      18.644598      1.4102217     -1.9735449      17896.256    
    182000   1.0393687      0.0023323615   0.0030051283   20.442307      18.898845      1.5434625     -1.7982165      18048.056    
    183000   0.97720234     0.0023323615   0.0014169287   20.223126      18.771981      1.4511455     -1.8096204      17982.313    
    184000   1.0189953      0.0023323615   0.0025352738   20.050427      18.537219      1.5132081     -1.9122965      17932.005    
    185000   0.99781095     0.0023323615  -0.0023581034   20.230123      18.748373      1.4817493     -1.6443046      18041.636    
    186000   1.0529154      0.0023323615  -0.001456712    20.401036      18.837456      1.5635794     -1.6910216      18156.607    
    187000   1.1749524      0.0023323615  -0.0031098846   20.545427      18.800623      1.7448042     -1.712708       18094.142    
    188000   0.85694064     0.0023323615  -0.00032333528  20.147642      18.875085      1.2725568     -1.6380807      18166.57     
    189000   0.8883586      0.0023323615   0.0046207847   20.035097      18.715884      1.3192125     -1.7726411      18193.429    
    190000   1.0767586      0.0023323615  -0.0010585087   20.349846      18.75086       1.5989866     -1.7273238      18200.422    
    191000   1.168776       0.0023323615  -0.0007598671   20.440678      18.705045      1.7356323     -1.851157       18076.817    
    192000   0.97511906     0.0023323615  -0.0049198995   20.343844      18.895793      1.4480518     -1.7384037      18117.727    
    193000   0.94451472     0.0023323615  -0.0023168981   20.157028      18.754423      1.4026044     -1.831596       18126.348    
    194000   0.99652926     0.0023323615   0.0050915651   20.071708      18.591862      1.479846      -1.8949523      18187.372    
    195000   0.97600577     0.0023323615   0.00040205457  20.285698      18.83633       1.4493686     -1.6989864      18220.922    
    196000   0.99579778     0.0023323615   0.0052304601   20.380537      18.901777      1.4787597     -1.7534613      18271.635    
    197000   0.95111399     0.0023323615  -0.00066432375  20.333967      18.921563      1.4124043     -1.5544079      18247.62     
    198000   1.0418268      0.0023323615  -0.0012433334   20.880599      19.333486      1.5471128     -1.4764692      18284.564    
    199000   0.99614075     0.0023323615  -0.0031155511   20.248378      18.769109      1.479269      -1.8373032      18223.53     
    200000   0.94716324     0.0023323615  -0.0025835825   20.199244      18.792706      1.4065374     -1.8384828      18215.099    
    201000   1.1167494      0.0023323615   0.0018719085   20.287328      18.628955      1.6583728     -1.8927652      18163.265    
    202000   0.99294069     0.0023323615  -0.00072398595  20.292881      18.818364      1.4745169     -1.5765036      18405.221    
    203000   0.9546327      0.0023323615  -0.0009478377   20.697584      19.279955      1.4176296     -1.4605853      18991.502    
    204000   0.98841614     0.0023323615   5.8327032e-05  20.307521      18.839723      1.467798      -1.6656423      18577.78     
    205000   1.1631178      0.0023323615   0.0021629379   20.407007      18.679777      1.72723       -1.869402       18140.055    
    206000   0.9028263      0.0023323615  -0.0047167408   20.323857      18.98316       1.3406971     -1.5874925      18158.959    
    207000   1.0014044      0.0023323615   0.0011839677   20.525193      19.038108      1.4870856     -1.4475943      18298.154    
    208000   0.96757797     0.0023323615  -0.0056815242   20.308492      18.871639      1.4368533     -1.6950973      18250.433    
    209000   0.99119477     0.0023323615   0.0018142809   20.282934      18.81101       1.4719242     -1.6060911      18257.106    
    210000   1.0797159      0.0023323615  -0.0038980216   20.201049      18.597671      1.6033781     -1.8656284      18202.078    
    211000   0.89230138     0.0023323615  -0.0022271269   20.289646      18.964579      1.3250675     -1.5905033      18209.938    
    212000   0.80771182     0.0023323615   0.0019792875   19.977738      18.778286      1.1994521     -1.7038909      18320.69     
    213000   0.92901953     0.0023323615   0.00082454883  20.182122      18.802528      1.379594      -1.5667704      18227.856    
    214000   1.107497       0.0023323615  -0.0016261389   20.474067      18.829434      1.6446331     -1.6445229      18200.9      
    215000   1.0011021      0.0023323615   0.00029860722  20.578661      19.092025      1.4866367     -1.3631361      18169.593    
    216000   1.0317126      0.0023323615  -0.0033881576   20.785898      19.253805      1.5320932     -1.3137227      18781.501    
    217000   0.87531563     0.0023323615   0.0023846367   20.376582      19.076738      1.2998437     -1.4871812      18709.001    
    218000   0.91992601     0.0023323615   0.0041892664   20.319624      18.953534      1.3660901     -1.4866845      18322.214    
    219000   1.1951348      0.0023323615   0.00083822725  20.630618      18.855843      1.7747752     -1.650562       18041.137    
    220000   0.85529941     0.0023323615  -0.0011641092   20.402118      19.131999      1.2701196     -1.5350707      18068.257    
    221000   0.98584622     0.0023323615   0.003870533    20.140714      18.676733      1.4639816     -1.8515997      18017.474    
    222000   1.0793994      0.0023323615   0.0018832612   20.2578        18.654892      1.6029081     -1.8481576      17991.308    
    223000   0.90642888     0.0023323615   0.00050908256  20.032491      18.686444      1.3460469     -1.819128       18160.168    
    224000   0.77807725     0.0023323615  -0.00063306581  20.045618      18.890173      1.1554447     -1.6365842      18181.333    
    225000   1.022174       0.0023323615  -0.0028703738   20.268824      18.750895      1.5179284     -1.8579851      18144.421    
    226000   0.95279795     0.0023323615  -0.0049395739   20.197568      18.782663      1.414905      -1.6794731      18230.164    
    227000   0.81345422     0.0023323615  -0.00034936076  20.146638      18.938658      1.2079795     -1.5346564      18240.044    
    228000   0.96332817     0.0023323615   0.001104611    20.187237      18.756695      1.4305423     -1.7076416      18156.247    
    229000   1.0518715      0.0023323615   0.003825024    20.502718      18.940689      1.5620292     -1.6763475      18206.557    
    230000   0.8690795      0.0023323615   0.0028151611   20.306561      19.015978      1.2905831     -1.5612643      18106.359    
    231000   0.8848724      0.0023323615  -0.0011770439   20.214418      18.900383      1.3140355     -1.4965672      18208.427    
    232000   0.95756938     0.0023323615   0.0012332143   20.336146      18.914155      1.4219905     -1.6579885      18043.126    
    233000   1.0597797      0.0023323615  -0.0040191382   20.349764      18.775992      1.5737729     -1.7372086      18203.884    
    234000   0.86828592     0.0023323615   0.0008515341   20.038894      18.749489      1.2894046     -1.7065073      18217.38     
    235000   1.0977063      0.0023323615  -1.8750899e-05  20.402026      18.771932      1.6300939     -1.587948       18220.692    
    236000   0.93395738     0.0023323615  -0.0020192319   20.270311      18.883385      1.3869267     -1.6949542      18345.598    
    237000   1.0588287      0.0023323615  -0.001779595    20.54947       18.977109      1.5723606     -1.6687318      18131.909    
    238000   0.90079381     0.0023323615  -0.0010022083   20.04613       18.708451      1.3376788     -1.7490441      18040.791    
    239000   0.94355264     0.0023323615  -0.002962593    20.233672      18.832496      1.4011757     -1.6656215      18173.861    
    240000   1.0431516      0.0023323615  -0.0027498996   20.37421       18.82513       1.5490802     -1.8418061      18039.637    
    241000   1.0274511      0.0023323615  -0.00059302555  20.302504      18.776739      1.5257649     -1.7725579      18156.072    
    242000   1.0867626      0.0023323615  -0.0012929634   20.447567      18.833725      1.6138425     -1.7044831      18120.24     
    243000   0.84983078     0.0023323615  -0.0011008774   20.132357      18.870358      1.2619987     -1.5564978      18164.478    
    244000   0.89104304     0.0023323615   0.00042597473  19.791545      18.468346      1.3231989     -2.0001528      18170.119    
    245000   0.94572309     0.0023323615   0.0058181853   20.142171      18.737772      1.4043988     -1.9004291      18252.265    
    246000   1.0646368      0.0023323615   0.00044187004  20.426684      18.845699      1.5809857     -1.6829163      18141.437    
    247000   0.81666631     0.0023323615  -0.0040310292   19.799977      18.587227      1.2127495     -1.8051468      18227.839    
    248000   1.0240352      0.0023323615   0.0041980555   20.498158      18.977465      1.5206922     -1.590227       18159.104    
    249000   0.98474193     0.0023323615  -0.0030796211   20.366898      18.904556      1.4623418     -1.5954966      17971.208    
    250000   1.1421904      0.0023323615   0.00038413151  20.432711      18.736559      1.6961528     -1.8390011      18064.499    
    251000   1.0335493      0.0023323615   0.0010283959   20.51219       18.97737       1.5348207     -1.5032038      18020.128    
    252000   0.99379819     0.0023323615  -0.0023508051   20.229728      18.753938      1.4757903     -1.7391135      18176.985    
    253000   0.95203256     0.0023323615   0.0039583431   20.321091      18.907322      1.4137683     -1.5157249      18235.855    
    254000   0.79408446     0.0023323615  -0.0022768698   19.995354      18.816138      1.1792154     -1.6663599      18174.02     
    255000   1.1689495      0.0023323615   0.0021996066   20.564171      18.828281      1.73589       -1.6849795      18228.865    
    256000   0.96175237     0.0023323615   0.00027741035  20.201075      18.772872      1.4282023     -1.7716544      18006.952    
    257000   1.0036395      0.0023323615  -0.0068787957   20.231709      18.741305      1.4904046     -1.7784714      18192.931    
    258000   0.9831083      0.0023323615  -0.00030135323  19.887483      18.427568      1.4599158     -2.0628168      18144.946    
    259000   0.99827528     0.0023323615   0.00024819695  20.243152      18.760713      1.4824388     -1.7188934      18116.793    
    260000   0.88699027     0.0023323615   0.0035761632   19.846164      18.528983      1.3171806     -1.9079697      18093.68     
    261000   1.0348499      0.0023323615  -0.0021335755   20.235252      18.6985        1.5367521     -1.7832725      18083.589    
    262000   1.0618145      0.0023323615   0.00050893338  20.111921      18.535127      1.5767945     -2.0040004      18099.286    
    263000   0.87535532     0.0023323615  -0.00033863544  20.311591      19.011688      1.2999027     -1.54691        18133.342    
    264000   1.1083693      0.0023323615  -0.00027150807  20.658466      19.012538      1.6459283     -1.4463014      18103.958    
    265000   1.0169255      0.0023323615  -0.00092315476  20.245006      18.734872      1.5101344     -1.7544455      18220.203    
    266000   1.000009       0.0023323615   0.0012534554   20.450808      18.965795      1.4850133     -1.7143919      18065.562    
    267000   1.1505387      0.0023323615   0.00088899437  20.324575      18.616025      1.7085499     -1.8904439      17902.94     
    268000   0.9880543      0.0023323615  -0.0017895307   20.196148      18.728887      1.4672606     -1.747701       18055.79     
    269000   1.0060948      0.0023323615   0.00010116533  20.245181      18.75113       1.4940508     -1.8448727      18067.668    
    270000   1.0352993      0.0023323615  -0.00061067354  20.283686      18.746267      1.5374195     -1.7621092      18029.562    
    271000   1.0257281      0.0023323615  -0.0019933746   20.243798      18.720592      1.5232062     -1.7403556      18061.217    
    272000   1.0613829      0.0023323615  -0.00095305647  20.486234      18.910081      1.5761537     -1.5440993      18195.77     
    273000   0.89958189     0.0023323615  -0.0005352459   20.337284      19.001405      1.3358791     -1.5557166      18527.629    
    274000   0.90990379     0.0023323615  -0.001176066    20.62139       19.270182      1.3512071     -1.2253831      18289.949    
    275000   0.85697283     0.0023323615   0.0016741742   20.373847      19.101243      1.2726047     -1.3980969      18278.722    
    276000   1.0534054      0.0023323615   0.0061368407   20.708829      19.144521      1.5643071     -1.5301472      18178.988    
    277000   0.92524872     0.0023323615   0.00022760598  20.391932      19.017937      1.3739943     -1.5199915      18040.325    
    278000   0.95379749     0.0023323615  -0.00324546     20.479267      19.062878      1.4163893     -1.5434078      18048.405    
    279000   1.0364125      0.0023323615  -0.0018224903   20.423256      18.884183      1.5390726     -1.6392055      18099.129    
    280000   0.96384806     0.0023323615   0.00065937723  20.171806      18.740492      1.4313144     -1.7220461      18170.575    
    281000   1.1893133      0.0023323615   0.00016216043  20.519837      18.753707      1.7661303     -1.6582282      18295.068    
    282000   1.0501548      0.0023323615  -0.0035813235   20.185865      18.626385      1.5594799     -1.7997435      18194.851    
    283000   1.0237385      0.0023323615  -0.0046696735   20.092375      18.572124      1.5202517     -1.8885386      18032.803    
    284000   1.0644204      0.0023323615  -0.006419105    20.398469      18.817805      1.5806644     -1.6715483      18128.784    
    285000   1.0020899      0.0023323615   0.0014810479   20.410038      18.921934      1.4881035     -1.6641202      18287.687    
    286000   0.91146743     0.0023323615   0.0029343763   19.99717       18.643641      1.3535291     -1.8242474      18238.438    
    287000   0.85740026     0.0023323615  -0.00025626969  20.157633      18.884394      1.2732394     -1.7514918      18328.663    
    288000   0.94122937     0.0023323615   0.0011551539   20.298427      18.900701      1.3977256     -1.697795       18290.837    
    289000   1.1036838      0.0023323615  -0.0024347189   20.580611      18.941641      1.6389704     -1.4608248      18128.952    
    290000   1.04985        0.0023323615   0.0016939883   20.56832       19.009293      1.5590273     -1.4812488      18281.544    
    291000   1.1688265      0.0023323615  -0.0011026817   20.488636      18.752929      1.7357074     -1.7085659      18442.902    
    292000   0.96631329     0.0023323615  -0.0072225531   20.080958      18.645983      1.4349752     -1.8714697      18348.438    
    293000   0.90983603     0.0023323615  -0.0020472802   20.334037      18.982931      1.3511065     -1.7260926      18238.904    
    294000   0.89301236     0.0023323615  -0.0030845878   20.20927       18.883147      1.3261234     -1.6314951      18401.723    
    295000   0.97039453     0.0023323615  -0.0024984884   20.174485      18.733449      1.4410359     -1.8149032      18596.041    
    296000   1.0242601      0.0023323615   0.0020838524   20.392601      18.871575      1.5210263     -1.7079822      18361.315    
    297000   0.95341146     0.0023323615  -0.00073275299  20.159531      18.743715      1.415816      -1.7786081      18255.861    
    298000   0.97142286     0.0023323615  -0.0013630354   20.264023      18.82146       1.4425629     -1.7275184      18311.625    
    299000   1.0615225      0.0023323615  -0.00062447334  20.679586      19.103226      1.5763609     -1.3823138      18430.224    
    300000   0.97337515     0.0023323615  -0.00096730949  20.276417      18.830954      1.4454621     -1.6175365      18517.699    
    301000   0.94687613     0.0023323615   0.00084468957  20.201853      18.795742      1.4061111     -1.7551021      18322.876    
    302000   1.0143534      0.0023323615   0.0012258887   20.627878      19.121563      1.5063149     -1.4047018      18248.061    
    303000   0.79725637     0.0023323615  -0.0033598628   20.311761      19.127835      1.1839257     -1.5056634      18275.696    
    304000   1.054838       0.0023323615  -0.00052762317  20.358567      18.792132      1.5664344     -1.7263636      18226.495    
    305000   0.96468731     0.0023323615   0.001212122    20.330814      18.898253      1.4325607     -1.5892829      18118.559    
    306000   1.1204247      0.0023323615  -0.00075402654  20.547785      18.883954      1.6638306     -1.5707302      18129.064    
    307000   0.96335248     0.0023323615  -0.00030577946  20.368303      18.937724      1.4305784     -1.5876991      18219.112    
    308000   0.90363315     0.0023323615   0.0029020022   20.261562      18.919667      1.3418952     -1.562869       18160.614    
    309000   1.0443061      0.0023323615   0.00017113024  20.40573       18.854935      1.5507945     -1.7218589      18221.447    
    310000   1.0487722      0.0023323615  -0.00057354379  20.331838      18.774411      1.5574268     -1.7962678      18165.602    
    311000   0.9100006      0.0023323615  -0.00065095929  19.814843      18.463492      1.3513509     -2.0596023      18134.153    
    312000   1.0703771      0.0023323615   0.00080832735  20.300803      18.711293      1.58951       -1.8083082      18131.922    
    313000   1.0072374      0.0023323615  -0.0010026366   20.062952      18.567204      1.4957475     -1.9233267      18103.945    
    314000   1.0807046      0.0023323615   0.0020273384   20.349805      18.744958      1.6048464     -1.8216202      18198.656    
    315000   0.91018573     0.0023323615  -0.00037344287  20.063074      18.711448      1.3516258     -1.898319       18224.445    
    316000   1.0135293      0.0023323615   0.00090159516  20.230393      18.725302      1.5050909     -1.6701291      18288.585    
    317000   1.0876396      0.0023323615  -0.0033228602   20.119015      18.50387       1.6151449     -2.0101669      18157.42     
    318000   0.89922867     0.0023323615  -0.0068004275   20.278188      18.942833      1.3353546     -1.6373935      18156.006    
    319000   1.0567893      0.0023323615  -0.0027800775   20.183647      18.614315      1.569332      -1.8367318      18256.589    
    320000   1.1718615      0.0023323615  -0.0033248058   20.701953      18.961738      1.7402144     -1.4844506      18269.317    
    321000   1.0045833      0.0023323615   0.0022209107   20.40015       18.908344      1.4918063     -1.6500125      18255.911    
    322000   0.88383518     0.0023323615  -0.0048162034   19.95658       18.644085      1.3124952     -1.8390588      18108.806    
    323000   1.0629569      0.0023323615   0.001161843    20.169204      18.590713      1.5784909     -1.882705       18068.946    
    324000   1.1218185      0.0023323615   0.0016604053   20.416016      18.750116      1.6659004     -1.6989197      18171.042    
    325000   0.95867887     0.0023323615   0.00071347054  20.080417      18.656779      1.4236381     -1.760821       18277.379    
    326000   0.91362328     0.0023323615   0.0026761845   20.259278      18.902548      1.3567306     -1.6573952      18592.47     
    327000   0.97345134     0.0023323615  -0.0017324462   20.384719      18.939144      1.4455752     -1.5978721      18352.682    
    328000   1.0307893      0.0023323615  -0.0029470149   20.240988      18.710266      1.5307221     -1.7917947      18085.5      
    329000   0.96021174     0.0023323615  -0.0029790235   20.109579      18.683664      1.4259144     -1.8809546      18078.444    
    330000   0.88624462     0.0023323615   0.0026894488   19.931441      18.615367      1.3160733     -1.8242328      18087.473    
    331000   0.93920157     0.0023323615   0.0015006724   20.126454      18.731739      1.3947143     -1.7593429      17993.877    
    332000   0.98870461     0.0023323615  -0.0010701924   20.472693      19.004466      1.4682263     -1.500848       18117.533    
    333000   1.0029881      0.0023323615  -0.0024862012   20.469919      18.980481      1.4894373     -1.501542       18142.357    
    334000   1.0094341      0.0023323615  -0.0022526881   20.577773      19.078764      1.4990096     -1.6515951      18275.415    
    335000   0.99357549     0.0023323615   0.0018816172   20.233635      18.758175      1.4754596     -1.6941153      18060.515    
    336000   1.0362728      0.0023323615   0.00031517288  20.320651      18.781786      1.5388651     -1.9341747      18116.461    
    337000   1.1343731      0.0023323615  -0.00061052022  20.478532      18.793987      1.6845441     -1.8157394      18101.203    
    338000   1.1021139      0.0023323615   0.0037494795   20.529872      18.893233      1.6366391     -1.7305054      18101.818    
    339000   0.89370143     0.0023323615   0.00044708769  20.324301      18.997154      1.3271466     -1.4613192      18235.092    
    340000   1.0131722      0.0023323615   0.00027546454  20.624132      19.119571      1.5045607     -1.464668       18290.13     
    341000   1.1840737      0.0023323615   0.0035551234   20.645598      18.887249      1.7583495     -1.6347935      18171.409    
    342000   0.97933876     0.0023323615  -0.0017569394   20.077197      18.622879      1.4543181     -1.9037159      17879.775    
    343000   1.0078716      0.0023323615   0.00023543253  20.266663      18.769974      1.4966894     -1.7653102      18097.777    
    344000   0.89028341     0.0023323615   0.0019997463   19.997201      18.67513       1.3220709     -1.8390759      18193.044    
    345000   1.0706263      0.0023323615   0.001856175    20.254367      18.664487      1.5898801     -1.8064452      18023.506    
    346000   1.1006792      0.0023323615  -0.0029943069   20.569925      18.935417      1.6345087     -1.6217052      18049.717    
    347000   1.0325883      0.0023323615   0.00054538992  20.481425      18.948031      1.5333937     -1.4981314      18169.686    
    348000   1.0376773      0.0023323615   0.00042246434  20.240546      18.699595      1.5409508     -1.7712572      18176.843    
    349000   1.0243418      0.0023323615   0.0053897928   20.333324      18.812176      1.5211476     -1.7258755      18108.878    
    350000   1.0659246      0.0023323615   0.0012603406   20.602179      19.019281      1.582898      -1.6098114      18222.715    
    351000   1.014217       0.0023323615  -0.0015510453   20.484251      18.978138      1.5061122     -1.6197828      18256.168    
    352000   1.0480053      0.0023323615   0.00013237592  20.173404      18.617116      1.5562878     -1.8467142      18238.025    
    353000   1.0212679      0.0023323615  -0.0011139057   20.213496      18.696913      1.5165829     -1.776662       18234.389    
    354000   0.81649058     0.0023323615   0.0014312449   20.019663      18.807175      1.2124885     -1.6673254      18366.998    
    355000   0.98734372     0.0023323615  -0.0017902731   20.271202      18.804997      1.4662054     -1.6987044      18243.615    
    356000   1.0998241      0.0023323615  -0.0037187868   20.611332      18.978093      1.6332388     -1.5717004      18143.297    
    357000   0.84553771     0.0023323615  -0.0010742703   19.75557       18.499947      1.2556235     -1.9324642      18245.299    
    358000   1.0682656      0.0023323615  -0.00085948282  20.391772      18.805397      1.5863744     -1.7241511      18054.98     
    359000   0.95375935     0.0023323615  -0.00091322516  20.359244      18.942911      1.4163326     -1.5404274      18348.624    
    360000   0.97554951     0.0023323615  -0.003996151    20.542025      19.093334      1.448691      -1.4515083      18148.449    
    361000   1.0412922      0.0023323615  -0.00091607848  20.417507      18.871188      1.546319      -1.6403394      18196.281    
    362000   1.1089421      0.0023323615  -0.0023662736   20.392251      18.745472      1.646779      -1.7351849      18206.378    
    363000   0.93146601     0.0023323615  -0.0043136727   20.133721      18.750494      1.383227      -1.8205133      18110.534    
    364000   1.0059045      0.0023323615   0.0010485958   20.117093      18.623325      1.4937682     -1.8176493      18164.517    
    365000   1.1225272      0.0023323615  -0.0053553842   20.486987      18.820034      1.666953      -1.6117291      18120.987    
    366000   1.0819005      0.0023323615   0.0035633448   20.491191      18.884568      1.6066223     -1.8635633      18231.046    
    367000   1.0683415      0.0023323615   0.0041441858   20.279293      18.692806      1.5864872     -1.7581032      18182.839    
    368000   0.9948991      0.0023323615  -0.0035414214   20.393424      18.915999      1.4774252     -1.6085119      18398.189    
    369000   0.99184009     0.0023323615   0.0026848714   20.309699      18.836817      1.4728825     -1.6922357      18264.382    
    370000   1.0461137      0.0023323615   0.00029479138  20.575783      19.022305      1.5534788     -1.4698953      18359.727    
    371000   0.79418147     0.0023323615   0.00067169396  20.035693      18.856334      1.1793595     -1.6276291      18359.086    
    372000   0.99512838     0.0023323615  -0.0018210645   20.05434       18.576575      1.4777656     -1.8625239      18318.649    
    373000   1.0759234      0.0023323615  -0.0051257503   20.178812      18.581066      1.5977462     -1.9174596      18315.009    
    374000   1.114641       0.0023323615   0.0019331374   20.502345      18.847103      1.6552418     -1.6752494      18173.023    
    375000   0.94547592     0.0023323615  -0.00043961795  19.971916      18.567884      1.4040317     -1.8133229      17993.513    
    376000   0.9835609      0.0023323615  -0.00047687682  20.458803      18.998215      1.4605879     -1.6060037      18292.258    
    377000   1.0906038      0.0023323615   0.0062399526   20.619503      18.999956      1.6195467     -1.6149833      18424.805    
    378000   0.95394657     0.0023323615  -0.0034145583   20.593853      19.177242      1.4166107     -1.4402678      18398.202    
    379000   0.96968564     0.0023323615  -0.0031558152   20.286559      18.846575      1.4399832     -1.5831957      18141.397    
    380000   1.0685594      0.0023323615   0.0024557596   20.676743      19.089933      1.5868107     -1.463899       18088.506    
    381000   1.0690631      0.0023323615  -0.0020287515   20.488342      18.900783      1.5875588     -1.6204266      18174.473    
    382000   0.81551713     0.0023323615  -0.00054961478  19.758882      18.547839      1.2110429     -1.9986683      18192.092    
    383000   1.0049413      0.0023323615   0.002431495    20.394207      18.901869      1.4923378     -1.6290534      18148.113    
    384000   1.1359773      0.0023323615   0.0010309748   20.494277      18.807351      1.6869263     -1.6579414      18174.072    
    385000   0.98764683     0.0023323615   0.0017953006   20.56655       19.099894      1.4666555     -1.3081097      18131.692    
    386000   1.0137549      0.0023323615   0.0031860937   20.153561      18.648135      1.505426      -1.8054086      18299.519    
    387000   0.99054059     0.0023323615  -0.00036066861  20.32633       18.855377      1.4709528     -1.7774216      18056.47     
    388000   1.009143       0.0023323615   0.0033451371   20.256048      18.757471      1.4985774     -1.823305       18146.806    
    389000   1.0661823      0.0023323615   0.00085205799  20.376395      18.793114      1.5832807     -1.7981342      18032.692    
    390000   0.94551267     0.0023323615   0.00035093361  20.323075      18.918988      1.4040863     -1.6637173      18140.764    
    391000   1.0069934      0.0023323615  -0.0021638546   20.213737      18.718352      1.4953852     -1.8376209      18118.329    
    392000   0.97674476     0.0023323615  -0.00015530418  20.236552      18.786086      1.450466      -1.7304194      18084.133    
    393000   0.94966636     0.0023323615   0.00013272066  20.458554      19.0483        1.4102545     -1.4514247      18196.138    
    394000   0.89413785     0.0023323615   0.0034744937   20.455595      19.1278        1.3277947     -1.3621039      18231.841    
    395000   0.88800905     0.0023323615   0.0010637656   20.170067      18.851374      1.3186934     -1.58777        18391.137    
    396000   0.88084476     0.0023323615   0.0053998341   20.110806      18.802752      1.3080545     -1.7478711      18153.711    
    397000   0.93216513     0.0023323615   6.9360705e-05  20.322729      18.938464      1.3842652     -1.6208824      18140.51     
    398000   0.96625874     0.0023323615   0.0027145908   20.217308      18.782413      1.4348942     -1.7662984      18084.255    
    399000   0.88780797     0.0023323615   0.0022993306   20.006432      18.688037      1.3183948     -1.7956282      18305.889    
    400000   1.0397814      0.0023323615  -0.00087400558  20.183508      18.639432      1.5440754     -1.7903783      18158.632    
    401000   1.0658335      0.0023323615  -0.00067973376  20.553547      18.970785      1.5827627     -1.6272145      17999.133    
    402000   0.82594804     0.0023323615  -0.0014001704   20.132869      18.906337      1.2265328     -1.671082       18120.164    
    403000   0.91108712     0.0023323615   0.00033848082  20.29299       18.940025      1.3529644     -1.5479183      18154.332    
    404000   1.0400154      0.0023323615  -0.0014861586   20.330371      18.785948      1.5444228     -1.7175389      18168.247    
    405000   1.0871898      0.0023323615  -0.0049789387   20.445997      18.83152       1.6144768     -1.6764723      18195.389    
    406000   0.91562051     0.0023323615   0.0008366056   20.056323      18.696627      1.3596965     -1.7933595      18328.381    
    407000   0.89538042     0.0023323615  -2.6870159e-05  20.066306      18.736666      1.3296399     -1.7788617      18213.151    
    408000   0.9954059      0.0023323615  -0.00035113472  20.469971      18.991793      1.4781778     -1.7433215      18372.187    
    409000   0.97127479     0.0023323615  -4.5987531e-06  20.469597      19.027254      1.4423431     -1.5351249      18275.064    
    410000   1.0339895      0.0023323615   0.0021034875   20.720495      19.18502       1.5354744     -1.358203       18362.551    
    411000   1.0254102      0.0023323615  -0.0046800845   20.306339      18.783605      1.5227341     -1.7476355      18338.261    
    412000   1.0455709      0.0023323615   0.0051754027   20.229932      18.677259      1.5526728     -1.8750731      18274.217    
    413000   0.88159279     0.0023323615   0.0040736127   20.058555      18.749389      1.3091653     -1.7052492      18071.583    
    414000   1.0229122      0.0023323615   0.0033603816   20.1231        18.604076      1.5190246     -1.8500031      18272.337    
    415000   1.0099425      0.0023323615  -0.0008381194   20.206917      18.707152      1.4997646     -1.8512168      18275.894    
    416000   1.0056483      0.0023323615  -0.00061580851  20.497817      19.00443       1.4933877     -1.5478795      18150.423    
    417000   1.028536       0.0023323615  -0.0034191625   20.337369      18.809993      1.527376      -1.7409633      18353.775    
    418000   1.0633054      0.0023323615   0.0025993953   20.20434       18.625332      1.5790085     -1.8815889      18423.312    
    419000   0.97694282     0.0023323615   0.0008859499   20.053451      18.602691      1.4507601     -1.7581199      18435.231    
    420000   1.0731855      0.0023323615  -0.0007311306   20.419783      18.826103      1.5936805     -1.7505727      18230.04     
    421000   1.2059956      0.0023323615  -0.0024518299   20.319177      18.528274      1.7909034     -2.0044521      18062.45     
    422000   1.1320356      0.0023323615   0.00056085055  20.515523      18.83445       1.6810729     -1.7421503      18163.311    
    423000   1.0172859      0.0023323615  -0.00085370659  20.197238      18.686569      1.5106696     -1.8635475      18246.376    
    424000   0.89355959     0.0023323615  -0.0023826668   19.763248      18.436312      1.326936      -2.0244708      18275.228    
    425000   1.1051876      0.0023323615  -0.0023511246   20.197625      18.556421      1.6412035     -1.8611         18140.345    
    426000   1.0172593      0.0023323615   0.0010848908   20.254648      18.744018      1.51063       -1.7253283      18266.565    
    427000   0.99658355     0.0023323615   0.00071255084  20.129332      18.649405      1.4799266     -1.8054186      18307.309    
    428000   1.0271558      0.0023323615  -0.0028547704   20.23002       18.704693      1.5253264     -1.7407656      18236.898    
    429000   0.94771374     0.0023323615   0.0011332184   20.093231      18.685876      1.4073549     -1.7899249      18151.377    
    430000   1.1324615      0.0023323615   0.0054373034   20.34296       18.661254      1.6817053     -1.8742337      18254.502    
    431000   0.9604928      0.0023323615  -0.00028855223  19.757016      18.330684      1.4263318     -2.114339       18489.022    
    432000   0.94645772     0.0023323615  -0.0026945891   20.177786      18.772297      1.4054897     -1.7695982      18159.65     
    433000   0.93974956     0.0023323615   0.0014418161   20.129767      18.734239      1.3955281     -1.7943657      18205.59     
    434000   1.1006265      0.0023323615   0.0018925569   20.53992       18.90549       1.6344304     -1.5841463      18276.994    
    435000   1.0213854      0.0023323615   0.0013777624   20.198018      18.68126       1.5167574     -1.8849786      18188.044    
    436000   1.0783893      0.0023323615  -0.001905864    20.81972       19.218312      1.6014082     -1.6553159      18319.1      
    437000   1.0568451      0.0023323615   0.00079793438  20.324072      18.754657      1.569415      -1.7145749      18370.358    
    438000   1.1599538      0.0023323615  -0.00158194     20.618893      18.896361      1.7225313     -1.6664817      18211.005    
    439000   0.93596975     0.0023323615  -0.00057811835  20.387062      18.997147      1.3899151     -1.3771167      18334.596    
    440000   0.98641859     0.0023323615   0.00071917511  20.248153      18.783321      1.4648316     -1.6302535      18399.24     
    441000   0.92075423     0.0023323615   0.0014342911   20.192308      18.824988      1.36732       -1.8011116      18146.912    
    442000   0.99284473     0.0023323615   0.0015499444   20.352101      18.877726      1.4743744     -1.612102       18359.744    
    443000   1.0982499      0.0023323615  -0.0004647977   20.526108      18.895207      1.6309011     -1.647919       18316.639    
    444000   1.0964496      0.0023323615   0.0045077454   20.74789       19.119663      1.6282277     -1.4119406      18484.746    
    445000   1.072587       0.0023323615   0.0040647643   20.486424      18.893633      1.5927917     -1.605084       18422.815    
    446000   1.0108394      0.0023323615   0.0028999648   20.508046      19.00695       1.5010965     -1.5497438      18343.505    
    447000   1.0128596      0.0023323615   0.0014338057   20.236742      18.732645      1.5040964     -1.7336034      18279.294    
    448000   1.1192587      0.0023323615  -0.0017734672   20.655204      18.993105      1.6620991     -1.5639855      18242.238    
    449000   1.0000726      0.0023323615   0.0003052154   20.25209       18.766982      1.4851078     -1.732278       18111.33     
    450000   0.9401117      0.0023323615  -0.0073639444   20.166411      18.770345      1.3960659     -1.7657675      18215.777    
    451000   1.0170744      0.0023323615  -0.00058666173  20.338527      18.828171      1.5103555     -1.6546097      18266.662    
    452000   0.99690261     0.0023323615   0.0018631705   20.309427      18.829027      1.4804004     -1.6497513      18210.35     
    453000   0.99987328     0.0023323615  -0.0002088983   20.346404      18.861593      1.4848118     -1.4946479      18229.477    
    454000   1.0681933      0.0023323615  -0.0013584532   20.28834       18.702073      1.586267      -1.7837386      18120.089    
    455000   1.171864       0.0023323615  -0.0052614658   20.684899      18.944681      1.740218      -1.6149088      18336.728    
    456000   0.96313034     0.0023323615   0.0010373632   20.00232       18.572072      1.4302486     -1.9097567      18085.539    
    457000   1.2401354      0.0023323615  -0.003353062    20.51253       18.670929      1.8416011     -1.8904688      18137.85     
    458000   0.96977415     0.0023323615  -0.0037168069   20.441002      19.000887      1.4401146     -1.4981929      18321.443    
    459000   1.0455425      0.0023323615   0.0011907717   20.267734      18.715104      1.5526306     -1.7635163      18194.543    
    460000   0.9819546      0.0023323615   0.0026753048   20.301066      18.842863      1.4582026     -1.5658341      18250.9      
    461000   0.97979138     0.0023323615   0.0035409362   20.32945       18.87446       1.4549902     -1.5478794      18137.395    
    462000   1.0179257      0.0023323615   0.00073193398  20.571265      19.059645      1.5116196     -1.4136697      18331.588    
    463000   1.0221282      0.0023323615   0.0048979075   20.378994      18.861134      1.5178603     -1.7380212      18333.023    
    464000   0.94875279     0.0023323615  -0.0041380839   20.546073      19.137175      1.4088979     -1.4362195      18215.282    
    465000   0.95167677     0.0023323615  -0.00094215449  20.253857      18.840617      1.41324       -1.7425679      18068.933    
    466000   0.95870578     0.0023323615  -0.00069683842  20.095846      18.672167      1.4236781     -1.8385297      18109.92     
    467000   1.019647       0.0023323615   0.0042962328   20.23075       18.716574      1.5141758     -1.7438327      18185.805    
    468000   0.99688204     0.0023323615  -0.0021463089   20.168463      18.688094      1.4803698     -1.8119484      18264.623    
    469000   1.0828412      0.0023323615   0.0012751946   20.577912      18.969893      1.6080192     -1.5106623      18266.615    
    470000   0.94468711     0.0023323615  -0.0018458669   20.14437       18.74151       1.4028604     -1.7933772      18271.494    
    471000   1.0490388      0.0023323615   0.00097004752  20.425778      18.867956      1.5578227     -1.5966556      18141.423    
    472000   1.0096211      0.0023323615   0.00082055175  20.569939      19.070652      1.4992873     -1.3850287      18293.854    
    473000   1.1087746      0.0023323615  -0.003253768    20.28582       18.63929       1.6465302     -1.7749488      18341.897    
    474000   0.83791894     0.0023323615   0.0021462093   20.268898      19.024588      1.2443096     -1.5115864      18230.939    
    475000   1.0212034      0.0023323615   0.0015004399   20.510403      18.993916      1.5164871     -1.5273359      18305.513    
    476000   0.87437867     0.0023323615  -0.00030749843  20.025588      18.727136      1.2984523     -1.7942656      18211.214    
    477000   1.1588821      0.0023323615  -0.0013091148   20.595129      18.874189      1.7209399     -1.6102666      18257.177    
    478000   0.93230268     0.0023323615   0.0053633291   20.328554      18.944084      1.3844695     -1.650459       18184.452    
    479000   0.98037828     0.0023323615  -0.004616042    20.345121      18.889259      1.4558617     -1.5331679      18258.058    
    480000   0.91897112     0.0023323615  -0.0035344441   20.413283      19.048611      1.3646721     -1.6468537      18145.826    
    481000   1.0679642      0.0023323615   0.0024134595   20.490036      18.904109      1.5859268     -1.7257894      18160.542    
    482000   0.98974361     0.0023323615  -0.00088455785  20.2418        18.77203       1.4697693     -1.7780986      18205.913    
    483000   1.0872887      0.0023323615   0.00094565525  20.409678      18.795055      1.6146237     -1.6313682      18024.352    
    484000   1.0436213      0.0023323615   0.002311203    20.435298      18.885521      1.5497777     -1.715776       18191.502    
    485000   1.0220239      0.0023323615   0.00039764748  20.229344      18.711639      1.5177055     -1.9118724      18145.424    
    486000   0.86902871     0.0023323615  -0.0014381443   20.02231       18.731803      1.2905076     -1.7893804      18101.847    
    487000   1.0494276      0.0023323615   0.0058772134   20.434533      18.876133      1.5584        -1.6277456      18090.925    
    488000   0.9580376      0.0023323615  -0.0010496385   20.071566      18.64888       1.4226858     -1.7608352      18068.832    
    489000   1.1986713      0.0023323615  -0.0039311933   20.513617      18.733591      1.7800269     -1.7579862      18204.876    
    490000   1.0531331      0.0023323615  -0.0028198839   20.509416      18.945513      1.5639026     -1.6112935      18109.243    
    491000   0.9102214      0.0023323615   0.00082753565  20.003801      18.652122      1.3516788     -1.7511608      18187.73     
    492000   0.91814019     0.0023323615   0.0017814435   20.211713      18.848275      1.3634382     -1.5685144      18080.53     
    493000   1.0112773      0.0023323615  -0.00068037213  20.338695      18.836949      1.5017468     -1.6022448      18303.613    
    494000   0.90157547     0.0023323615  -0.00047215278  19.839285      18.500446      1.3388396     -1.8942062      18122.606    
    495000   1.0536086      0.0023323615   0.0083062306   20.535319      18.97071       1.5646088     -1.6462056      18224.345    
    496000   0.95109642     0.0023323615   0.00088901907  19.931688      18.51931       1.4123782     -1.9636849      18247.263    
    497000   0.96712642     0.0023323615  -0.00073095198  20.197812      18.761629      1.4361827     -1.9003542      18142.462    
    498000   0.9323308      0.0023323615  -0.0014162587   20.271458      18.886947      1.3845112     -1.6374848      18191.204    
    499000   1.0353509      0.0023323615   0.0033578014   20.42569       18.888193      1.5374961     -1.6094247      18446.318    
    500000   0.87598875     0.0023323615   0.00089151982  19.978412      18.677569      1.3008433     -1.7732079      18372.14     
    501000   1.0291502      0.0023323615   0.00028895144  20.195048      18.66676       1.528288      -1.787395       18146.374    
    502000   0.88768013     0.0023323615   0.0021265969   20.464121      19.145916      1.318205      -1.3418798      18352.935    
    503000   1.0095738      0.0023323615   0.0042194367   20.385243      18.886026      1.4992171     -1.5284926      18462.252    
    504000   1.0385039      0.0023323615   0.00040026165  20.464666      18.922488      1.5421782     -1.4855125      18517.382    
    505000   0.90460146     0.0023323615  -0.0036672796   20.384582      19.041249      1.3433332     -1.5555425      18502.811    
    506000   0.99588994     0.0023323615  -0.00032915904  20.751477      19.272581      1.4788966     -1.2108208      18266.863    
    507000   1.1131314      0.0023323615   0.0034101549   20.791644      19.138644      1.6530001     -1.1978803      18377.86     
    508000   0.89834602     0.0023323615  -0.0022236816   20.359215      19.025171      1.3340438     -1.3914136      18356.28     
    509000   0.98211404     0.0023323615  -0.0017167065   20.62926       19.170821      1.4584393     -1.3136419      18674.184    
    510000   0.92430522     0.0023323615   0.001045087    20.224244      18.851651      1.3725932     -1.5867516      18504.241    
    511000   1.0022982      0.0023323615   0.00079018369  20.385353      18.896941      1.4884129     -1.6642826      18064.496    
    512000   0.77870061     0.0023323615  -0.0070607982   20.259438      19.103067      1.1563704     -1.5168213      18144.665    
    513000   0.91143682     0.0023323615   0.0018642661   20.330303      18.97682       1.3534837     -1.530338       18112.832    
    514000   1.0516262      0.0023323615  -0.0025272114   20.155504      18.59384       1.5616649     -1.8238192      18119.24     
    515000   0.97598406     0.0023323615  -0.00065588113  20.056114      18.606778      1.4493363     -1.9266433      18152.159    
    516000   1.0449356      0.0023323615   0.00064967601  20.138234      18.586504      1.5517293     -1.9832363      18119.661    
    517000   1.0027237      0.0023323615  -0.00025631994  20.137279      18.648234      1.4890447     -1.9271452      18197.757    
    518000   1.1236235      0.0023323615   0.00027738752  20.401372      18.732791      1.6685809     -1.6806494      18122.971    
    519000   0.96287976     0.0023323615   0.00055105437  20.00493       18.575053      1.4298764     -1.9062236      18187.054    
    520000   1.0396924      0.0023323615   0.00036080539  20.267559      18.723616      1.5439432     -1.7450538      18271.146    
    521000   1.0847316      0.0023323615   0.0033298033   20.510849      18.900022      1.6108264     -1.5905313      17918.624    
    522000   1.0122522      0.0023323615  -0.0016820401   20.380207      18.877012      1.5031945     -1.7131438      17997.588    
    523000   0.99766348     0.0023323615  -0.0013086261   20.463211      18.981681      1.4815303     -1.5795199      17977.173    
    524000   1.0993339      0.0023323615  -0.00037584314  20.615663      18.983152      1.6325109     -1.5910292      18064.08     
    525000   1.0172487      0.0023323615  -0.0024038287   20.277794      18.767179      1.5106144     -1.7243012      18126.424    
    526000   0.99516463     0.0023323615  -0.0010926295   20.202307      18.724487      1.4778195     -1.7764651      18016.882    
    527000   0.83034459     0.0023323615   0.0010028874   20.181842      18.94878       1.2330617     -1.5184609      17939.576    
    528000   1.1147029      0.0023323615   0.0036599404   20.609114      18.95378       1.6553338     -1.7558996      18072.84     
    529000   0.99018804     0.0023323615  -0.0028409779   20.595485      19.125056      1.4704292     -1.5043015      18129.114    
    530000   1.0850018      0.0023323615   0.003658901    20.443538      18.83231       1.6112277     -1.7596722      17915.092    
    531000   1.0416991      0.0023323615   0.0010816332   20.407402      18.860479      1.5469232     -1.6412617      17827.571    
    532000   0.97707255     0.0023323615  -0.0023692393   20.30553       18.854578      1.4509527     -1.6241875      17959.072    
    533000   0.99810883     0.0023323615   0.0014080653   20.55384       19.071648      1.4821916     -1.403498       18276.442    
    534000   0.92349222     0.0023323615  -0.0024397938   20.340413      18.969027      1.3713859     -1.5742537      18276.222    
    535000   0.98411838     0.0023323615   0.0019753178   20.478383      19.016967      1.4614158     -1.6660278      18010.676    
    536000   0.86139265     0.0023323615   0.0005354355   20.19191       18.912742      1.2791681     -1.5778917      17923.421    
    537000   0.94160915     0.0023323615   0.00031422972  20.38723       18.988941      1.3982896     -1.5017568      18049.619    
    538000   1.0420582      0.0023323615  -0.0033370226   20.258366      18.71091       1.5474564     -1.7715633      18023.636    
    539000   1.029237       0.0023323615   0.0030898725   20.500852      18.972435      1.5284169     -1.4692607      18040.814    
    540000   1.063952       0.0023323615  -0.001592958    20.526047      18.946078      1.5799687     -1.4971108      18128.912    
    541000   0.80514465     0.0023323615  -0.0020534985   20.108989      18.913349      1.1956398     -1.6095798      18217.031    
    542000   0.97204727     0.0023323615   0.0013606029   20.43728       18.99379       1.4434902     -1.5804162      18259.721    
    543000   1.0652847      0.0023323615  -0.00018098019  20.643391      19.061443      1.5819477     -1.4467693      18234.52     
    544000   1.0305725      0.0023323615  -0.0020369388   20.539473      19.009073      1.5304002     -1.4607056      18124.652    
    545000   0.91943274     0.0023323615  -0.0024303577   20.183504      18.818146      1.3653576     -1.6765832      18291.558    
    546000   0.97636492     0.0023323615   0.0044072429   20.377123      18.927221      1.4499019     -1.5979839      18160.386    
    547000   1.065253       0.0023323615   0.0013099939   20.330218      18.748317      1.5819007     -1.7192407      18250.53     
    548000   0.81425969     0.0023323615  -0.003859506    20.306857      19.097681      1.2091756     -1.4422036      18176.876    
    549000   0.86854275     0.0023323615  -0.0018721412   20.19185       18.902064      1.289786      -1.5608749      18108.241    
    550000   1.0771793      0.0023323615  -0.00079010219  20.276243      18.676632      1.5996113     -1.7750404      18024.023    
    551000   0.99484788     0.0023323615   0.0010180861   20.286582      18.809233      1.4773491     -1.7912866      18256.242    
    552000   1.0850367      0.0023323615  -0.0037494782   20.323474      18.712195      1.6112795     -1.7534024      17967.41     
    553000   0.8986428      0.0023323615  -9.3428342e-05  20.035766      18.701282      1.3344846     -1.8258977      18231.096    
    554000   1.0573812      0.0023323615  -0.0022599535   20.339709      18.769498      1.5702111     -1.6917957      18337.89     
    555000   1.0648041      0.0023323615   0.00052898383  20.718067      19.136833      1.5812341     -1.4446355      18304.663    
    556000   0.93794559     0.0023323615   0.0023016456   20.136078      18.743228      1.3928492     -1.7149526      18173.431    
    557000   0.8298791      0.0023323615   0.00018128321  19.903257      18.670887      1.2323705     -1.7929936      18033.663    
    558000   0.9978549      0.0023323615  -0.00037976477  20.207143      18.725328      1.4818145     -1.7826683      18123.879    
    559000   1.0784895      0.0023323615  -0.0018351439   20.377665      18.776108      1.6015569     -1.7695143      18182.869    
    560000   0.94923588     0.0023323615  -0.0037158254   20.459292      19.049677      1.4096153     -1.5070532      18205.212    
    561000   0.94067502     0.0023323615  -0.00063704456  20.074818      18.677915      1.3969024     -1.853418       18277.302    
    562000   0.91990819     0.0023323615   0.0022723516   20.238123      18.87206       1.3660637     -1.7427643      18200.926    
    563000   0.96575197     0.0023323615   0.0001227219   20.329838      18.895696      1.4341417     -1.5442387      18142.696    
    564000   1.0226675      0.0023323615  -0.0010274518   20.387396      18.868735      1.5186612     -1.6127696      18389.545    
    565000   0.94492332     0.0023323615   0.0021818011   20.101682      18.698471      1.4032111     -1.7774459      18488.625    
    566000   1.0959582      0.0023323615  -0.0028762159   20.55189       18.924392      1.6274979     -1.611763       18177.012    
    567000   1.0692576      0.0023323615  -0.0029603761   20.416691      18.828844      1.5878475     -1.7539085      18077.606    
    568000   0.87213847     0.0023323615  -0.0037097692   19.929845      18.63472       1.2951256     -1.8678105      18044.418    
    569000   0.97428439     0.0023323615  -0.002479223    20.351381      18.904568      1.4468123     -1.5883315      18174.596    
    570000   1.0670781      0.0023323615   0.0016781822   20.253051      18.66844       1.584611      -1.8344156      18122.076    
    571000   1.0879123      0.0023323615  -0.0011362563   20.429474      18.813924      1.6155498     -1.696555       18147.984    
    572000   0.87831925     0.0023323615  -0.0050171075   20.134677      18.830373      1.3043041     -1.6548719      18142.083    
    573000   1.0791284      0.0023323615   0.00078019938  20.40287       18.800365      1.6025056     -1.6600698      18184.748    
    574000   0.82434624     0.0023323615  -0.00019261256  20.122609      18.898455      1.2241542     -1.6066554      18303.136    
    575000   1.0115338      0.0023323615  -0.00040762296  20.68829       19.186162      1.5021277     -1.3399301      18544.155    
    576000   0.98637314     0.0023323615  -0.0072090107   20.734772      19.270008      1.4647641     -1.3374817      19041.478    
    577000   1.0513102      0.0023323615  -0.0011606113   20.721857      19.160661      1.5611957     -1.3995298      19400.624    
    578000   0.96544346     0.0023323615   0.0019337837   20.279612      18.845928      1.4336835     -1.584464       19359.83     
    579000   1.1183464      0.0023323615   0.0051166631   20.339682      18.678938      1.6607445     -1.8558305      18278.711    
    580000   0.95639363     0.0023323615   0.0013511252   20.382282      18.962037      1.4202445     -1.5329053      18101.282    
    581000   0.90025426     0.0023323615  -0.00095901271  20.498119      19.161241      1.3368776     -1.3593305      18138.018    
    582000   0.88507766     0.0023323615   0.0010643766   20.355007      19.040666      1.3143403     -1.389821       18222.858    
    583000   0.91977244     0.0023323615   0.0020560019   20.252724      18.886862      1.3658621     -1.7975322      18330.026    
    584000   1.1299584      0.0023323615   0.002316016    20.606564      18.928576      1.6779883     -1.5993425      18202.553    
    585000   1.097007       0.0023323615   0.0040574403   20.649172      19.020116      1.6290555     -1.5913076      18009.015    
    586000   0.98643834     0.0023323615  -0.0044634317   20.32071       18.855849      1.4648609     -1.7158785      17957.69     
    587000   0.88872461     0.0023323615  -0.0037434697   20.308153      18.988397      1.319756      -1.562234       18054.428    
    588000   1.0844645      0.0023323615  -0.0016822061   20.126982      18.516552      1.6104299     -1.9600401      17938.532    
    589000   1.0351513      0.0023323615   0.00074815711  20.496829      18.959629      1.5371996     -1.605681       17806.148    
    590000   0.92587679     0.0023323615  -0.0023510482   20.09547       18.720543      1.374927      -1.8845205      17914.616    
    591000   0.92121419     0.0023323615  -0.0027416212   20.056663      18.68866       1.3680031     -1.9130977      17744.193    
    592000   0.99616623     0.0023323615  -0.0027353857   20.227971      18.748664      1.4793069     -1.7839305      17754.284    
    593000   0.9863851      0.0023323615   0.0025367717   20.087494      18.622712      1.4647819     -1.9559333      17873.704    
    594000   0.92115231     0.0023323615   0.00010952261  19.926605      18.558694      1.3679112     -2.1202304      17912.266    
    595000   1.0140091      0.0023323615   0.0017734367   20.399296      18.893493      1.5058035     -1.6645684      17965.764    
    596000   0.89396357     0.0023323615  -0.0049497796   20.422037      19.094502      1.3275359     -1.4203398      18038.574    
    597000   0.95831919     0.0023323615  -0.0003222548   20.538175      19.115071      1.423104      -1.5260919      17994.292    
    598000   0.86117575     0.0023323615  -0.0032043049   20.307101      19.028255      1.278846      -1.4708904      18064.78     
    599000   0.97528653     0.0023323615  -0.0027748369   20.104067      18.655766      1.4483005     -1.7470556      17968.678    
    600000   0.87031267     0.0023323615  -0.00054417973  19.896141      18.603727      1.2924143     -1.8155789      18202.018    
    601000   1.0696249      0.0023323615  -0.0024145392   20.665021      19.076628      1.5883929     -1.4151831      18181.376    
    602000   0.99382687     0.0023323615   0.00039634424  20.171971      18.696138      1.4758329     -1.8238017      18146.704    
    603000   1.1084275      0.0023323615   0.0029709001   20.331108      18.685094      1.6460149     -1.7638262      17994.149    
    604000   1.1004282      0.0023323615   0.00204218     20.643228      19.009092      1.6341359     -1.4610411      18170.552    
    605000   1.1396366      0.0023323615   0.00077297361  20.776817      19.084456      1.6923604     -1.4913713      18449.874    
    606000   1.0212928      0.0023323615   0.0023910191   20.491333      18.974713      1.5166198     -1.6849001      18139.142    
    607000   0.92826152     0.0023323615  -0.0034518264   20.161933      18.783465      1.3784684     -1.6952407      18060.296    
    608000   1.1054681      0.0023323615   0.00040708444  20.445632      18.804012      1.6416201     -1.707724       17856.648    
    609000   0.97857039     0.0023323615  -0.0026416015   20.50498       19.051803      1.453177      -1.5617412      17960.116    
    610000   1.0027329      0.0023323615   0.0038198168   20.597723      19.108664      1.4890584     -1.4750223      18248.702    
    611000   0.90629532     0.0023323615  -0.00040015509  20.297353      18.951504      1.3458486     -1.6014104      18373.242    
    612000   0.87839078     0.0023323615   0.0034722249   20.215553      18.911143      1.3044103     -1.6726998      18282.14     
    613000   0.99633704     0.0023323615   0.0015815639   20.329364      18.849804      1.4795605     -1.6351136      18149.882    
    614000   0.8869983      0.0023323615  -0.0027824987   20.002268      18.685076      1.3171925     -1.8508289      18154.47     
    615000   1.0345774      0.0023323615   0.00047770684  20.61209       19.075742      1.5363475     -1.5917341      18142.703    
    616000   0.96392053     0.0023323615  -0.0023751234   20.43559       19.004168      1.431422      -1.3998941      17987.858    
    617000   0.92342631     0.0023323615  -0.0033636234   20.517489      19.146201      1.3712881     -1.4766668      18093.686    
    618000   1.0376263      0.0023323615  -0.0058959231   20.283735      18.74286       1.540875      -1.7427268      18095.526    
    619000   0.96280374     0.0023323615   0.0033223354   19.976395      18.546631      1.4297636     -1.9242376      18157.218    
    620000   0.85995902     0.0023323615   0.0040454073   20.439716      19.162677      1.2770391     -1.6119694      18259.541    
    621000   0.97562684     0.0023323615   0.002717177    20.222835      18.774029      1.4488059     -1.7752998      18208.869    
    622000   0.90991058     0.0023323615  -0.0030429463   20.234057      18.88284       1.3512172     -1.69708        17989.917    
    623000   1.046384       0.0023323615  -0.0017276766   20.350865      18.796985      1.5538802     -1.8456737      17929.545    
    624000   0.90797017     0.0023323615  -0.00048346687  20.103472      18.755137      1.3483357     -1.7882785      17861.211    
    625000   0.99485748     0.0023323615  -0.00067644711  20.423601      18.946238      1.4773634     -1.6322018      17901.219    
    626000   0.98192946     0.0023323615  -0.00055476902  20.229373      18.771207      1.4581652     -1.6598226      18048.51     
    627000   0.99714781     0.0023323615  -9.2177553e-05  20.425531      18.944766      1.4807645     -1.5982278      17996.105    
    628000   1.0940598      0.0023323615   0.0045393522   20.69171       19.067031      1.6246788     -1.5033207      18193.18     
    629000   1.1013598      0.0023323615  -0.0010572303   20.627076      18.991557      1.6355193     -1.5992137      18177.035    
    630000   1.0037832      0.0023323615   0.0032280242   20.184472      18.693854      1.490618      -1.7013292      18090.774    
    631000   0.95387377     0.0023323615  -0.00010187485  20.582554      19.166052      1.4165025     -1.5206002      18074.165    
    632000   1.0273765      0.0023323615   0.0011072973   20.213117      18.687463      1.5256541     -1.8569786      18193.405    
    633000   1.1584234      0.0023323615  -0.0015115281   20.734905      19.014646      1.7202588     -1.5410043      18278.915    
    634000   0.99049073     0.0023323615  -0.0014821591   20.370332      18.899453      1.4708787     -1.5834551      18237.578    
    635000   1.0063617      0.0023323615   0.0045073182   20.014302      18.519855      1.4944471     -1.9319182      18264.105    
    636000   1.1352186      0.0023323615   0.00060483995  20.572523      18.886724      1.6857996     -1.6437646      18294.099    
    637000   0.92344126     0.0023323615   0.0018142881   19.97203       18.60072       1.3713103     -1.9227266      18208.593    
    638000   0.88967295     0.0023323615  -0.0017962898   20.206732      18.885567      1.3211643     -1.7352208      18259.668    
    639000   1.0019128      0.0023323615   0.0016562072   20.343128      18.855288      1.4878405     -1.6640522      18025.309    
    640000   0.99869336     0.0023323615   0.0021553404   20.415084      18.932024      1.4830596     -1.5696684      18080.671    
    641000   0.95771804     0.0023323615   0.0016118856   20.524489      19.102278      1.4222113     -1.4944942      18186.971    
    642000   1.0052103      0.0023323615  -0.00022037653  20.349605      18.856868      1.4927373     -1.6220522      18367.305    
    643000   0.92871703     0.0023323615   0.0016074126   20.352502      18.973357      1.3791448     -1.5844442      18252.332    
    644000   0.95200597     0.0023323615   2.2462077e-05  20.553073      19.139345      1.4137289     -1.3720697      18269.769    
    645000   1.0167229      0.0023323615   0.0043320648   20.334469      18.824635      1.5098335     -1.6625461      18192.082    
    646000   0.97417144     0.0023323615   0.00067878793  20.404589      18.957944      1.4466446     -1.4942098      18089.761    
    647000   1.0417143      0.0023323615  -0.0065317913   20.366563      18.819617      1.5469458     -1.7021746      17997.264    
    648000   0.9421969      0.0023323615  -0.0020733566   20.364083      18.964921      1.3991624     -1.5670523      17997.965    
    649000   1.0800756      0.0023323615   0.0015402385   20.187797      18.583885      1.6039123     -1.8886837      17930.688    
    650000   0.96006288     0.0023323615   0.00091524831  20.458661      19.032968      1.4256934     -1.5668044      18027.133    
    651000   1.1181376      0.0023323615   0.00064272621  20.526938      18.866504      1.6604343     -1.5448083      18208.795    
    652000   1.034147       0.0023323615   0.0013854472   20.551751      19.016043      1.5357083     -1.5888037      18016.167    
    653000   1.0589002      0.0023323615  -0.00088517828  20.123028      18.550561      1.5724668     -1.9002909      17951.918    
    654000   0.90104036     0.0023323615  -0.0044441097   20.239373      18.901328      1.3380449     -1.7904021      17944.656    
    655000   1.0024814      0.0023323615   0.0037479454   20.338394      18.849709      1.4886849     -1.7100542      17903.26     
    656000   0.96854392     0.0023323615   0.0014267225   20.307232      18.868944      1.4382877     -1.6884436      17965.166    
    657000   0.97096463     0.0023323615  -0.00018199012  20.202485      18.760603      1.4418825     -1.8206046      18150.773    
    658000   0.96586245     0.0023323615  -0.0028761951   20.18347       18.749165      1.4343057     -1.8514587      17946.866    
    659000   0.88025277     0.0023323615   0.0010061482   20.146779      18.839604      1.3071754     -1.6388066      17844.699    
    660000   0.97284954     0.0023323615   0.0026304892   20.116625      18.671943      1.4446816     -1.9410545      18005.962    
    661000   1.0350134      0.0023323615   0.0032876974   20.05326       18.516265      1.536995      -1.8909046      18005.9      
    662000   1.0882289      0.0023323615  -0.00017959656  20.378517      18.762497      1.61602       -1.7331529      18086.159    
    663000   1.0200642      0.0023323615   4.0264162e-05  20.345847      18.831052      1.5147954     -1.8025176      18093.044    
    664000   1.0129864      0.0023323615  -0.003109846    20.514668      19.010383      1.5042848     -1.6119769      17998.523    
    665000   0.9759702      0.0023323615   0.0015198289   20.310844      18.861528      1.4493158     -1.7551935      17895.634    
    666000   0.99109949     0.0023323615  -6.6388159e-05  20.314512      18.842729      1.4717827     -1.6320591      17948.105    
    667000   0.89016125     0.0023323615   0.00045087428  19.985459      18.663569      1.3218895     -1.7975811      18027.956    
    668000   1.0087534      0.0023323615  -0.002775636    20.257759      18.75976       1.4979988     -1.7121984      17872.005    
    669000   1.004791       0.0023323615   0.00085490492  20.263631      18.771517      1.4921146     -1.8098237      18150.066    
    670000   0.96307085     0.0023323615  -0.00046770977  20.024802      18.594642      1.4301602     -1.9352436      18193.538    
    671000   1.0016079      0.0023323615  -0.00055626583  20.04139       18.554002      1.4873878     -1.8627598      17966.174    
    672000   0.87610824     0.0023323615  -0.00013015653  20.028819      18.727798      1.3010207     -1.8099892      18096.104    
    673000   0.88336269     0.0023323615  -0.00093316341  20.147737      18.835944      1.3117936     -1.7724389      18010.968    
    674000   0.91025669     0.0023323615  -0.0035949709   20.320903      18.969172      1.3517312     -1.5658464      18103.567    
    675000   1.0376054      0.0023323615   0.0064818845   20.178465      18.637621      1.5408441     -1.8030571      18149.812    
    676000   1.1101709      0.0023323615  -0.0027631553   20.37021       18.721607      1.6486038     -1.7932435      17934.851    
    677000   1.0869197      0.0023323615   8.9653307e-05  20.669383      19.055308      1.6140757     -1.4618375      18176.502    
    678000   0.85350776     0.0023323615   0.00080011352  20.176075      18.908616      1.267459      -1.6919556      18293.274    
    679000   1.046457       0.0023323615   0.00054395648  20.26947       18.715481      1.5539886     -1.7305452      18038.571    
    680000   0.99011091     0.0023323615  -0.0041718372   20.183362      18.713047      1.4703147     -1.7932774      17982.517    
    681000   0.995674       0.0023323615  -7.5771597e-05  20.058035      18.579459      1.4785759     -1.9290789      18006.783    
    682000   1.0221453      0.0023323615   0.0017786095   20.387546      18.869661      1.5178858     -1.6111955      17988.169    
    683000   0.95231134     0.0023323615  -0.0019482771   20.033794      18.619612      1.4141823     -1.9290368      18200.687    
    684000   0.83067652     0.0023323615  -0.0029518006   20.115629      18.882074      1.2335546     -1.8302169      18291.132    
    685000   0.93881686     0.0023323615  -0.0017239363   20.050283      18.65614       1.394143      -1.867177       18289.295    
    686000   0.94835372     0.0023323615  -0.00013223046  20.293347      18.885042      1.4083053     -1.6998799      18155.656    
    687000   1.0444263      0.0023323615  -0.0021589445   20.914294      19.363321      1.5509731     -1.3161457      18174.887    
    688000   0.97379446     0.0023323615   0.00010946438  20.638162      19.192077      1.4460848     -1.4054551      18409.736    
    689000   1.0967269      0.0023323615   0.0044864076   20.353763      18.725124      1.6286394     -1.8536078      18053.429    
    690000   1.1620009      0.0023323615  -0.0017064014   20.379787      18.654216      1.7255713     -1.8558404      18016.596    
    691000   0.99083157     0.0023323615   0.0010749923   20.228201      18.756816      1.4713849     -1.794872       17973.15     
    692000   0.94223414     0.0023323615   0.002402205    20.42087       19.021652      1.3992177     -1.4299477      18195.777    
    693000   0.8676504      0.0023323615   0.0065739864   20.15538       18.866919      1.2884609     -1.6402846      18439.795    
    694000   0.94017897     0.0023323615   0.004470248    19.961068      18.564902      1.3961658     -1.9236416      18256.776    
    695000   0.86521738     0.0023323615   0.00084703417  19.985018      18.70017       1.2848478     -1.8468558      18099.227    
    696000   1.0591205      0.0023323615   0.0010794448   20.343391      18.770597      1.5727939     -1.7721723      18218.879    
    697000   0.94446548     0.0023323615  -0.0020435066   20.20287       18.800339      1.4025312     -1.7544681      18247.334    
    698000   1.1246893      0.0023323615  -0.0026226475   20.434017      18.763854      1.6701636     -1.635434       18239.561    
    699000   1.0574304      0.0023323615  -0.0020814531   20.487138      18.916854      1.5702842     -1.5321974      18045.139    
    700000   1.1621241      0.0023323615  -0.0041399095   20.708209      18.982455      1.7257543     -1.6971112      18030.343    
    701000   1.0727348      0.0023323615   0.0036393377   20.2287        18.635689      1.5930111     -1.89648        17909.023    
    702000   0.99141519     0.0023323615   2.327515e-05   20.244762      18.772511      1.4722516     -1.5977231      18098.476    
    703000   1.095915       0.0023323615  -0.001182176    20.450805      18.823371      1.6274338     -1.7080002      18081.159    
    704000   0.99412438     0.0023323615   0.0049434259   20.12111       18.644836      1.4762747     -1.9018475      17959.909    
    705000   1.033516       0.0023323615   0.00048831945  20.271282      18.736511      1.5347713     -1.7661906      17973.512    
    706000   0.98237551     0.0023323615  -0.0020123495   20.137228      18.6784        1.4588276     -1.685448       17950.333    
    707000   1.0133773      0.0023323615  -0.003487377    20.418152      18.913286      1.5048653     -1.5849356      18013.722    
    708000   1.0115475      0.0023323615  -0.00043428829  20.600235      19.098087      1.502148      -1.3447521      18229.57     
    709000   1.140231       0.0023323615   0.0040845332   20.495845      18.802601      1.6932431     -1.5488219      18264.406    
    710000   0.91730189     0.0023323615  -0.0069193736   20.394263      19.03207       1.3621933     -1.520526       18320.552    
    711000   1.0194921      0.0023323615  -0.0040472952   20.645246      19.1313        1.5139458     -1.4263623      18408.378    
    712000   1.0057879      0.0023323615   0.0029521174   20.297906      18.804311      1.493595      -1.5806898      18200.495    
    713000   1.0118096      0.0023323615  -0.0010117003   20.595729      19.093192      1.5025373     -1.4655737      18160.267    
    714000   0.99526471     0.0023323615   0.0011812831   20.357283      18.879315      1.4779681     -1.5617544      18050.288    
    715000   1.0608277      0.0023323615  -0.0017177825   20.467925      18.892595      1.5753291     -1.5434546      18138.054    
    716000   1.0512841      0.0023323615   0.0010877923   20.313022      18.751865      1.5611568     -1.7056711      18159.117    
    717000   1.0766607      0.0023323615  -0.0039591371   20.422146      18.823305      1.5988411     -1.6712271      18110.544    
    718000   0.94140273     0.0023323615   0.0029604705   20.393575      18.995592      1.3979831     -1.6340005      18248.341    
    719000   0.98782087     0.0023323615  -0.0022302789   20.364642      18.897728      1.466914      -1.7156474      18214.185    
    720000   1.0441999      0.0023323615  -0.001491075    20.082631      18.531994      1.5506368     -1.8797374      17995.881    
    721000   0.92852623     0.0023323615   0.00041138123  20.175582      18.796721      1.3788615     -1.6557652      17954.785    
    722000   1.063921       0.0023323615  -0.00046488957  20.326389      18.746466      1.5799227     -1.7474856      18083.075    
    723000   0.9795519      0.0023323615  -0.0020022718   20.204751      18.750117      1.4546346     -1.860567       17868.921    
    724000   1.1402802      0.0023323615  -0.00083401937  20.192703      18.499387      1.6933161     -1.9843479      17903.98     
    725000   0.9405627      0.0023323615   0.0015921728   20.076802      18.680066      1.3967356     -1.8273066      17972.512    
    726000   0.9148992      0.0023323615   0.0033421487   20.329855      18.97123       1.3586253     -1.5674943      17984.345    
    727000   0.83737931     0.0023323615  -0.0022036884   19.849066      18.605558      1.2435083     -1.8781903      18013.614    
    728000   1.0110194      0.0023323615   0.0015907455   20.26457       18.763207      1.5013638     -1.7489353      18104.878    
    729000   1.0584585      0.0023323615   0.0014567633   20.318889      18.747078      1.5718109     -1.7910404      18086.011    
    730000   1.0484801      0.0023323615  -0.00069398573  20.374351      18.817358      1.556993      -1.6892258      17912.668    
    731000   1.0836976      0.0023323615   0.00095122584  20.280553      18.671262      1.609291      -1.8212772      18124.412    
    732000   0.99008126     0.0023323615   0.00096574274  20.492472      19.022202      1.4702707     -1.5854629      18162.012    
    733000   0.95205404     0.0023323615   0.0017353396   20.268152      18.854352      1.4138003     -1.6101699      18233.044    
    734000   1.114638       0.0023323615   0.0040608534   20.381061      18.725824      1.6552374     -1.7702518      18052.737    
    735000   1.0744713      0.0023323615   0.0011201773   20.424868      18.829279      1.5955899     -1.7492912      18159.388    
    736000   0.93831934     0.0023323615   0.0018541287   19.926496      18.533092      1.3934042     -1.937363       17986.335    
    737000   1.0080947      0.0023323615  -0.00047158525  20.002012      18.504991      1.4970207     -1.9620342      17909.428    
    738000   0.9191791      0.0023323615   0.0024160792   20.038742      18.673761      1.364981      -1.8335445      18056.114    
    739000   0.95653445     0.0023323615   0.00078249846  20.334746      18.914293      1.4204537     -1.7714394      18023.783    
    740000   1.0650062      0.0023323615   0.0036168165   20.488015      18.906481      1.5815343     -1.6741726      17902.262    
    741000   0.83698375     0.0023323615   0.0011795631   20.199645      18.956724      1.2429209     -1.5396759      17989.972    
    742000   1.055916       0.0023323615   0.0055910734   20.646183      19.078148      1.5680352     -1.4335683      18191.187    
    743000   1.078807       0.0023323615  -0.00013647863  20.676265      19.074236      1.6020283     -1.3440522      18765.184    
    744000   1.0175703      0.0023323615  -0.00061716288  20.65781       19.146718      1.5110919     -1.3971008      18555.277    
    745000   0.92152468     0.0023323615   0.0014323744   20.381047      19.012583      1.3684641     -1.4738478      17939.924    
    746000   0.87887854     0.0023323615   0.00028617985  19.932509      18.627374      1.3051346     -1.8371211      17818.281    
    747000   1.0626029      0.0023323615   0.001225806    20.662165      19.084199      1.5779654     -1.4047746      17943.46     
    748000   1.0498762      0.0023323615   0.00015917123  20.369189      18.810122      1.5590661     -1.7095993      17999.815    
    749000   0.99660609     0.0023323615   0.0026670631   20.212233      18.732273      1.4799601     -1.8107402      17732.41     
    750000   0.92694641     0.0023323615  -0.002546875    20.119527      18.743012      1.3765154     -1.8707324      17745.455    
    751000   0.94674146     0.0023323615   0.002455259    20.297902      18.891991      1.4059111     -1.6591664      17861.039    
    752000   1.0359528      0.0023323615  -0.0015238914   20.301148      18.762758      1.5383899     -1.655466       17796.256    
    753000   0.91373184     0.0023323615   0.00302759     20.434115      19.077223      1.3568918     -1.4576132      17965.735    
    754000   0.93242542     0.0023323615  -0.001946046    20.469528      19.084877      1.3846517     -1.6236625      17805.942    
    755000   0.94951037     0.0023323615   0.00050758217  20.075804      18.665781      1.4100229     -1.7064605      18051.976    
    756000   1.0097669      0.0023323615   0.0013775004   20.595976      19.096472      1.4995038     -1.5559112      18120.046    
    757000   0.98110245     0.0023323615  -0.0012540219   20.027469      18.570532      1.4569371     -1.9241033      17908.837    
    758000   0.9142716      0.0023323615  -0.00170078     19.877473      18.51978       1.3576933     -1.861052       18041.871    
    759000   1.0131351      0.0023323615   0.0027386586   20.211532      18.707026      1.5045057     -1.6883915      17842.785    
    760000   0.90118672     0.0023323615  -0.0029104265   20.058725      18.720463      1.3382623     -1.8455727      17966.252    
    761000   0.99853596     0.0023323615   0.00014513501  20.239927      18.757101      1.4828259     -1.7312233      18279.481    
    762000   1.0481095      0.0023323615  -0.0004697316   20.404421      18.847978      1.5564426     -1.644635       18477.502    
    763000   0.92331219     0.0023323615  -0.00022665567  20.434541      19.063422      1.3711186     -1.6090185      18386.672    
    764000   1.0236033      0.0023323615  -0.0020120244   20.452703      18.932652      1.5200509     -1.5943777      18160.003    
    765000   0.98627103     0.0023323615  -0.00048085379  20.402905      18.938293      1.4646125     -1.560067       18083.275    
    766000   0.99001592     0.0023323615   0.00053926268  20.346822      18.876648      1.4701736     -1.6098423      18168.406    
    767000   0.93472958     0.0023323615   0.00050796445  20.207316      18.819243      1.3880734     -1.7195902      17984.643    
    768000   0.92562737     0.0023323615   0.0033781639   20.281352      18.906796      1.3745566     -1.5723325      18064.725    
    769000   0.91155694     0.0023323615  -0.00037283708  20.330342      18.97668       1.3536621     -1.494648       18148.997    
    770000   0.9736206      0.0023323615   0.0022379802   20.482152      19.036325      1.4458266     -1.4739959      18122.369    
    771000   0.92841857     0.0023323615  -0.0050570622   20.28452       18.905818      1.3787016     -1.5427139      18090.981    
    772000   0.95721517     0.0023323615  -0.0013973763   20.337228      18.915764      1.4214645     -1.5881466      18218.757    
    773000   1.0357986      0.0023323615  -0.0018032896   20.274129      18.735968      1.5381609     -1.7665139      18130.127    
    774000   1.0434143      0.0023323615  -0.002090151    20.126678      18.577207      1.5494702     -1.9292429      18201.955    
    775000   1.020103       0.0023323615  -0.0018704918   20.257926      18.743073      1.514853      -1.7650649      18163.46     
    776000   1.1315518      0.0023323615  -0.00069109803  20.322773      18.642418      1.6803545     -1.9241705      18138.312    
    777000   1.0275543      0.0023323615   0.0039249841   20.486004      18.960086      1.5259181     -1.6788824      18211.144    
    778000   0.92450101     0.0023323615   0.0013002442   20.177264      18.80438       1.372884      -1.654291       18230.363    
    779000   0.99589453     0.0023323615   0.0046105678   20.440123      18.961219      1.4789034     -1.6701496      18190.464    
    780000   1.0092262      0.0023323615  -0.0022446007   20.326368      18.827667      1.4987009     -1.6731526      18205.587    
    781000   1.0101984      0.0023323615   0.0036952794   20.077099      18.576954      1.5001446     -1.9042083      18210.353    
    782000   0.94795309     0.0023323615   0.0024120738   19.895269      18.487558      1.4077103     -2.107014       17981.776    
    783000   1.0468314      0.0023323615  -0.0023152212   20.529542      18.974998      1.5545446     -1.4915109      18089.433    
    784000   0.95159858     0.0023323615  -0.0022699236   20.383988      18.970865      1.4131239     -1.5402427      18217.523    
    785000   1.0413614      0.0023323615   0.00018536628  20.183015      18.636594      1.5464217     -1.7534587      18143.188    
    786000   0.96645828     0.0023323615  -0.0016815718   19.946149      18.510958      1.4351905     -1.8761258      17999.302    
    787000   0.96596463     0.0023323615  -0.0048503873   20.065102      18.630645      1.4344575     -1.8116322      18029.034    
    788000   0.97673985     0.0023323615  -0.0047789988   20.444458      18.993999      1.4504587     -1.5779357      18330.161    
    789000   1.0384283      0.0023323615  -0.0038550621   20.306682      18.764616      1.542066      -1.6981412      18297.469    
    790000   1.1551639      0.0023323615   0.00095297952  20.4932        18.777782      1.7154184     -1.8335791      18194.41     
    791000   1.0835238      0.0023323615  -1.007776e-06   20.205825      18.596792      1.6090329     -1.8419657      18045.263    
    792000   0.93075256     0.0023323615  -0.0017060038   20.369366      18.987199      1.3821676     -1.6458061      18116.307    
    793000   1.0186558      0.0023323615   0.0025562657   20.240544      18.72784       1.5127039     -1.770035       18028.015    
    794000   0.99719436     0.0023323615  -0.0030864835   20.523598      19.042764      1.4808336     -1.4745303      17890.062    
    795000   1.0086554      0.0023323615  -0.0011462876   20.222622      18.724769      1.4978532     -1.7831393      18011.277    
    796000   0.96147659     0.0023323615  -0.0014876814   20.390589      18.962797      1.4277927     -1.6091816      17884.475    
    797000   1.0282744      0.0023323615  -0.00061844801  20.40508       18.878093      1.5269875     -1.6645079      17895.55     
    798000   1.018134       0.0023323615   0.00088280817  20.418398      18.906469      1.5119289     -1.5784012      18155.025    
    799000   1.0623562      0.0023323615   0.0013509158   20.594323      19.016724      1.577599      -1.5024494      18073.694    
    800000   0.97239261     0.0023323615  -0.00015167367  20.072935      18.628932      1.444003      -1.8633379      17902.281    
    801000   0.91098326     0.0023323615  -0.0012049725   20.627926      19.275116      1.3528101     -1.3899365      17874.428    
    802000   1.021323       0.0023323615  -0.0007859547   20.243857      18.727192      1.5166646     -1.7775384      17955.38     
    803000   0.9607577      0.0023323615   0.0044903495   20.357196      18.930471      1.4267252     -1.6965106      17909.197    
    804000   0.98212723     0.0023323615   0.0010048594   20.381405      18.922946      1.4584589     -1.6158488      17984.931    
    805000   0.99430854     0.0023323615   0.0026708144   20.396442      18.919894      1.4765482     -1.6805906      18072.378    
    806000   0.99148899     0.0023323615   0.00064331018  20.401499      18.929138      1.4723612     -1.651649       18018.151    
    807000   1.0602409      0.0023323615  -0.00283524     20.672085      19.097628      1.5744578     -1.4562548      18181.524    
    808000   0.97546031     0.0023323615   0.00066911548  20.413962      18.965403      1.4485586     -1.5819807      18265.733    
    809000   1.0497231      0.0023323615   0.002355204    20.339217      18.780378      1.5588388     -1.7913667      18182.187    
    810000   1.0274945      0.0023323615  -0.0040080494   20.344145      18.818316      1.5258293     -1.8457076      18121.53     
    811000   1.1253027      0.0023323615   0.0040013759   20.398889      18.727814      1.6710746     -1.7325879      18056.44     
    812000   0.99368867     0.0023323615  -0.002119667    20.244353      18.768725      1.4756277     -1.685384       18137.514    
    813000   0.90008421     0.0023323615  -0.00084038674  20.077329      18.740704      1.3366251     -1.8135972      18122.198    
    814000   0.98216325     0.0023323615   0.0081974663   20.281145      18.822633      1.4585124     -1.7486246      18136.037    
    815000   0.99717536     0.0023323615   0.0035144769   20.327558      18.846752      1.4808054     -1.6066794      18205.773    
    816000   0.92978018     0.0023323615  -0.0016367118   20.034589      18.653865      1.3807236     -1.8021192      18051.356    
    817000   1.0026077      0.0023323615  -0.00057241326  20.087136      18.598263      1.4888724     -1.8627618      17950.455    
    818000   0.9844549      0.0023323615  -0.0028261342   20.106729      18.644813      1.4619155     -1.8251556      17866.823    
    819000   0.95210078     0.0023323615  -0.0032928027   20.285833      18.871964      1.4138697     -1.7382703      18022.634    
    820000   1.0705683      0.0023323615   0.0051009318   20.69558       19.105786      1.5897939     -1.6074266      18124.271    
    821000   0.88139418     0.0023323615   0.00030004294  20.172387      18.863516      1.3088704     -1.6513672      18012.672    
    822000   1.0124284      0.0023323615   0.0016521099   20.415161      18.911705      1.5034561     -1.6014941      18102.093    
    823000   0.92094954     0.0023323615  -0.00072930874  20.281798      18.914188      1.3676101     -1.5157195      18013.715    
    824000   0.96038251     0.0023323615  -0.0029764941   19.946256      18.520088      1.426168      -1.9446951      18121.447    
    825000   0.94759586     0.0023323615   8.9889491e-06  20.358503      18.951323      1.4071799     -1.6086486      18255.554    
    826000   0.9874555      0.0023323615  -8.3972426e-05  20.149386      18.683014      1.4663714     -1.8497598      17998.101    
    827000   1.1352925      0.0023323615  -0.0021559234   20.59915       18.913241      1.6859093     -1.6278901      17934.709    
    828000   0.96203721     0.0023323615   0.001290932    20.082251      18.653626      1.4286253     -1.859717       17947.796    
    829000   1.1103998      0.0023323615  -0.00058043708  20.56719       18.918246      1.6489438     -1.5987011      17809.834    
    830000   1.0673513      0.0023323615   0.0012741685   20.495105      18.910088      1.5850167     -1.610933       17850.817    
    831000   0.83196531     0.0023323615  -0.0022744043   19.908559      18.67309       1.2354685     -1.9707586      18016.973    
    832000   1.0224463      0.0023323615  -0.0049148385   20.435533      18.9172        1.5183328     -1.6842384      18157.281    
    833000   0.97191565     0.0023323615  -0.0016716932   19.994162      18.550867      1.4432947     -1.9152468      18072.274    
    834000   0.91305954     0.0023323615   0.0039863964   20.178277      18.822383      1.3558934     -1.7271422      18117.668    
    835000   0.93586831     0.0023323615   0.0010172226   20.07803       18.688265      1.3897644     -1.8176108      18144.141    
    836000   1.0267586      0.0023323615  -0.00063842422  20.561072      19.036336      1.5247365     -1.5975349      18041.3      
    837000   1.0193733      0.0023323615  -0.0013048731   20.276505      18.762735      1.5137693     -1.564429       18105.065    
    838000   0.89933106     0.0023323615   0.004389101    20.404418      19.068912      1.3355066     -1.5302271      18111.484    
    839000   0.99853325     0.0023323615  -0.0037984641   20.355772      18.87295       1.4828219     -1.6948547      18010.279    
    840000   1.0464655      0.0023323615   0.0021339726   20.229237      18.675236      1.5540012     -1.8547037      18006.231    
    841000   0.93857494     0.0023323615   0.0047792029   20.057957      18.664173      1.3937838     -1.7365312      18056.473    
    842000   0.95956519     0.0023323615   0.00019799946  20.187913      18.762959      1.4249543     -1.7149869      18051.225    
    843000   0.99942495     0.0023323615  -0.005676722    20.46726       18.983114      1.484146      -1.63349        18067.491    
    844000   1.16316        0.0023323615   0.0016643886   20.477197      18.749904      1.7272927     -1.7077717      18114.495    
    845000   1.0772371      0.0023323615   0.0035655769   20.213982      18.614284      1.5996972     -1.8328161      18053.432    
    846000   1.0244495      0.0023323615  -0.0019728774   20.373915      18.852607      1.5213075     -1.7084239      17992.339    
    847000   0.97846203     0.0023323615  -7.6611421e-05  20.080455      18.627438      1.4530161     -1.7825277      17974.596    
    848000   1.0193704      0.0023323615   0.0031866128   20.323702      18.809937      1.513765      -1.6544219      17909.836    
    849000   0.97976145     0.0023323615  -0.0017718495   20.441518      18.986572      1.4549458     -1.5631664      18016.086    
    850000   1.0295771      0.0023323615  -0.0016703733   20.559492      19.03057       1.5289219     -1.4979209      18127.309    
    851000   0.90069851     0.0023323615   0.00048629879  20.087439      18.749901      1.3375373     -1.68983        18167.728    
    852000   0.81475996     0.0023323615   0.0039523494   20.089343      18.879425      1.2099185     -1.7072639      18226.788    
    853000   1.1036458      0.0023323615   0.0036638471   20.991697      19.352783      1.638914      -1.4085192      18334.201    
    854000   1.0601366      0.0023323615  -0.0030324259   20.378435      18.804132      1.5743029     -1.5781957      18541.978    
    855000   1.0369335      0.0023323615  -0.0011205841   20.485785      18.945939      1.5398462     -1.6117342      18072.313    
    856000   1.0366187      0.0023323615   0.0031982131   20.519547      18.980169      1.5393787     -1.6618317      18033.298    
    857000   1.0091714      0.0023323615  -0.0016178832   19.999546      18.500926      1.4986196     -1.9313505      18227.014    
    858000   1.0532858      0.0023323615  -0.00054800748  20.276609      18.71248       1.5641294     -1.8112256      18257.013    
    859000   0.96166944     0.0023323615   0.0024297379   20.058849      18.63077       1.4280791     -1.9518215      18121.842    
    860000   0.96987824     0.0023323615  -0.0052439059   20.451643      19.011374      1.4402692     -1.4988705      18146.516    
    861000   1.0542013      0.0023323615   4.9302966e-05  20.489556      18.924067      1.5654889     -1.6494368      18191.801    
    862000   0.88760848     0.0023323615  -0.0038157103   20.347203      19.029104      1.3180986     -1.5332718      18130.914    
    863000   0.94109729     0.0023323615  -0.0032268953   20.12718       18.729651      1.3975295     -1.8305572      18032.985    
    864000   0.97628945     0.0023323615  -0.00038177127  20.137837      18.688047      1.4497898     -1.8312715      18001.889    
    865000   0.99353792     0.0023323615   9.9937705e-05  20.094181      18.618777      1.4754038     -1.8486107      17974.914    
    866000   1.0497385      0.0023323615  -0.0035067455   20.585309      19.026447      1.5588616     -1.5735551      17956.94     
    867000   1.0174764      0.0023323615  -0.0028386967   20.377326      18.866374      1.5109525     -1.6472025      18079.282    
    868000   0.89152028     0.0023323615   0.0027144922   20.315881      18.991973      1.3239076     -1.5603008      18006.176    
    869000   0.86119967     0.0023323615  -0.001475678    20.226624      18.947743      1.2788815     -1.5848955      18064.823    
    870000   0.97036039     0.0023323615   0.0016272811   20.27084       18.829855      1.4409852     -1.7259719      18110.032    
    871000   1.0607488      0.0023323615   0.00041653223  20.612047      19.036835      1.575212      -1.4531631      18050.116    
    872000   1.0981167      0.0023323615  -0.0042573568   20.38447       18.753767      1.6307032     -1.7531976      17873.679    
    873000   1.0654506      0.0023323615  -0.00027940988  20.83699       19.254796      1.5821942     -1.3392356      18000.383    
    874000   0.94221862     0.0023323615   0.00086200432  20.260346      18.861151      1.3991946     -1.5323226      18086.893    
    875000   0.93130857     0.0023323615  -0.0012584329   20.101215      18.718221      1.3829932     -1.822438       17925.481    
    876000   0.9224949      0.0023323615  -0.0018278176   20.204533      18.834628      1.3699049     -1.6566162      17946.895    
    877000   0.96470535     0.0023323615   0.0014586879   20.143975      18.711388      1.4325874     -1.8240761      17751.884    
    878000   0.85856134     0.0023323615   0.0038049251   20.230932      18.955969      1.2749636     -1.6442233      17709.546    
    879000   0.92396928     0.0023323615   0.00044232041  20.37718       19.005086      1.3720944     -1.637036       18104.139    
    880000   0.91972481     0.0023323615  -0.0014910458   20.337288      18.971497      1.3657913     -1.7072316      17945.682    
    881000   0.94491566     0.0023323615  -0.0017983363   20.033219      18.63002       1.4031998     -1.8326827      17883.914    
    882000   1.0486977      0.0023323615   0.0038155813   20.18103       18.623714      1.557316      -1.9587901      17745.212    
    883000   1.0353205      0.0023323615   0.0019399593   20.318096      18.780645      1.5374509     -1.719585       17940.518    
    884000   1.0312836      0.0023323615   0.00088390668  20.353034      18.821578      1.5314562     -1.6807042      17967.132    
    885000   0.98393177     0.0023323615   0.0067691912   20.275364      18.814226      1.4611387     -1.7178506      17782.803    
    886000   0.98822802     0.0023323615   0.0019027974   19.89931       18.431791      1.4675186     -1.9489755      17739.62     
    887000   0.93379291     0.0023323615   0.00026977793  20.111664      18.724981      1.3866825     -1.7307978      18267.381    
    888000   1.0479773      0.0023323615  -1.4453214e-05  20.2725        18.716254      1.5562462     -1.7279939      18341.34     
    889000   0.92758461     0.0023323615   0.00084983712  20.303285      18.925822      1.3774631     -1.5509655      18249.462    
    890000   1.0016926      0.0023323615   0.00073412117  20.256038      18.768525      1.4875135     -1.7176784      18025.143    
    891000   0.9267538      0.0023323615   0.0027716751   20.364925      18.988696      1.3762294     -1.6579988      17813.031    
    892000   1.0320553      0.0023323615  -0.0028700433   20.293158      18.760556      1.5326022     -1.7442224      17903.71     
    893000   0.97558495     0.0023323615  -6.9544391e-05  20.309025      18.860281      1.4487436     -1.5316277      17968.924    
    894000   0.98834298     0.0023323615   0.00034896776  20.027846      18.560157      1.4676893     -1.8742516      18026.019    
    895000   1.0482079      0.0023323615  -0.0014997847   20.088926      18.532337      1.5565887     -1.8746175      18142.182    
    896000   1.0761679      0.0023323615   0.00037263981  20.30657       18.708461      1.5981093     -1.825859       18143.699    
    897000   1.1192144      0.0023323615   0.0027449534   20.530433      18.8684        1.6620333     -1.6092935      18066.608    
    898000   0.90757529     0.0023323615   0.0045455004   20.000681      18.652931      1.3477493     -1.8602402      18064.045    
    899000   0.98782646     0.0023323615  -0.0038099462   20.472731      19.005808      1.4669223     -1.4510386      18248.725    
    900000   0.93941609     0.0023323615   0.004722595    20.496383      19.10135       1.3950329     -1.4276741      18447.957    
    901000   0.94167245     0.0023323615   0.00345967     20.131188      18.732804      1.3983836     -1.6519838      18193.16     
    902000   1.0284849      0.0023323615  -0.00094777466  20.258328      18.731028      1.5273001     -1.7382302      18077.013    
    903000   1.0459555      0.0023323615   0.00069478409  20.436861      18.883617      1.553244      -1.5397244      18045.393    
    904000   1.0348843      0.0023323615   0.004684969    20.440331      18.903528      1.5368032     -1.6551196      18097.968    
    905000   0.98308125     0.0023323615   0.00235833     20.047686      18.587811      1.4598757     -1.8579967      18075.661    
    906000   0.99648399     0.0023323615  -0.002448901    20.338477      18.858698      1.4797787     -1.6754243      18226.554    
    907000   1.0024732      0.0023323615   0.00019070559  20.262312      18.773639      1.4886728     -1.7652819      18052.254    
    908000   1.0360551      0.0023323615  -0.0025641447   20.44376       18.905218      1.5385418     -1.6306786      17899.52     
    909000   0.91640029     0.0023323615  -0.0018200289   20.359342      18.998487      1.3608544     -1.570791       17974.415    
    910000   1.0434976      0.0023323615  -0.00043506987  20.285573      18.73598       1.5495939     -1.7114131      18075.818    
    911000   1.0735689      0.0023323615   0.0047654009   20.427355      18.833105      1.5942498     -1.6869388      18021.3      
    912000   0.98796929     0.0023323615  -0.00094305772  19.989167      18.522033      1.4671344     -1.9818957      18151.469    
    913000   1.0199493      0.0023323615  -0.0032296568   20.306606      18.791982      1.5146247     -1.7872398      18044.412    
    914000   0.87888193     0.0023323615  -0.0068046467   20.26828       18.96314       1.3051397     -1.6080202      18168.102    
    915000   1.0751558      0.0023323615  -0.0011244407   20.506143      18.909537      1.5966064     -1.700421       18285.593    
    916000   0.88611844     0.0023323615  -0.0022028646   20.085863      18.769977      1.3158859     -1.806656       18085.169    
    917000   1.0928295      0.0023323615  -0.0038348388   20.318271      18.695419      1.6228519     -1.857791       18010.673    
    918000   1.1255747      0.0023323615  -0.00067769328  20.412357      18.740879      1.6714784     -1.8779352      17965.205    
    919000   1.1036803      0.0023323615   0.0028871241   20.345833      18.706867      1.6389653     -1.8281723      17814.09     
    920000   0.99395557     0.0023323615  -0.0029989896   20.259818      18.783794      1.476024      -1.8027102      18023.877    
    921000   0.95428914     0.0023323615  -0.0039117616   20.589683      19.172563      1.4171194     -1.4313226      18084.608    
    922000   0.88943341     0.0023323615  -0.0016409749   20.084731      18.763923      1.3208086     -1.7180584      18232.647    
    923000   0.95230658     0.0023323615   0.0035180671   19.991525      18.57735       1.4141753     -1.785839       18014.746    
    924000   1.1959309      0.0023323615  -0.0027601517   20.640691      18.864734      1.7759574     -1.6246796      18009.844    
    925000   1.0673611      0.0023323615  -0.0015645769   20.379767      18.794736      1.5850312     -1.7068075      18338.813    
    926000   1.1095792      0.0023323615   0.0014830799   20.55727       18.909544      1.6477251     -1.6811005      18386.499    
    927000   1.2465829      0.0023323615  -0.0027157617   20.911229      19.060054      1.8511756     -1.5326766      18687.459    
    928000   0.9817684      0.0023323615  -0.0045056599   20.531099      19.073173      1.4579261     -1.4755127      18576.892    
    929000   0.78295772     0.0023323615   0.0023727152   20.124136      18.961444      1.1626922     -1.4878749      18156.105    
    930000   0.90095705     0.0023323615  -0.00035279962  20.18089       18.842968      1.3379212     -1.7257839      18144.111    
    931000   1.1114568      0.0023323615  -0.0046608571   20.583135      18.932621      1.6505134     -1.5648152      18052.642    
    932000   1.0976598      0.0023323615   0.0040829549   20.264595      18.634571      1.6300248     -1.7950334      18059.691    
    933000   1.0061139      0.0023323615  -0.004777746    20.377205      18.883126      1.4940792     -1.6518886      18018.18     
    934000   1.0449735      0.0023323615   0.001294318    20.111491      18.559705      1.5517856     -1.953685       17930.089    
    935000   1.1145412      0.0023323615   0.0042534486   20.250152      18.595059      1.6550936     -1.9035445      17921.654    
    936000   1.0682845      0.0023323615   0.0017906771   20.191748      18.605345      1.5864024     -1.8698036      17960.371    
    937000   1.0997458      0.0023323615  -0.00039805523  20.186623      18.553501      1.6331224     -1.8740193      18164.385    
    938000   0.99138499     0.0023323615  -0.00088106053  20.144992      18.672786      1.4722067     -1.8183216      18059.58     
    939000   0.9728103      0.0023323615  -0.00025168737  20.194753      18.750129      1.4446233     -1.8476671      17977.766    
    940000   1.0161814      0.0023323615  -0.00096466401  20.010177      18.501147      1.5090293     -1.9187985      18006.647    
    941000   0.94822517     0.0023323615  -0.0017013382   19.93267       18.524556      1.4081144     -1.8605241      17985.274    
    942000   1.0417825      0.0023323615   0.0003520937   20.243199      18.696152      1.547047      -1.7605912      17879.516    
    943000   0.92613198     0.0023323615   0.000568269    20.31964       18.944334      1.375306      -1.5849341      18120.908    
    944000   0.93649144     0.0023323615  -0.0017295792   20.298865      18.908176      1.3906898     -1.6162999      18133.593    
    945000   0.99761931     0.0023323615  -0.00073744662  20.461845      18.98038       1.4814647     -1.4359284      18200.372    
    946000   0.94265615     0.0023323615  -0.00082162866  20.336563      18.936719      1.3998444     -1.5038729      18208.975    
    947000   0.9874789      0.0023323615   0.0022843947   20.056903      18.590496      1.4664062     -1.7955596      18262.277    
    948000   1.0420307      0.0023323615  -0.0051144175   20.460419      18.913004      1.5474155     -1.5920023      18181.246    
    949000   1.0036457      0.0023323615   0.0010208795   20.216278      18.725864      1.4904139     -1.7096188      18136.347    
    950000   1.1617695      0.0023323615   0.00060127388  20.702541      18.977314      1.7252277     -1.4737287      17968.461    
    951000   0.9679889      0.0023323615   0.0015231496   20.203634      18.76617       1.4374635     -1.8930867      18037.055    
    952000   0.94046556     0.0023323615   0.0011053385   20.345577      18.948986      1.3965914     -1.6915761      17936.981    
    953000   0.93078174     0.0023323615   0.0017291293   20.44139       19.059179      1.3822109     -1.5152912      18043.88     
    954000   1.0412603      0.0023323615   0.0022220224   20.392789      18.846518      1.5462715     -1.6861536      18163.113    
    955000   0.97760186     0.0023323615  -0.0034137186   20.43323       18.981491      1.4517388     -1.5255812      18184.168    
    956000   1.1437626      0.0023323615   0.0011810932   20.644694      18.946206      1.6984874     -1.6004736      18053.348    
    957000   0.88925609     0.0023323615   0.000926186    20.20551       18.884965      1.3205453     -1.6820225      17948.26     
    958000   0.978294       0.0023323615   0.00013589122  20.077465      18.624698      1.4527666     -1.8287149      17866.845    
    959000   1.039542       0.0023323615   0.0024773458   20.689098      19.145378      1.5437199     -1.4147235      18028.155    
    960000   0.98168269     0.0023323615  -0.00039929969  20.141746      18.683947      1.4577988     -1.8356132      18003.182    
    961000   0.97658074     0.0023323615  -0.00052395233  20.239691      18.789468      1.4502224     -1.6085059      18019.38     
    962000   0.86251299     0.0023323615  -0.0016013332   20.159038      18.878207      1.2808318     -1.564166       18059.165    
    963000   0.88215491     0.0023323615  -0.0019790111   20.11766       18.807659      1.31          -1.7489197      18035.295    
    964000   1.0833247      0.0023323615  -0.0022097867   20.410276      18.801539      1.6087372     -1.8143778      17980.156    
    965000   0.97793109     0.0023323615   0.0041914586   20.199483      18.747255      1.4522277     -1.8675314      17937.874    
    966000   1.0267284      0.0023323615  -0.0023893822   20.255641      18.73095       1.5246917     -1.8807413      18003.565    
    967000   1.1087304      0.0023323615  -0.0022605045   20.465638      18.819174      1.6464647     -1.7580268      17977.75     
    968000   1.0290554      0.0023323615  -0.00020380637  20.419796      18.891648      1.5281473     -1.6392349      17879.717    
    969000   1.0296491      0.0023323615   0.0047134963   20.168737      18.639708      1.5290289     -1.8477842      17815.963    
    970000   1.0299912      0.0023323615  -0.001248369    20.197138      18.667601      1.5295369     -1.8228425      17848.394    
    971000   0.97267384     0.0023323615   0.00011536151  20.040852      18.596431      1.4444206     -1.7911141      17760.185    
    972000   0.97528053     0.0023323615   0.00062491295  20.368668      18.920376      1.4482916     -1.5984895      17934.077    
    973000   0.9738447      0.0023323615  -0.00040216495  20.22852       18.78236       1.4461594     -1.7279338      17966.575    
    974000   1.0682063      0.0023323615   0.00041238456  20.339688      18.753402      1.5862863     -1.7647264      17889.35     
    975000   1.1117159      0.0023323615   0.0017691851   20.64804       18.997142      1.6508981     -1.4811738      17947.028    
    976000   0.92843021     0.0023323615   0.0027303266   20.232249      18.85353       1.3787189     -1.5883412      18221.68     
    977000   0.89426477     0.0023323615   2.0388162e-05  20.130837      18.802854      1.3279832     -1.8390354      18093.017    
    978000   0.92127241     0.0023323615  -0.001921168    20.171694      18.803604      1.3680895     -1.7211154      17989.829    
    979000   0.85902046     0.0023323615  -0.0058035487   20.167814      18.892169      1.2756454     -1.6750754      17894.068    
    980000   0.95080086     0.0023323615   0.00028825295  20.034924      18.622985      1.4119393     -1.7525006      17854.888    
    981000   1.0585823      0.0023323615   0.0030323198   20.422619      18.850624      1.5719948     -1.7772735      17984.215    
    982000   1.1190641      0.0023323615  -0.00024011841  20.630788      18.968978      1.6618102     -1.4888004      18098.785    
    983000   1.1395653      0.0023323615  -0.0005607771   20.582557      18.890302      1.6922545     -1.6238244      18066.291    
    984000   0.96750911     0.0023323615  -0.002802535    19.985206      18.548455      1.436751      -1.879459       17880.076    
    985000   0.94621121     0.0023323615   0.00067774086  20.220895      18.815772      1.4051237     -1.7611083      17873.948    
    986000   1.1243491      0.0023323615   0.00044035433  20.489199      18.81954       1.6696583     -1.7910574      17880.034    
    987000   1.0707043      0.0023323615  -0.0041511239   20.330454      18.740458      1.5899959     -1.7814177      17823.391    
    988000   0.99341552     0.0023323615  -0.0014620415   20.320081      18.844859      1.475222      -1.7254034      17834.079    
    989000   1.0296348      0.0023323615  -0.0016767769   20.344411      18.815403      1.5290077     -1.6815743      17857.041    
    990000   1.0189941      0.0023323615  -0.0026235579   20.454314      18.941108      1.5132062     -1.5048633      17983.104    
    991000   0.99889513     0.0023323615  -0.00056161529  20.126325      18.642966      1.4833593     -1.7880452      17972.156    
    992000   0.9960629      0.0023323615   0.00066143713  20.202825      18.723672      1.4791534     -1.6990069      18001.38     
    993000   0.93520211     0.0023323615  -0.0013794204   19.871256      18.482481      1.3887751     -1.9653493      17795.726    
    994000   0.9926554      0.0023323615   0.0012269766   20.211089      18.736996      1.4740933     -1.8103914      17875.638    
    995000   1.06139        0.0023323615   0.0022470455   20.391492      18.815328      1.5761641     -1.7240813      18000.987    
    996000   0.85897869     0.0023323615   0.0003272478   20.048716      18.773133      1.2755834     -1.6119811      18077.622    
    997000   0.97721709     0.0023323615  -0.0016424444   20.212502      18.761335      1.4511674     -1.7702836      18047.589    
    998000   1.110732       0.0023323615   0.0024975879   20.469716      18.820279      1.649437      -1.7834384      18208.108    
    999000   0.96854988     0.0023323615  -0.0035931112   20.288842      18.850546      1.4382966     -1.8110889      18167.44     
   1000000   1.1125119      0.0023323615  -0.0061132164   20.676836      19.024756      1.6520801     -1.629075       18127.325    
Loop time of 55.0605 on 1 procs for 1000000 steps with 100 atoms

Performance: 7845911.916 tau/day, 18161.833 timesteps/s
99.4% CPU use with 1 MPI tasks x 1 OpenMP threads

MPI task timing breakdown:
Section |  min time  |  avg time  |  max time  |%varavg| %total
---------------------------------------------------------------
Pair    | 45.871     | 45.871     | 45.871     |   0.0 | 83.31
Bond    | 1.2959     | 1.2959     | 1.2959     |   0.0 |  2.35
Neigh   | 3.7897     | 3.7897     | 3.7897     |   0.0 |  6.88
Comm    | 1.3751     | 1.3751     | 1.3751     |   0.0 |  2.50
Output  | 0.2102     | 0.2102     | 0.2102     |   0.0 |  0.38
Modify  | 2.1668     | 2.1668     | 2.1668     |   0.0 |  3.94
Other   |            | 0.3521     |            |       |  0.64

Nlocal:            100 ave         100 max         100 min
Histogram: 1 0 0 0 0 0 0 0 0 0
Nghost:            338 ave         338 max         338 min
Histogram: 1 0 0 0 0 0 0 0 0 0
Neighs:           4847 ave        4847 max        4847 min
Histogram: 1 0 0 0 0 0 0 0 0 0

Total # of neighbors = 4847
Ave neighs/atom = 48.47
Ave special neighs/atom = 1.98
Neighbor list builds = 97816
Dangerous builds = 79399

write_data      ${outputfile_assembled} nofix nocoeff
write_data      7_assembled.data nofix nocoeff
System init for write_data ...
Generated 0 of 6 mixed pair_coeff terms from geometric mixing rule

Total wall time: 0:00:56
