LAMMPS (23 Jun 2022 - Update 1)
OMP_NUM_THREADS environment is not set. Defaulting to 1 thread. (src/comm.cpp:98)
  using 1 OpenMP thread(s) per MPI task


variable        runtime equal 1000000
variable		subsample_rate equal 1000

variable		outputfile_created string '3_created.data'
variable		outputfile_relaxed string '5_relaxed.data'
variable		outputfile_selfasb string '6_a_self_assemble.lammpstrj'
variable		outputfile_trajlin string '6_b_trajlin.data'
variable		outputfile_assembled string '7_assembled.data'

units           lj
atom_style      full
dimension       3
boundary        p p p
timestep        0.005

read_data       ${outputfile_created}
read_data       3_created.data
Reading data file ...
  orthogonal box = (0 0 0) to (35 35 35)
  1 by 1 by 1 MPI processor grid
  reading atoms ...
  100 atoms
  reading velocities ...
  100 velocities
  scanning bonds ...
  1 = max bonds/atom
  reading bonds ...
  99 bonds
Finding 1-2 1-3 1-4 neighbors ...
  special bond factors lj:    0        0        0       
  special bond factors coul:  0        0        0       
     2 = max # of 1-2 neighbors
     2 = max # of 1-3 neighbors
     4 = max # of 1-4 neighbors
     6 = max # of special neighbors
  special bonds CPU = 0.000 seconds
  read_data CPU = 0.005 seconds

bond_style      fene
bond_coeff      * 30.0 1.5 1.0 1.0
special_bonds   fene
Finding 1-2 1-3 1-4 neighbors ...
  special bond factors lj:    0        1        1       
  special bond factors coul:  0        1        1       
     2 = max # of 1-2 neighbors
     6 = max # of special neighbors
  special bonds CPU = 0.000 seconds

variable        Temp equal 1.0
variable        velSeed equal 926458

velocity        all create ${Temp} ${velSeed}
velocity        all create 1 ${velSeed}
velocity        all create 1 926458

### Output
thermo_style    custom step temp density press etotal pe ke epair spcpu
thermo          1000

###########################################################################
# Soft relaxation (to remove overlaps of particles)
######################################################################

pair_style      soft 1.0
pair_coeff      * * 0.0
variable        prefactor equal ramp(0,300)
fix             rampSoft all adapt 1 pair soft a * * v_prefactor

minimize        0.0 1.0e-8 1000 100000
WARNING: Using 'neigh_modify every 1 delay 0 check yes' setting during minimization (src/min.cpp:187)
Generated 0 of 6 mixed pair_coeff terms from geometric mixing rule
Neighbor list info ...
  update every 1 steps, delay 0 steps, check yes
  max neighbors/atom: 2000, page size: 100000
  master list distance cutoff = 1.3
  ghost atom cutoff = 1.3
  binsize = 0.65, bins = 54 54 54
  1 neighbor lists, perpetual/occasional/extra = 1 0 0
  (1) pair soft, perpetual
      attributes: half, newton on
      pair build: half/bin/newton
      stencil: half/bin/3d
      bin: standard
WARNING: Communication cutoff 1.3 is shorter than a bond length based estimate of 1.7550000000000001. This may lead to errors. (src/comm.cpp:727)
Per MPI rank memory allocation (min/avg/max) = 8.346 | 8.346 | 8.346 Mbytes
   Step          Temp         Density         Press          TotEng         PotEng         KinEng         E_pair         S/CPU     
         0   1              0.0023323615  -0.0039617958   21.524174      20.039174      1.485          0              0            
       362   1              0.0023323615   0.0023090379   21.485548      20.000548      1.485          0              71398.719    
Loop time of 0.00507265 on 1 procs for 362 steps with 100 atoms

99.5% CPU use with 1 MPI tasks x 1 OpenMP threads

Minimization stats:
  Stopping criterion = force tolerance
  Energy initial, next-to-last, final = 
      20.0391741078675   20.0005480767337   20.0005480767337
  Force two-norm initial, final = 11.878422 7.9509778e-09
  Force max component initial, final = 6.6117807 1.3572772e-09
  Final line search alpha, max atom move = 1 1.3572772e-09
  Iterations, force evaluations = 362 738

MPI task timing breakdown:
Section |  min time  |  avg time  |  max time  |%varavg| %total
---------------------------------------------------------------
Pair    | 0.00021422 | 0.00021422 | 0.00021422 |   0.0 |  4.22
Bond    | 0.0023575  | 0.0023575  | 0.0023575  |   0.0 | 46.48
Neigh   | 0.0013476  | 0.0013476  | 0.0013476  |   0.0 | 26.57
Comm    | 0.00017554 | 0.00017554 | 0.00017554 |   0.0 |  3.46
Output  | 0          | 0          | 0          |   0.0 |  0.00
Modify  | 0          | 0          | 0          |   0.0 |  0.00
Other   |            | 0.0009777  |            |       | 19.27

Nlocal:            100 ave         100 max         100 min
Histogram: 1 0 0 0 0 0 0 0 0 0
Nghost:             20 ave          20 max          20 min
Histogram: 1 0 0 0 0 0 0 0 0 0
Neighs:              0 ave           0 max           0 min
Histogram: 1 0 0 0 0 0 0 0 0 0

Total # of neighbors = 0
Ave neighs/atom = 0
Ave special neighs/atom = 1.98
Neighbor list builds = 17
Dangerous builds = 0

fix             nvtSoft all nvt temp ${Temp} ${Temp} 0.5
fix             nvtSoft all nvt temp 1 ${Temp} 0.5
fix             nvtSoft all nvt temp 1 1 0.5
run             100000
Generated 0 of 6 mixed pair_coeff terms from geometric mixing rule
WARNING: Communication cutoff 1.3 is shorter than a bond length based estimate of 1.7550000000000001. This may lead to errors. (src/comm.cpp:727)
Per MPI rank memory allocation (min/avg/max) = 7.221 | 7.221 | 7.221 Mbytes
   Step          Temp         Density         Press          TotEng         PotEng         KinEng         E_pair         S/CPU     
       362   1              0.0023323615   0.0023090379   21.485548      20.000548      1.485          0              0            
      1000   0.90989032     0.0023323615  -0.0021940042   21.776974      20.425787      1.3511871      0.00036425437  79031.906    
      2000   0.86546688     0.0023323615   0.0034714157   21.677128      20.39191       1.2852183      0.0025814786   78006.765    
      3000   0.98199538     0.0023323615   0.0028144228   21.866132      20.407869      1.4582631      0.0011756043   74454.409    
      4000   1.004495       0.0023323615  -0.0014058211   21.945624      20.453949      1.4916751      0.011986179    74402.68     
      5000   1.1222705      0.0023323615   0.0044495116   21.986385      20.319813      1.6665718      0.0050317639   74494.255    
      6000   1.0538243      0.0023323615   0.0023957538   21.985713      20.420784      1.564929       0.012100514    75134.698    
      7000   1.0210598      0.0023323615  -0.00038820026  21.904665      20.388391      1.5162738      0              76843.544    
      8000   0.94819751     0.0023323615   0.0024943091   21.747889      20.339816      1.4080733      0              76559.742    
      9000   0.92364502     0.0023323615   0.0020053029   21.724166      20.352554      1.3716129      1.7780894e-05  75785.502    
     10000   0.86685188     0.0023323615   0.00078277366  21.644879      20.357604      1.287275       0.0098636418   76539.367    
     11000   1.0057103      0.0023323615   0.00010113276  21.8558        20.362321      1.4934798      0.020705341    76230.778    
     12000   0.97901664     0.0023323615  -0.0026996968   21.871206      20.417366      1.4538397      0.0052928539   76057.444    
     13000   0.97718436     0.0023323615  -6.1641422e-06  21.963706      20.512587      1.4511188      0.025022446    75525.044    
     14000   1.0530014      0.0023323615  -0.0009993112   21.947994      20.384287      1.5637071      0.0020860456   75023.499    
     15000   0.99094527     0.0023323615   0.0011068478   21.895146      20.423592      1.4715537      0.0015091113   76190.627    
     16000   0.91285091     0.0023323615  -0.00025424173  21.87524       20.519657      1.3555836      0.0047853639   75649.603    
     17000   0.82806978     0.0023323615  -0.00054698156  21.701984      20.472301      1.2296836      0              75734.901    
     18000   1.043278       0.0023323615  -6.6143919e-05  22.003299      20.454031      1.5492679      0.0034319132   76771.2      
     19000   1.0879249      0.0023323615  -0.0017804642   21.998985      20.383416      1.6155685      0.015376175    75058.931    
     20000   1.1144506      0.0023323615   0.0025198298   22.190904      20.535944      1.6549592      0              76256.112    
     21000   1.0427751      0.0023323615   0.0011345349   22.099492      20.550971      1.548521       0.00040047813  76508.565    
     22000   1.0586695      0.0023323615   0.0017882747   22.05673       20.484606      1.5721242      0              76272.548    
     23000   1.0058426      0.0023323615  -0.0055245362   21.954628      20.460951      1.4936763      0.0027619031   75374.871    
     24000   0.98273442     0.0023323615   0.0015147357   21.862067      20.402707      1.4593606      0              76029.982    
     25000   0.95835343     0.0023323615   0.0017808774   21.937761      20.514606      1.4231548      0.00020839942  75738.635    
     26000   0.93993778     0.0023323615  -0.0021777292   21.884849      20.489042      1.3958076      0.0088889834   76132.453    
     27000   0.9308188      0.0023323615  -0.00011239942  21.842252      20.459986      1.3822659      0.021612409    75332.722    
     28000   1.0149581      0.0023323615   0.0041996387   21.906846      20.399633      1.5072129      0.0064059022   75903.42     
     29000   0.92841138     0.0023323615  -2.5398808e-05  21.987185      20.608494      1.3786909      0.0046112484   75789.534    
     30000   1.021043       0.0023323615   0.001589158    22.097958      20.581709      1.5162489      0.016799508    73379.378    
     31000   1.0465985      0.0023323615  -0.0021744286   22.037917      20.483718      1.5541987      0.0057879149   76269.395    
     32000   0.98907108     0.0023323615  -0.0015558606   22.044089      20.575318      1.4687705      0.009448173    75626.164    
     33000   1.0918536      0.0023323615  -0.0025643847   22.039275      20.417873      1.6214025      0              74904.813    
     34000   0.99801543     0.0023323615   0.0016279766   21.932339      20.450286      1.4820529      0.017384617    77195.196    
     35000   1.0352271      0.0023323615  -0.0052971711   22.076004      20.538692      1.5373122      0.00010473809  75694.526    
     36000   1.1141579      0.0023323615  -0.00093279925  22.222491      20.567966      1.6545245      0.00033678641  76879.173    
     37000   1.0369415      0.0023323615   0.00013065175  22.217841      20.677983      1.5398581      0.013788831    76062.778    
     38000   1.0515596      0.0023323615   0.0021717558   22.070766      20.5092        1.561566       0.0067894678   76524.935    
     39000   1.0238495      0.0023323615   0.00026414509  22.040141      20.519725      1.5204165      0.00044464649  75609.198    
     40000   1.0749111      0.0023323615  -0.0026849368   22.039327      20.443084      1.596243       0.012651334    73971.046    
     41000   0.99070886     0.0023323615  -0.0030385564   22.03241       20.561207      1.4712027      0.00092855646  77279.591    
     42000   0.95315224     0.0023323615   0.0019788197   21.965263      20.549832      1.4154311      0.020233689    75707.907    
     43000   1.0644183      0.0023323615  -0.0011168725   22.287172      20.706511      1.5806611      0.039694129    75658.486    
     44000   1.0253747      0.0023323615  -0.006676522    22.066233      20.543552      1.5226814      0              74728.67     
     45000   0.94179556     0.0023323615  -0.0047206018   21.970644      20.572077      1.3985664      0.019869988    75251.102    
     46000   1.0083495      0.0023323615  -0.0017646918   21.972114      20.474715      1.497399       0.00026040605  75495.8      
     47000   0.98767959     0.0023323615  -0.00080218158  22.091674      20.62497       1.4667042      0.024266258    75177.027    
     48000   1.1473449      0.0023323615  -0.0025885687   22.080512      20.376705      1.7038072      0.00065962995  75484.721    
     49000   1.0679312      0.0023323615   0.0017688272   21.970482      20.384604      1.5858779      0.014142422    76592.345    
     50000   0.9581935      0.0023323615   0.0014398836   21.955202      20.532284      1.4229173      0.0055011948   76227.518    
     51000   1.0215759      0.0023323615  -0.00093292688  21.934681      20.41764       1.5170402      0              75879.644    
     52000   0.98079591     0.0023323615   0.0040701936   21.977374      20.520892      1.4564819      0.0020862422   76586.292    
     53000   1.0090927      0.0023323615   0.0013324753   22.095438      20.596935      1.4985027      0              75508.877    
     54000   0.97519627     0.0023323615   0.0013260734   22.070151      20.621984      1.4481665      0.026885444    76806.467    
     55000   1.1805087      0.0023323615  -0.001586238    22.424088      20.671033      1.7530554      0.024690954    76432.054    
     56000   0.98387121     0.0023323615   0.0037155145   22.104425      20.643376      1.4610487      0.01435493     76087.999    
     57000   1.0723812      0.0023323615  -0.0037916262   22.122726      20.53024       1.592486       0.013635549    76372.863    
     58000   1.0152349      0.0023323615   0.00021908047  22.082827      20.575203      1.5076238      0.00077375639  76241.147    
     59000   1.1424502      0.0023323615  -0.0052108657   22.30072       20.604182      1.6965385      0.013308184    77082.103    
     60000   1.0359703      0.0023323615  -0.00097887545  22.188218      20.649802      1.538416       0.00011346294  75576.399    
     61000   1.1646839      0.0023323615  -0.002085017    22.239945      20.51039       1.7295556      0.012918477    77704.28     
     62000   1.101836       0.0023323615   0.0010338878   22.171386      20.53516       1.6362265      0.001396566    76461.035    
     63000   0.96616435     0.0023323615   0.00097550571  21.903821      20.469067      1.4347541      0.013027663    77583.78     
     64000   1.0068907      0.0023323615  -0.0020278726   22.061652      20.566419      1.4952327      0.013750276    75785.444    
     65000   0.98723233     0.0023323615   0.0022441476   22.031073      20.565033      1.46604        0.0066686189   76693.339    
     66000   1.0273881      0.0023323615  -0.0003515278   22.183579      20.657908      1.5256713      0              74871.04     
     67000   0.96528212     0.0023323615  -0.00014822656  21.9396        20.506156      1.4334439      0.010365557    77017.755    
     68000   1.069702       0.0023323615   9.4754668e-05  22.081119      20.492611      1.5885075      0.00049153926  74173.065    
     69000   1.1229502      0.0023323615   0.0011504079   22.200329      20.532748      1.6675811      0.0068454249   76288.108    
     70000   1.0062775      0.0023323615  -0.00085311964  22.094021      20.599699      1.4943221      0.013222355    75250.309    
     71000   1.0906935      0.0023323615   0.00015260357  22.145362      20.525682      1.6196798      0.018338513    76149.996    
     72000   1.010401       0.0023323615  -6.0487182e-06  22.154105      20.653659      1.5004455      0.0013793953   74867.621    
     73000   1.1177599      0.0023323615  -0.0034084797   22.254435      20.594562      1.6598735      0.00011231735  77542.132    
     74000   0.9768019      0.0023323615   0.00016143893  22.07312       20.622569      1.4505508      0.0084515956   75471.134    
     75000   1.1360996      0.0023323615   0.002159116    22.161595      20.474487      1.6871079      0.0089909162   76379.881    
     76000   0.97379329     0.0023323615  -0.00068458621  21.988928      20.542845      1.446083       0              75556.321    
     77000   0.94876793     0.0023323615  -0.0016073976   21.923496      20.514575      1.4089204      0.017745108    75712.55     
     78000   0.83947996     0.0023323615  -0.00062768559  21.726727      20.480099      1.2466277      0.0054510099   76175.16     
     79000   1.0090614      0.0023323615  -0.00080262643  22.068192      20.569736      1.4984562      0.00023011166  76925.154    
     80000   1.1217643      0.0023323615  -0.0038177864   22.367902      20.702082      1.66582        0.032902439    76138.377    
     81000   1.0240158      0.0023323615   0.00023547123  22.031597      20.510933      1.5206635      0.0068767308   75777.737    
     82000   1.003236       0.0023323615  -0.0022802982   21.894199      20.404393      1.4898055      0.019136282    74605.67     
     83000   1.0554159      0.0023323615   0.004011718    22.104562      20.537269      1.5672927      0.0080869707   74310.955    
     84000   0.83527346     0.0023323615  -0.0034122221   21.874648      20.634267      1.2403811      0.0030083664   75584.636    
     85000   1.036002       0.0023323615   0.0013573923   21.962923      20.42446       1.5384629      0.015709144    76519.361    
     86000   0.9432002      0.0023323615  -0.0032183248   21.913588      20.512936      1.4006523      0.013730309    76397.246    
     87000   0.95566008     0.0023323615  -0.00049614223  21.91653       20.497375      1.4191552      0.0035862035   75269.89     
     88000   0.93373351     0.0023323615  -0.00097093893  21.870485      20.483891      1.3865943      0.0018212145   75076.935    
     89000   0.9684944      0.0023323615  -0.00047342045  21.973429      20.535215      1.4382142      0.00087524744  75314.589    
     90000   0.98293324     0.0023323615  -0.0032204602   22.050919      20.591263      1.4596559      0.015353933    76612.807    
     91000   1.0832827      0.0023323615   0.0048517083   22.11977       20.511095      1.6086749      0.0052867789   77525.384    
     92000   0.85899662     0.0023323615  -0.0013049519   21.765697      20.490087      1.27561        0.0024124001   76434.28     
     93000   0.96176266     0.0023323615  -4.4223672e-05  21.874222      20.446004      1.4282176      0.0045653365   77425.443    
     94000   0.96019503     0.0023323615   0.00024459347  21.944954      20.519064      1.4258896      3.8053462e-05  76772.143    
     95000   0.94702149     0.0023323615  -0.0033658915   21.86315       20.456823      1.4063269      0              77168.699    
     96000   0.91119348     0.0023323615  -0.0013197298   21.825018      20.471896      1.3531223      0.00043282989  75914.731    
     97000   1.0016687      0.0023323615  -0.0019514304   22.013024      20.525546      1.487478       0.0048369955   75519.791    
     98000   1.02143        0.0023323615  -0.0057874974   22.177965      20.661142      1.5168235      0              74350.526    
     99000   1.032786       0.0023323615   0.0018228259   21.975336      20.441649      1.5336871      7.1595851e-05  77297.01     
    100000   1.0594928      0.0023323615   0.0036169719   22.011024      20.437677      1.5733468      0.00032948157  75735.073    
    100362   1.1904942      0.0023323615  -0.00089755607  22.316856      20.548972      1.7678839      0.00063845255  75381.865    
Loop time of 1.31665 on 1 procs for 100000 steps with 100 atoms

Performance: 32810596.604 tau/day, 75950.455 timesteps/s
99.3% CPU use with 1 MPI tasks x 1 OpenMP threads

MPI task timing breakdown:
Section |  min time  |  avg time  |  max time  |%varavg| %total
---------------------------------------------------------------
Pair    | 0.049686   | 0.049686   | 0.049686   |   0.0 |  3.77
Bond    | 0.12741    | 0.12741    | 0.12741    |   0.0 |  9.68
Neigh   | 0.80186    | 0.80186    | 0.80186    |   0.0 | 60.90
Comm    | 0.053979   | 0.053979   | 0.053979   |   0.0 |  4.10
Output  | 0.0010823  | 0.0010823  | 0.0010823  |   0.0 |  0.08
Modify  | 0.24867    | 0.24867    | 0.24867    |   0.0 | 18.89
Other   |            | 0.03396    |            |       |  2.58

Nlocal:            100 ave         100 max         100 min
Histogram: 1 0 0 0 0 0 0 0 0 0
Nghost:             60 ave          60 max          60 min
Histogram: 1 0 0 0 0 0 0 0 0 0
Neighs:             36 ave          36 max          36 min
Histogram: 1 0 0 0 0 0 0 0 0 0

Total # of neighbors = 36
Ave neighs/atom = 0.36
Ave special neighs/atom = 1.98
Neighbor list builds = 9821
Dangerous builds = 8265
unfix           nvtSoft
unfix           rampSoft
reset_timestep  0

write_data      ${outputfile_relaxed}
write_data      5_relaxed.data
System init for write_data ...
Generated 0 of 6 mixed pair_coeff terms from geometric mixing rule
WARNING: Communication cutoff 1.3 is shorter than a bond length based estimate of 1.7550000000000001. This may lead to errors. (src/comm.cpp:727)
WARNING: Not all mixed pair coeffs generated from mixing. Use write_data with 'pair ij' option to store all pair coeffs. (src/write_data.cpp:309)

###########################################################################
# Full LJ with Coulomb
######################################################################

# Cutoffs and parameters:
# - Values: Marcel Verkade's Bachelor Thesis
# - Mapping to atom groups: Patrick Onck's paper
# - 1: aliphatic, 2: aromatic, 3: anion, 4: cation
# pair_style	lj/cut/coul/cut <lj_cut_global> <coul_cut_global>
# pair_coeff	<type_1>  <type_2>  <eps>  <sigma>  <r_cut_lj>  <r_cut_coul>

# Problem: Onck's model is much more complex, and Marcel has no sigma reported
# Using sigma=1 randomly

variable		glob_ljeps equal 1.0
variable		glob_ljsig 	equal 1.0
variable		glob_coulcut equal 10.0
variable		att_ljcut equal 2.50
variable		rep_ljcut equal 1.12

pair_style		lj/cut/coul/cut 						${att_ljcut} 	${glob_coulcut}
pair_style		lj/cut/coul/cut 						2.5 	${glob_coulcut}
pair_style		lj/cut/coul/cut 						2.5 	10
pair_coeff		1 1 	${glob_ljeps} 	${glob_ljsig}	${att_ljcut} 	${glob_coulcut}
pair_coeff		1 1 	1 	${glob_ljsig}	${att_ljcut} 	${glob_coulcut}
pair_coeff		1 1 	1 	1	${att_ljcut} 	${glob_coulcut}
pair_coeff		1 1 	1 	1	2.5 	${glob_coulcut}
pair_coeff		1 1 	1 	1	2.5 	10
pair_coeff		1 2 	${glob_ljeps} 	${glob_ljsig}	${att_ljcut} 	${glob_coulcut}
pair_coeff		1 2 	1 	${glob_ljsig}	${att_ljcut} 	${glob_coulcut}
pair_coeff		1 2 	1 	1	${att_ljcut} 	${glob_coulcut}
pair_coeff		1 2 	1 	1	2.5 	${glob_coulcut}
pair_coeff		1 2 	1 	1	2.5 	10
pair_coeff		1 3 	${glob_ljeps} 	${glob_ljsig}	${rep_ljcut} 	${glob_coulcut}
pair_coeff		1 3 	1 	${glob_ljsig}	${rep_ljcut} 	${glob_coulcut}
pair_coeff		1 3 	1 	1	${rep_ljcut} 	${glob_coulcut}
pair_coeff		1 3 	1 	1	1.12 	${glob_coulcut}
pair_coeff		1 3 	1 	1	1.12 	10
pair_coeff		1 4 	${glob_ljeps} 	${glob_ljsig}	${rep_ljcut} 	${glob_coulcut}
pair_coeff		1 4 	1 	${glob_ljsig}	${rep_ljcut} 	${glob_coulcut}
pair_coeff		1 4 	1 	1	${rep_ljcut} 	${glob_coulcut}
pair_coeff		1 4 	1 	1	1.12 	${glob_coulcut}
pair_coeff		1 4 	1 	1	1.12 	10
pair_coeff		2 2 	${glob_ljeps} 	${glob_ljsig}	${att_ljcut} 	${glob_coulcut}
pair_coeff		2 2 	1 	${glob_ljsig}	${att_ljcut} 	${glob_coulcut}
pair_coeff		2 2 	1 	1	${att_ljcut} 	${glob_coulcut}
pair_coeff		2 2 	1 	1	2.5 	${glob_coulcut}
pair_coeff		2 2 	1 	1	2.5 	10
pair_coeff		2 3 	${glob_ljeps} 	${glob_ljsig}	${rep_ljcut} 	${glob_coulcut}
pair_coeff		2 3 	1 	${glob_ljsig}	${rep_ljcut} 	${glob_coulcut}
pair_coeff		2 3 	1 	1	${rep_ljcut} 	${glob_coulcut}
pair_coeff		2 3 	1 	1	1.12 	${glob_coulcut}
pair_coeff		2 3 	1 	1	1.12 	10
pair_coeff		2 4 	${glob_ljeps} 	${glob_ljsig}	${att_ljcut} 	${glob_coulcut}
pair_coeff		2 4 	1 	${glob_ljsig}	${att_ljcut} 	${glob_coulcut}
pair_coeff		2 4 	1 	1	${att_ljcut} 	${glob_coulcut}
pair_coeff		2 4 	1 	1	2.5 	${glob_coulcut}
pair_coeff		2 4 	1 	1	2.5 	10
pair_coeff		3 3 	${glob_ljeps} 	${glob_ljsig}	${rep_ljcut} 	${glob_coulcut}
pair_coeff		3 3 	1 	${glob_ljsig}	${rep_ljcut} 	${glob_coulcut}
pair_coeff		3 3 	1 	1	${rep_ljcut} 	${glob_coulcut}
pair_coeff		3 3 	1 	1	1.12 	${glob_coulcut}
pair_coeff		3 3 	1 	1	1.12 	10
pair_coeff		3 4 	${glob_ljeps} 	${glob_ljsig}	${att_ljcut} 	${glob_coulcut}
pair_coeff		3 4 	1 	${glob_ljsig}	${att_ljcut} 	${glob_coulcut}
pair_coeff		3 4 	1 	1	${att_ljcut} 	${glob_coulcut}
pair_coeff		3 4 	1 	1	2.5 	${glob_coulcut}
pair_coeff		3 4 	1 	1	2.5 	10
pair_coeff		4 4 	${glob_ljeps} 	${glob_ljsig}	${rep_ljcut} 	${glob_coulcut}
pair_coeff		4 4 	1 	${glob_ljsig}	${rep_ljcut} 	${glob_coulcut}
pair_coeff		4 4 	1 	1	${rep_ljcut} 	${glob_coulcut}
pair_coeff		4 4 	1 	1	1.12 	${glob_coulcut}
pair_coeff		4 4 	1 	1	1.12 	10


fix             noDriftRot 	all momentum 10 linear 1 1 1 angular
fix             nvt1 		all nvt temp ${Temp} ${Temp} 0.5
fix             nvt1 		all nvt temp 1 ${Temp} 0.5
fix             nvt1 		all nvt temp 1 1 0.5

# dump          assemble 	all custom 1000 				${outputfile_selfasb} id type xu yu zu vx vy vz
dump            lindump 	all custom ${subsample_rate} 	${outputfile_trajlin} id type xu yu zu vx vy vz
dump            lindump 	all custom 1000 	${outputfile_trajlin} id type xu yu zu vx vy vz
dump            lindump 	all custom 1000 	6_b_trajlin.data id type xu yu zu vx vy vz

run             ${runtime}
run             1000000
Generated 0 of 6 mixed pair_coeff terms from geometric mixing rule
Neighbor list info ...
  update every 1 steps, delay 10 steps, check yes
  max neighbors/atom: 2000, page size: 100000
  master list distance cutoff = 10.3
  ghost atom cutoff = 10.3
  binsize = 5.15, bins = 7 7 7
  1 neighbor lists, perpetual/occasional/extra = 1 0 0
  (1) pair lj/cut/coul/cut, perpetual
      attributes: half, newton on
      pair build: half/bin/newton
      stencil: half/bin/3d
      bin: standard
Per MPI rank memory allocation (min/avg/max) = 7.712 | 7.712 | 7.712 Mbytes
   Step          Temp         Density         Press          TotEng         PotEng         KinEng         E_pair         S/CPU     
         0   1.1904942      0.0023323615  -0.0014466095   21.871458      20.103574      1.7678839     -0.44476017     0            
      1000   1.0268796      0.0023323615   0.00013548986  21.403468      19.878552      1.5249162     -0.72652621     33540.375    
      2000   1.0417754      0.0023323615  -0.0023139542   21.205191      19.658154      1.5470365     -0.91463329     30901.118    
      3000   0.96983887     0.0023323615   0.00070970669  20.953997      19.513786      1.4402107     -0.99513072     28056.123    
      4000   0.95728263     0.0023323615   0.0002853565   20.921845      19.500281      1.4215647     -1.0303506      21125.422    
      5000   0.96609069     0.0023323615   0.0011126749   20.538725      19.104081      1.4346447     -1.4292506      18598.99     
      6000   0.91214256     0.0023323615   0.00050507935  20.794419      19.439888      1.3545317     -1.1235237      18387.761    
      7000   1.1308231      0.0023323615  -0.00043848074  20.856858      19.177586      1.6792722     -1.3334962      18667.08     
      8000   1.073646       0.0023323615  -0.0040209035   20.96425       19.369886      1.5943644     -1.1500235      18688.918    
      9000   0.98596234     0.0023323615  -0.0034983155   20.506308      19.042154      1.4641541     -1.4355996      18524.372    
     10000   0.96076096     0.0023323615  -0.00025346238  20.474823      19.048093      1.42673       -1.3353373      18521.364    
     11000   1.0335542      0.0023323615  -0.0039185999   20.681836      19.147008      1.5348279     -1.2623322      18539.498    
     12000   1.1926742      0.0023323615   0.0028586325   20.862214      19.091093      1.7711212     -1.2939997      18768.55     
     13000   1.2302808      0.0023323615  -0.0014849555   21.051282      19.224315      1.826967      -1.311672       18407.07     
     14000   0.89784054     0.0023323615  -0.0019825485   20.372069      19.038776      1.3332932     -1.4933496      18478.736    
     15000   1.0924351      0.0023323615  -0.0018099177   20.673472      19.051206      1.6222662     -1.4508575      18561.67     
     16000   1.1391023      0.0023323615   0.0067358419   20.982875      19.291308      1.6915668     -1.2476158      18534.137    
     17000   1.1013771      0.0023323615  -0.0020426603   21.012702      19.377157      1.635545      -1.3221709      18531.67     
     18000   0.97087432     0.0023323615  -0.0013429038   20.811519      19.369771      1.4417484     -1.2886163      18494.472    
     19000   1.014376       0.0023323615   0.001378164    20.547149      19.0408        1.5063484     -1.5716135      18517.058    
     20000   1.1846157      0.0023323615  -0.0019988989   20.78834       19.029186      1.7591543     -1.4594824      18607.481    
     21000   1.0000271      0.0023323615  -0.0024360757   20.677489      19.192448      1.4850403     -1.2757993      18532.461    
     22000   0.98129612     0.0023323615  -0.0046404158   20.945319      19.488094      1.4572247     -1.0375444      18814.315    
     23000   1.2985736      0.0023323615   0.0042793735   21.221294      19.292912      1.9283819     -1.2643956      19481.506    
     24000   0.94637673     0.0023323615   8.3072736e-05  20.656331      19.250961      1.4053694     -1.2696685      19871.763    
     25000   0.98029171     0.0023323615  -0.0010426797   20.756438      19.300705      1.4557332     -1.2069278      19174.527    
     26000   1.0238181      0.0023323615  -0.004106806    20.702258      19.181888      1.5203698     -1.3588273      18479.485    
     27000   1.0446477      0.0023323615   0.0037665704   20.719055      19.167754      1.5513019     -1.2706326      18377.1      
     28000   1.0453964      0.0023323615   0.00083151988  20.82658       19.274166      1.5524136     -1.2794559      18445.348    
     29000   1.0362682      0.0023323615   0.0022776278   20.57234       19.033482      1.5388583     -1.3807088      18438.206    
     30000   1.1004656      0.0023323615   0.002303097    20.713921      19.079729      1.6341914     -1.2997498      18429.75     
     31000   1.0518411      0.0023323615  -0.0022330896   20.912788      19.350804      1.561984      -1.3661921      18325.821    
     32000   1.0829982      0.0023323615   0.0017511242   20.706042      19.097789      1.6082523     -1.3751432      18377.381    
     33000   0.86436548     0.0023323615  -0.0028137002   20.310219      19.026636      1.2835827     -1.4895323      18291.619    
     34000   1.0477511      0.0023323615   0.0048906845   20.669351      19.113441      1.5559104     -1.3240882      18463.996    
     35000   1.1413532      0.0023323615  -0.0021249067   20.799229      19.10432       1.6949094     -1.4220411      18488.271    
     36000   1.0632666      0.0023323615   0.00093917069  20.619062      19.040111      1.578951      -1.4661713      18405.261    
     37000   0.93960939     0.0023323615  -7.6794345e-06  20.418658      19.023338      1.3953199     -1.4971223      18451.459    
     38000   0.94731194     0.0023323615   0.0061077968   20.777942      19.371184      1.4067582     -1.3000835      18694.354    
     39000   1.0570258      0.0023323615   0.00012845758  20.800861      19.231177      1.5696833     -1.2959771      18727.68     
     40000   1.0254182      0.0023323615   0.0013534429   20.698859      19.176113      1.5227461     -1.3543903      18589.291    
     41000   1.0325399      0.0023323615  -0.0015410747   20.612802      19.07948       1.5333217     -1.466709       18492.855    
     42000   0.99684717     0.0023323615   0.0008185806   20.599145      19.118827      1.4803181     -1.2651904      18589.994    
     43000   0.93092058     0.0023323615  -0.00021179843  20.378412      18.995995      1.3824171     -1.5554019      18603.389    
     44000   0.99396188     0.0023323615   0.0016405487   20.882444      19.40641       1.4760334     -1.1931625      18521.182    
     45000   1.0347411      0.0023323615   0.00061478155  20.836582      19.299991      1.5365905     -1.20403        18622.208    
     46000   0.95608173     0.0023323615   0.0032244085   20.696149      19.276368      1.4197814     -1.3730285      18485.111    
     47000   1.0367378      0.0023323615   0.0018934972   20.565374      19.025818      1.5395557     -1.3793881      18518.787    
     48000   0.97597725     0.0023323615  -0.00011500493  20.799841      19.350514      1.4493262     -1.1934275      18692.372    
     49000   0.97664247     0.0023323615  -0.00097933039  20.712405      19.262091      1.4503141     -1.2718633      18717.786    
     50000   0.98099373     0.0023323615  -0.0017628191   20.61049       19.153715      1.4567757     -1.3695452      18371.675    
     51000   0.93635903     0.0023323615  -0.0022090036   20.437028      19.046535      1.3904932     -1.4048503      18405.797    
     52000   0.90037744     0.0023323615  -0.0038399894   20.856364      19.519304      1.3370605     -1.1829381      18326.299    
     53000   1.006953       0.0023323615  -0.00060740937  20.685518      19.190193      1.4953253     -1.4623757      18285.273    
     54000   0.89353153     0.0023323615  -0.0011967176   20.349872      19.022978      1.3268943     -1.4459417      18239.435    
     55000   1.2058546      0.0023323615  -0.00037617207  20.871617      19.080923      1.7906941     -1.4603997      18265.871    
     56000   1.0347897      0.0023323615  -0.0014181915   20.545911      19.009249      1.5366627     -1.542134       18374.83     
     57000   1.0202055      0.0023323615   0.0045043799   20.530393      19.015387      1.5150052     -1.3988093      18417.303    
     58000   1.114676       0.0023323615   0.0045699482   20.633793      18.978499      1.6552939     -1.4862328      18410.193    
     59000   1.0303556      0.0023323615  -0.0029734376   20.791657      19.261579      1.530078      -1.3530772      18442.431    
     60000   1.1238195      0.0023323615  -0.0038723216   20.669505      19.000633      1.668872      -1.4201493      18645.721    
     61000   0.91949923     0.0023323615   0.0014703082   20.768209      19.402752      1.3654564     -1.1029983      18392.627    
     62000   0.992163       0.0023323615  -0.0036404725   20.701198      19.227836      1.4733621     -1.2206271      18588.277    
     63000   0.89618865     0.0023323615   0.0045199807   20.658581      19.327741      1.3308401     -1.1216204      18546.966    
     64000   1.0309207      0.0023323615   0.0050198683   20.799129      19.268212      1.5309173     -1.3011186      18645.153    
     65000   0.88701596     0.0023323615   0.0023221696   20.509224      19.192006      1.3172187     -1.3053031      18553.047    
     66000   0.94668215     0.0023323615   0.00099384375  20.653121      19.247298      1.405823      -1.2426531      18922.72     
     67000   0.82256459     0.0023323615  -0.00092539723  20.439285      19.217776      1.2215084     -1.3191212      18843.953    
     68000   1.0509276      0.0023323615  -0.0018406589   20.654705      19.094077      1.5606275     -1.3450043      18526.053    
     69000   0.95510694     0.0023323615  -0.0012528987   20.546668      19.128334      1.4183338     -1.407266       18547.587    
     70000   0.99807371     0.0023323615   0.0058308075   20.858781      19.376642      1.4821395     -1.2770385      18558.063    
     71000   1.1044388      0.0023323615   0.00097738643  21.129594      19.489502      1.6400917     -1.0643881      18511.736    
     72000   0.85297975     0.0023323615  -8.1404499e-05  20.576516      19.309841      1.2666749     -1.2037708      18387.108    
     73000   1.0190015      0.0023323615   0.0010085281   20.568138      19.05492       1.5132173     -1.4707955      18451.275    
     74000   0.98131409     0.0023323615  -0.00099494093  20.684944      19.227692      1.4572514     -1.230292       18409.925    
     75000   0.92053409     0.0023323615  -0.0016483607   20.726831      19.359838      1.3669931     -1.2580785      18485.392    
     76000   1.1691647      0.0023323615  -0.0011803853   21.23116       19.49495       1.7362096     -1.1754545      18404.157    
     77000   1.0376714      0.0023323615   0.0033554346   21.110113      19.569171      1.540942      -1.0855136      18392.393    
     78000   0.90110225     0.0023323615   0.0043814488   20.527281      19.189144      1.3381368     -1.2970579      18433.99     
     79000   0.99433666     0.0023323615   0.00041200432  20.690185      19.213595      1.4765899     -1.4150572      18367.794    
     80000   0.98648052     0.0023323615  -0.0028238391   20.567496      19.102573      1.4649236     -1.3763718      18193.688    
     81000   1.0504596      0.0023323615  -0.0019220974   20.899041      19.339108      1.5599325     -1.142331       18430.104    
     82000   0.97204563     0.0023323615   0.00036530282  20.59799       19.154503      1.4434878     -1.4302098      18388.611    
     83000   0.9409925      0.0023323615  -0.00024972861  20.694766      19.297392      1.3973739     -1.274977       18532.441    
     84000   0.9161098      0.0023323615  -0.00033988254  20.831451      19.471028      1.360423      -1.1275328      18560.966    
     85000   0.87124254     0.0023323615  -0.0042539276   20.696538      19.402743      1.2937952     -1.1463571      18559.44     
     86000   1.004574       0.0023323615  -0.00033024155  20.679571      19.187778      1.4917924     -1.2649269      18443.16     
     87000   0.93479984     0.0023323615  -0.0033793908   20.686213      19.298036      1.3881778     -1.1640639      18477.015    
     88000   1.1913209      0.0023323615  -0.00063287691  20.903418      19.134307      1.7691116     -1.3473626      18486.08     
     89000   1.0945911      0.0023323615  -0.0018772774   21.087372      19.461905      1.6254678     -1.1885612      18728.502    
     90000   0.87116565     0.0023323615  -0.0042365221   20.631792      19.338111      1.293681      -1.1637424      18681.855    
     91000   1.0453217      0.0023323615   0.0015566485   20.893284      19.340981      1.5523027     -1.1734284      18855.975    
     92000   0.9027088      0.0023323615  -0.0005128701   20.435558      19.095035      1.3405226     -1.4125545      18548.028    
     93000   0.98395824     0.0023323615   0.00065080485  20.907714      19.446536      1.461178      -0.99476373     18541.089    
     94000   0.81208837     0.0023323615   0.0020231196   20.730248      19.524297      1.2059512     -0.99070822     20280.903    
     95000   1.0074951      0.0023323615   0.0058810028   21.075666      19.579536      1.4961303     -0.92420657     22421.574    
     96000   1.038221       0.0023323615   0.002459594    21.009734      19.467976      1.5417582     -0.97218744     22625.065    
     97000   1.0008456      0.0023323615  -0.00081999696  20.956675      19.470419      1.4862558     -1.0251248      22434.143    
     98000   1.0440933      0.0023323615   0.0019648383   20.771289      19.220811      1.5504785     -1.1107555      20415.079    
     99000   0.86312645     0.0023323615  -0.0029108839   20.694924      19.413181      1.2817428     -1.2063052      18948.941    
    100000   1.0413494      0.0023323615   0.00080562398  20.856273      19.309869      1.5464039     -1.2012958      18422.256    
    101000   1.0598083      0.0023323615   0.0027802318   20.810386      19.236571      1.5738153     -1.1880197      18703.42     
    102000   0.99069873     0.0023323615   0.0027078496   20.458855      18.987668      1.4711876     -1.5002571      18590.748    
    103000   0.97048148     0.0023323615   0.0041686915   20.595155      19.15399       1.441165      -1.3153934      18190.19     
    104000   0.91207615     0.0023323615  -0.0013312174   20.529458      19.175025      1.3544331     -1.2855549      18443.947    
    105000   1.050705       0.0023323615  -0.0014731384   20.813137      19.25284       1.5602969     -1.3217742      18389.729    
    106000   0.98382628     0.0023323615   0.00078218112  20.650416      19.189434      1.460982      -1.3401937      18367.932    
    107000   0.90553936     0.0023323615   0.00092074471  20.615016      19.27029       1.344726      -1.1682192      18498.095    
    108000   1.0684738      0.0023323615  -0.00076374645  20.928         19.341316      1.5866837     -1.200199       18744.688    
    109000   1.0650812      0.0023323615   0.00071368083  20.625283      19.043637      1.5816456     -1.4353539      19177.707    
    110000   1.0601304      0.0023323615  -0.002084598    21.036716      19.462423      1.5742936     -1.1308496      19018.759    
    111000   1.049565       0.0023323615  -0.001234809    20.861983      19.303379      1.5586041     -1.2059981      18744.252    
    112000   1.0773962      0.0023323615   0.0016937274   20.890653      19.29072       1.5999333     -1.2615809      18513.023    
    113000   1.0842347      0.0023323615  -0.00035501201  20.933608      19.32352       1.6100886     -1.2481468      18525.74     
    114000   0.95474886     0.0023323615  -0.00078998078  20.440497      19.022695      1.4178021     -1.4411136      18318.052    
    115000   0.86482824     0.0023323615   0.0024887132   20.299038      19.014768      1.2842699     -1.4643171      18398.913    
    116000   1.0686803      0.0023323615   0.00066608344  20.4923        18.90531       1.5869902     -1.5929829      18445.069    
    117000   1.0389875      0.0023323615   0.0011651681   20.850802      19.307905      1.5428965     -1.2735325      18564.462    
    118000   1.017766       0.0023323615   0.0028729954   20.731509      19.220127      1.5113824     -1.2436914      18521.471    
    119000   0.9203451      0.0023323615  -0.00038689631  20.37223       19.005518      1.3667125     -1.4382714      18499.106    
    120000   0.929299       0.0023323615   0.00066061625  20.535466      19.155457      1.380009      -1.3201344      18513.058    
    121000   1.001477       0.0023323615   0.00020640231  20.869559      19.382366      1.4871933     -1.295279       18411.616    
    122000   1.0612293      0.0023323615  -0.00071866323  20.846172      19.270246      1.5759254     -1.2273268      18638.917    
    123000   1.0345947      0.0023323615   0.0029300292   20.744955      19.208582      1.5363731     -1.2751599      18516.495    
    124000   0.98152815     0.0023323615   0.00011165473  20.856861      19.399292      1.4575693     -1.1679963      18385.997    
    125000   1.1067592      0.0023323615  -0.00016455946  21.228036      19.584499      1.6435374     -1.1249687      18671.504    
    126000   1.0541336      0.0023323615   0.0035924738   20.824672      19.259283      1.5653884     -1.2768259      18505.904    
    127000   0.9947951      0.0023323615   0.00093655435  20.597102      19.119831      1.4772707     -1.4906957      18322.228    
    128000   0.93618377     0.0023323615   0.0035284663   20.805275      19.415042      1.3902329     -1.1180227      18323.133    
    129000   0.87751115     0.0023323615   0.0035296344   20.93549       19.632386      1.3031041     -0.8482284      18336.318    
    130000   0.97530404     0.0023323615  -0.0021198592   20.813994      19.365667      1.4483265     -1.0843884      18710.99     
    131000   0.97421004     0.0023323615   0.0033430088   20.542414      19.095712      1.4467019     -1.389053       18548.707    
    132000   0.94705208     0.0023323615   0.0037500001   20.956526      19.550153      1.4063723     -1.0072597      18518.852    
    133000   1.1372839      0.0023323615  -0.0010730021   21.051871      19.363004      1.6888666     -1.1086487      18432.636    
    134000   1.112638       0.0023323615   0.0033046261   20.527841      18.875574      1.6522674     -1.5349194      18406.818    
    135000   0.9511543      0.0023323615   0.00075671642  20.770981      19.358517      1.4124641     -1.0890474      18464.634    
    136000   1.1340624      0.0023323615   0.00072621303  20.87214       19.188057      1.6840826     -1.2958056      18526.693    
    137000   0.99180341     0.0023323615   0.0035216354   20.791924      19.319096      1.4728281     -1.1764559      18529.936    
    138000   0.93324199     0.0023323615  -0.0014366866   20.635472      19.249608      1.3858644     -1.1829858      18492.474    
    139000   0.90677012     0.0023323615  -0.00062149333  20.554181      19.207628      1.3465536     -1.3660293      18614.973    
    140000   0.90319844     0.0023323615  -0.000438308    20.400355      19.059105      1.3412497     -1.3771336      18476.926    
    141000   0.96687973     0.0023323615   0.00077100276  20.761823      19.326006      1.4358164     -1.2020037      18594.028    
    142000   1.0373543      0.0023323615  -0.00054343366  20.65835       19.117879      1.5404711     -1.3923179      18412.577    
    143000   0.96806204     0.0023323615   0.0015907474   20.790405      19.352833      1.4375721     -1.2423866      18412.431    
    144000   0.88098056     0.0023323615  -0.0049986658   20.676071      19.367815      1.3082561     -1.153191       18513.796    
    145000   0.98443988     0.0023323615   0.0024098786   20.653467      19.191574      1.4618932     -1.2673877      18497.93     
    146000   1.0710003      0.0023323615   0.0020038337   20.846615      19.25618       1.5904354     -1.2807184      18615.904    
    147000   0.89046193     0.0023323615   0.0013888308   20.80079       19.478454      1.322336      -1.0957126      18656.368    
    148000   0.88940126     0.0023323615   0.00020445787  20.803957      19.483196      1.3207609     -1.0553599      18705.435    
    149000   1.0434113      0.0023323615   0.0056483506   20.757299      19.207833      1.5494658     -1.3214241      18663.84     
    150000   0.98201617     0.0023323615  -0.00036680237  20.905947      19.447653      1.458294      -1.0719065      18750.509    
    151000   1.0368594      0.0023323615  -0.0028080441   20.783365      19.243628      1.5397362     -1.3333371      18704.941    
    152000   1.0970687      0.0023323615   0.0031336117   21.016962      19.387815      1.629147      -1.2228067      18773.284    
    153000   1.0415312      0.0023323615   0.0046421874   20.649667      19.102993      1.5466738     -1.4062082      18597.233    
    154000   1.0450195      0.0023323615  -0.0036163324   20.662792      19.110938      1.5518539     -1.3954507      18499.525    
    155000   0.8722989      0.0023323615   0.002989592    20.388048      19.092684      1.2953639     -1.4035832      18474.368    
    156000   1.0773844      0.0023323615   0.0015618177   20.500455      18.900539      1.5999159     -1.5336351      18498.345    
    157000   1.1536457      0.0023323615   0.0031186814   20.893431      19.180267      1.7131639     -1.336423       18484.392    
    158000   1.0564452      0.0023323615  -0.0027703982   20.82426       19.255439      1.5688212     -1.2396286      18453.621    
    159000   1.1195247      0.0023323615   7.8834323e-05  20.878395      19.215901      1.6624942     -1.2992874      18574.844    
    160000   1.0036097      0.0023323615   0.0014224189   20.8694        19.379039      1.4903603     -1.2114295      18722.586    
    161000   1.2015998      0.0023323615  -0.0013665173   20.835156      19.05078       1.7843758     -1.4424718      18627.435    
    162000   1.1366441      0.0023323615   0.0032287234   20.897354      19.209438      1.6879165     -1.3122717      18465.096    
    163000   0.99540389     0.0023323615   0.0037782484   20.747093      19.268919      1.4781748     -1.2910848      18651.038    
    164000   1.0291455      0.0023323615  -0.004568744    20.93634       19.408059      1.5282811     -1.069796       19323.511    
    165000   1.0226357      0.0023323615   0.00094630444  20.978953      19.460339      1.518614      -1.1011996      18914.519    
    166000   1.1527212      0.0023323615   0.00049612972  20.974926      19.263135      1.7117909     -1.3410663      18541.977    
    167000   1.041648       0.0023323615   0.0041442933   20.853426      19.306579      1.5468472     -1.2969937      18486.166    
    168000   0.92367529     0.0023323615  -0.007389343    20.413688      19.042031      1.3716578     -1.4068373      18643.537    
    169000   1.1441139      0.0023323615  -0.0015536542   20.996559      19.29755       1.6990091     -1.2814587      18546.432    
    170000   0.92598728     0.0023323615  -0.00015307156  20.864366      19.489274      1.3750911     -1.0966696      18523.43     
    171000   1.0278274      0.0023323615  -0.0024310451   20.611796      19.085472      1.5263237     -1.4064001      18508.529    
    172000   0.9637391      0.0023323615   0.0030259231   20.628766      19.197613      1.4311526     -1.30263        18693.051    
    173000   0.91694826     0.0023323615   0.0027424535   20.511683      19.150015      1.3616682     -1.3712703      18640.055    
    174000   0.98697762     0.0023323615  -0.00029918176  20.751578      19.285916      1.4656618     -1.1912288      18643.767    
    175000   0.9204803      0.0023323615  -0.0022341813   20.761731      19.394817      1.3669132     -1.1317929      18697.393    
    176000   0.96940179     0.0023323615   0.0010469611   20.672354      19.232792      1.4395617     -1.1494784      18763.692    
    177000   0.98077535     0.0023323615  -0.0039271281   20.728919      19.272468      1.4564514     -1.2197893      18793.128    
    178000   1.0429691      0.0023323615   0.0034485959   20.787849      19.23904       1.5488091     -1.2891785      18530.321    
    179000   1.0732066      0.0023323615   0.0036593807   20.65148       19.057769      1.5937118     -1.3193277      18504.518    
    180000   1.019728       0.0023323615  -0.00028713234  20.829102      19.314806      1.5142961     -1.2780114      18480.754    
    181000   0.95387603     0.0023323615   0.0016613146   20.922934      19.506428      1.4165059     -1.0498548      18594.811    
    182000   1.0885453      0.0023323615  -2.8621627e-05  20.951309      19.334819      1.6164898     -1.0825317      18721.258    
    183000   0.98816494     0.0023323615  -0.0048762894   20.736877      19.269452      1.4674249     -1.2834257      18591.874    
    184000   0.91329599     0.0023323615  -0.0001598142   20.653146      19.296901      1.3562445     -1.1140967      18726.871    
    185000   0.95105746     0.0023323615  -0.0015991338   20.744519      19.332199      1.4123203     -1.1122628      18850.295    
    186000   0.94629391     0.0023323615  -0.0056069275   20.864632      19.459385      1.4052464     -1.1544868      19006.594    
    187000   1.0279629      0.0023323615  -0.0010962961   21.068417      19.541892      1.5265249     -0.99007007     18811.213    
    188000   1.0645417      0.0023323615   0.00039283085  20.824477      19.243633      1.5808445     -1.199046       18516.653    
    189000   0.96394196     0.0023323615   0.00037958114  20.712597      19.281143      1.4314538     -1.2849271      18535.834    
    190000   1.2612341      0.0023323615   0.0017470351   20.901432      19.0285        1.8729326     -1.3896931      18492.94     
    191000   1.0533482      0.0023323615   0.0023361739   20.660863      19.096641      1.564222      -1.3694364      18491.097    
    192000   0.9452354      0.0023323615   0.0016305145   20.623621      19.219947      1.4036746     -1.2119808      18492.724    
    193000   1.0497641      0.0023323615  -0.00185055     20.921451      19.362551      1.5588997     -1.1227567      18707.984    
    194000   1.0097401      0.0023323615   2.2440136e-05  20.833595      19.334131      1.499464      -1.3158836      18628.133    
    195000   0.99736999     0.0023323615   0.00082992174  20.726618      19.245524      1.4810944     -1.3482433      18573.942    
    196000   1.0236729      0.0023323615   0.00020290964  20.609831      19.089676      1.5201543     -1.4653159      18453.035    
    197000   1.0903313      0.0023323615  -0.0015281296   20.863015      19.243873      1.619142      -1.3703585      18383.477    
    198000   0.95113043     0.0023323615  -0.0019200303   20.689112      19.276683      1.4124287     -1.3478116      18491.323    
    199000   1.0925691      0.0023323615  -0.00013175836  20.861001      19.238536      1.6224651     -1.2457027      18517.533    
    200000   1.1593308      0.0023323615  -0.0017156991   21.164133      19.442527      1.7216062     -1.0844447      18428.487    
    201000   1.0093057      0.0023323615  -0.0019170415   20.414761      18.915942      1.4988189     -1.5943164      18344.693    
    202000   0.98552426     0.0023323615   0.00020340942  20.314883      18.851379      1.4635035     -1.5745698      18400.151    
    203000   1.0044763      0.0023323615  -0.0024736289   20.475952      18.984304      1.4916473     -1.5638685      18514.826    
    204000   1.0347702      0.0023323615   0.0018300067   20.447084      18.91045       1.5366338     -1.5412061      18516.331    
    205000   0.94472241     0.0023323615  -0.0025914019   20.628765      19.225852      1.4029128     -1.3423096      18432.976    
    206000   1.0389523      0.0023323615   0.0015197637   20.771535      19.228691      1.5428442     -1.3042487      18442.008    
    207000   1.045615       0.0023323615   0.00025042608  20.602609      19.049871      1.5527382     -1.5004149      18359.057    
    208000   0.96961339     0.0023323615  -0.0018709553   20.361515      18.921639      1.4398759     -1.5130911      18357.409    
    209000   1.1227654      0.0023323615  -0.00041666773  20.831192      19.163885      1.6673067     -1.3592061      18424.623    
    210000   1.1822764      0.0023323615  -0.004948664    20.915419      19.159738      1.7556804     -1.4018863      18503.064    
    211000   0.96321429     0.0023323615  -0.0032782524   20.9557        19.525326      1.4303732     -1.1602897      18396.169    
    212000   0.90415836     0.0023323615  -0.0045674921   20.716264      19.373589      1.3426752     -1.2151417      18637.299    
    213000   1.2361675      0.0023323615   0.0026471332   21.10746       19.271751      1.8357088     -1.270136       18792.275    
    214000   1.062908       0.0023323615  -0.00011603401  20.669424      19.091005      1.5784184     -1.3129949      18475.883    
    215000   1.1301837      0.0023323615  -0.0028251857   21.090105      19.411782      1.6783228     -1.1157091      18553.372    
    216000   1.0766426      0.0023323615   0.0028180861   20.701985      19.103171      1.5988142     -1.3931998      18606.572    
    217000   0.95754725     0.0023323615   0.0018314592   20.288559      18.866602      1.4219577     -1.6145364      18441.923    
    218000   1.0076212      0.0023323615  -0.0022099569   20.949803      19.453485      1.4963175     -1.123791       18460.482    
    219000   1.1169688      0.0023323615  -0.00093291623  20.621338      18.962639      1.6586986     -1.4962281      18631.12     
    220000   0.91386525     0.0023323615  -0.0036925417   20.46551       19.10842       1.3570899     -1.3967045      18446.93     
    221000   1.0197305      0.0023323615   0.00040629391  20.497521      18.983222      1.5142997     -1.4851514      18478.106    
    222000   1.1104378      0.0023323615   0.003276517    21.002749      19.353749      1.6490001     -1.2715661      18492.156    
    223000   0.99204056     0.0023323615   0.00066955457  20.645667      19.172487      1.4731802     -1.3539567      18627.181    
    224000   0.96753312     0.0023323615  -0.0026515861   20.445771      19.008984      1.4367867     -1.4286351      18582.542    
    225000   0.89876311     0.0023323615  -0.0012401215   20.83719       19.502527      1.3346632     -1.1688553      18557.722    
    226000   0.95453631     0.0023323615  -0.0010168928   20.562172      19.144686      1.4174864     -1.2686801      18651.177    
    227000   0.92892445     0.0023323615   0.00051855851  20.507935      19.128482      1.3794528     -1.2108021      18614.842    
    228000   0.84631484     0.0023323615   0.001583287    20.352359      19.095582      1.2567775     -1.36832        18515.145    
    229000   0.9121937      0.0023323615  -0.0010808818   20.63829       19.283683      1.3546076     -1.2899189      18558.405    
    230000   1.0636575      0.0023323615   0.0014309112   20.882687      19.303156      1.5795314     -1.2177465      18731.778    
    231000   1.0765499      0.0023323615  -0.00021287503  21.066609      19.467933      1.5986765     -1.0759544      18755.103    
    232000   0.98548823     0.0023323615   0.0022543292   20.861545      19.398095      1.46345       -1.0753548      18878.804    
    233000   1.0925842      0.0023323615  -0.0008390601   21.089932      19.467444      1.6224875     -1.1483715      18741.862    
    234000   1.0317041      0.0023323615  -0.0014162361   20.77335       19.24127       1.5320806     -1.3716594      18506.388    
    235000   0.97982893     0.0023323615   0.0049250151   20.642621      19.187575      1.455046      -1.3359338      18425.602    
    236000   1.0110222      0.0023323615   0.00034063599  20.688887      19.187519      1.501368      -1.3720127      18566.783    
    237000   0.98016198     0.0023323615  -0.0037536615   20.603721      19.14818       1.4555405     -1.4319097      18514.926    
    238000   1.0220607      0.0023323615  -0.0035105218   20.573816      19.056055      1.5177601     -1.3922291      18424.84     
    239000   0.96247498     0.0023323615   0.00097419562  20.48121       19.051934      1.4292753     -1.423369       18454.781    
    240000   0.9964753      0.0023323615   0.00086329456  20.674837      19.195071      1.4797658     -1.311805       18439.324    
    241000   1.0778699      0.0023323615  -0.0029578968   20.907136      19.306499      1.6006368     -1.227924       18545.784    
    242000   1.1452963      0.0023323615  -0.00035645898  20.814986      19.114221      1.7007649     -1.2872615      18461.171    
    243000   1.0372496      0.0023323615  -0.0016010985   20.673991      19.133676      1.5403156     -1.4566583      18531.735    
    244000   0.86022866     0.0023323615  -0.00097217771  20.531732      19.254292      1.2774396     -1.1489022      18616.046    
    245000   0.91483843     0.0023323615   0.00079827528  20.400789      19.042254      1.3585351     -1.4318821      18486.392    
    246000   1.0837317      0.0023323615   0.0012190736   20.962872      19.353531      1.6093415     -1.1128428      18442.322    
    247000   0.83593936     0.0023323615  -0.0016713232   20.423612      19.182242      1.2413699     -1.386405       18425.885    
    248000   1.0148435      0.0023323615  -0.0007745506   20.90456       19.397517      1.5070426     -1.1144854      18604.329    
    249000   1.0244453      0.0023323615   0.0001860579   20.597089      19.075788      1.5213013     -1.4222166      18554.782    
    250000   1.0518381      0.0023323615   0.0002279453   20.736026      19.174046      1.5619796     -1.3606651      18423.613    
    251000   0.91528735     0.0023323615  -0.0015175639   20.431981      19.072779      1.3592017     -1.418242       18524.338    
    252000   0.96478358     0.0023323615   0.00020963341  20.588374      19.15567       1.4327036     -1.3938102      18460.543    
    253000   1.0180134      0.0023323615  -0.0051590903   20.837543      19.325793      1.5117498     -1.4022231      18573.635    
    254000   0.89815621     0.0023323615   0.0053528576   20.506949      19.173187      1.333762      -1.3361521      18583.66     
    255000   0.95270216     0.0023323615   0.0014317037   20.516194      19.101431      1.4147627     -1.2446596      18585.531    
    256000   0.89031768     0.0023323615   0.0020408782   20.838087      19.515965      1.3221217     -1.0472495      18721.778    
    257000   0.93382424     0.0023323615   0.0026855568   20.813512      19.426783      1.386729      -1.170746       18539.005    
    258000   0.98824871     0.0023323615   0.0038434272   20.513598      19.046048      1.4675493     -1.4361185      18558.177    
    259000   0.98682987     0.0023323615  -0.0025010672   20.508547      19.043104      1.4654424     -1.4373311      18348.814    
    260000   1.0119351      0.0023323615   0.0041286074   20.678397      19.175673      1.5027236     -1.4090555      18422.902    
    261000   0.9473585      0.0023323615   0.00095309778  20.739875      19.333048      1.4068274     -1.1692072      18521.869    
    262000   0.9316448      0.0023323615   0.0030020318   20.495389      19.111896      1.3834925     -1.4482775      18785.032    
    263000   0.90613891     0.0023323615   0.0022404715   20.396212      19.050596      1.3456163     -1.475284       18740.12     
    264000   0.93190909     0.0023323615   0.0011553908   20.453167      19.069282      1.383885      -1.4678858      18434.692    
    265000   0.98196162     0.0023323615  -0.0037241271   20.47557       19.017357      1.458213      -1.4521062      18529.964    
    266000   0.96763453     0.0023323615  -0.0004799244   20.899356      19.462419      1.4369373     -1.2009397      18644.192    
    267000   1.0448097      0.0023323615  -0.00018550877  21.203118      19.651576      1.5515424     -0.97775533     18628.742    
    268000   1.0073098      0.0023323615   0.00073580654  20.87377       19.377915      1.495855      -1.2151968      18778.434    
    269000   0.87194353     0.0023323615  -0.0015185384   20.620496      19.32566       1.2948361     -1.2121241      18658.227    
    270000   0.89470893     0.0023323615   0.0017629601   20.492764      19.164121      1.3286428     -1.4235035      18467.374    
    271000   0.88880539     0.0023323615  -0.0016536647   20.502183      19.182307      1.319876      -1.2527453      18393.18     
    272000   1.0255502      0.0023323615   0.0023755597   20.613138      19.090196      1.522942      -1.3906156      18521.264    
    273000   0.97276557     0.0023323615   0.0029882759   20.571004      19.126447      1.4445569     -1.3624534      18595.445    
    274000   0.87615541     0.0023323615  -0.00045831816  20.250726      18.949636      1.3010908     -1.3586058      18409.779    
    275000   1.1008508      0.0023323615  -0.0035709516   20.773715      19.138951      1.6347635     -1.3304472      18536.399    
    276000   1.1335341      0.0023323615  -0.003525992    20.961539      19.278241      1.6832982     -1.1520862      18516.482    
    277000   1.0234364      0.0023323615  -0.0039228614   20.649658      19.129855      1.5198031     -1.3170422      18692.918    
    278000   1.0083288      0.0023323615  -0.0040533388   20.925745      19.428377      1.4973683     -1.2310879      18639.76     
    279000   1.0545105      0.0023323615   0.0024992567   20.706361      19.140413      1.5659482     -1.308567       18704.061    
    280000   1.0043347      0.0023323615  -0.00013827779  20.565098      19.073661      1.4914371     -1.4934269      18532.985    
    281000   0.99429857     0.0023323615   0.00086177587  20.539751      19.063217      1.4765334     -1.5007084      18471.277    
    282000   0.99784514     0.0023323615   0.0010588849   20.665304      19.183504      1.4818        -1.3369228      18595.878    
    283000   1.0561051      0.0023323615  -0.001528102    20.706609      19.138293      1.568316      -1.4524026      18464.163    
    284000   1.141236       0.0023323615  -0.0050137602   21.163613      19.468877      1.6947354     -1.1632318      18734.946    
    285000   1.0397337      0.0023323615   0.0013499605   20.384757      18.840752      1.5440046     -1.572129       18505.479    
    286000   0.98867419     0.0023323615  -0.0014891429   20.504652      19.036471      1.4681812     -1.3407898      18584.833    
    287000   1.0290047      0.0023323615   0.00073919033  20.653868      19.125797      1.528072      -1.3346035      18591.434    
    288000   0.795057       0.0023323615   0.0014561365   20.434061      19.253401      1.1806596     -1.3001972      18569.018    
    289000   0.92389874     0.0023323615   0.00085460686  20.671486      19.299496      1.3719896     -1.184212       18629.385    
    290000   1.034984       0.0023323615   0.00073925428  20.647763      19.110812      1.5369513     -1.5102422      18451.871    
    291000   1.0488948      0.0023323615  -0.0051443645   20.473706      18.916097      1.5576087     -1.5159712      18377.111    
    292000   0.98925404     0.0023323615   0.001124593    20.665287      19.196245      1.4690422     -1.3078012      18413.002    
    293000   0.98265792     0.0023323615   0.0061449586   20.657383      19.198136      1.459247      -1.2604913      18394.698    
    294000   0.85974584     0.0023323615  -0.0029245484   20.264956      18.988233      1.2767226     -1.4801986      18478.062    
    295000   0.98627024     0.0023323615  -0.0017924938   20.86          19.395388      1.4646113     -1.2440298      18799.609    
    296000   0.94505897     0.0023323615   0.000536734    20.81795       19.414537      1.4034126     -1.2426634      18696.739    
    297000   0.98726674     0.0023323615  -0.00089063182  20.79351       19.327419      1.4660911     -1.2131617      18612.256    
    298000   0.77846228     0.0023323615  -0.0025462421   20.358049      19.202033      1.1560165     -1.3446214      18431.553    
    299000   1.0459155      0.0023323615   0.0018880028   20.281825      18.72864       1.5531846     -1.6594714      18297.591    
    300000   0.98577486     0.0023323615   0.0014486202   20.961416      19.49754       1.4638757     -1.0707517      18481.89     
    301000   0.91238964     0.0023323615   0.0015229834   20.438411      19.083512      1.3548986     -1.2791276      18426.976    
    302000   1.0150319      0.0023323615   0.0034006944   20.760572      19.25325       1.5073224     -1.2860293      18484.711    
    303000   1.1432191      0.0023323615  -0.0038346808   20.94247       19.24479       1.6976803     -1.3192483      18426.16     
    304000   1.0541247      0.0023323615  -0.0022640915   20.468065      18.90269       1.5653752     -1.5375263      18313.572    
    305000   0.97551498     0.0023323615  -0.003149158    20.592262      19.143622      1.4486397     -1.3903543      18246.084    
    306000   1.052647       0.0023323615   0.0045003272   20.944252      19.381072      1.5631809     -1.3173062      18302.151    
    307000   1.0297356      0.0023323615   0.0028774173   20.631655      19.102497      1.5291573     -1.5336808      18228.822    
    308000   0.95650597     0.0023323615   0.0005944787   20.4795        19.059088      1.4204114     -1.4715354      18276.383    
    309000   1.0002829      0.0023323615  -0.0029427743   20.483724      18.998304      1.4854201     -1.6154389      18219.722    
    310000   1.0626807      0.0023323615  -0.0030943054   21.007966      19.429885      1.5780809     -1.1600746      18431.628    
    311000   1.114043       0.0023323615   0.003859046    20.80768       19.153326      1.6543538     -1.3060797      18484.265    
    312000   1.0470876      0.0023323615  -0.0006895678   20.899672      19.344747      1.5549251     -1.0980509      18694.68     
    313000   0.90952065     0.0023323615   0.00020470249  20.52007       19.169432      1.3506382     -1.2857623      18729.995    
    314000   1.0739784      0.0023323615  -0.0014626042   21.10761       19.512752      1.5948579     -1.1338652      18717.13     
    315000   1.0457633      0.0023323615  -0.00057438368  20.903555      19.350597      1.5529585     -1.227151       18624.831    
    316000   0.8538309      0.0023323615  -0.00033474294  20.500244      19.232305      1.2679389     -1.421878       18272.542    
    317000   1.0348376      0.0023323615  -0.0030128082   20.688236      19.151502      1.5367339     -1.3427788      18396.858    
    318000   1.0751772      0.0023323615   0.00060082255  20.764124      19.167486      1.5966381     -1.4516662      18510.225    
    319000   1.0446526      0.0023323615   0.00055625992  20.969884      19.418575      1.5513091     -1.0564232      18578.98     
    320000   0.93692158     0.0023323615   0.0016890374   20.322029      18.930701      1.3913286     -1.4626039      18510.599    
    321000   0.97332263     0.0023323615  -0.0015669996   20.594168      19.148784      1.4453841     -1.2859632      18579.263    
    322000   1.0235674      0.0023323615   0.0021395423   20.645426      19.125429      1.5199976     -1.2474279      18695.782    
    323000   0.98213913     0.0023323615   0.0043725507   20.784523      19.326046      1.4584766     -1.1804921      18689.597    
    324000   1.162943       0.0023323615  -0.00030341955  20.810895      19.083925      1.7269704     -1.4442852      18539.687    
    325000   0.9699594      0.0023323615  -0.0010955418   20.735225      19.294836      1.4403897     -1.1950415      18488.864    
    326000   1.0002027      0.0023323615   0.0013311087   20.90759       19.422289      1.4853011     -1.1065445      18863.655    
    327000   0.95573038     0.0023323615  -0.0014184224   20.728428      19.309168      1.4192596     -1.1442228      18720.795    
    328000   1.1142179      0.0023323615   0.0011258381   20.864251      19.209637      1.6546136     -1.2500247      18633.552    
    329000   1.0059599      0.0023323615   0.001350364    20.789222      19.295371      1.4938504     -1.2272577      18458.089    
    330000   0.98834833     0.0023323615  -0.0016001301   20.81377       19.346073      1.4676973     -1.0652008      18639.867    
    331000   1.0883499      0.0023323615   0.0013545204   20.541193      18.924994      1.6161996     -1.4433776      18644.937    
    332000   1.118076       0.0023323615  -0.00018755757  20.818358      19.158015      1.6603428     -1.2455564      18583.21     
    333000   0.99923546     0.0023323615   0.001177538    20.483828      18.999964      1.4838647     -1.4386057      18654.523    
    334000   1.0426191      0.0023323615   0.0019826387   20.644426      19.096137      1.5482894     -1.3762778      18475.749    
    335000   1.0329943      0.0023323615   0.0011397957   20.625034      19.091038      1.5339966     -1.3743978      18505.668    
    336000   1.2064847      0.0023323615   0.0014162647   20.701754      18.910124      1.7916298     -1.5887293      18552.73     
    337000   1.0410948      0.0023323615  -0.0004137608   20.698827      19.152801      1.5460258     -1.3515482      18574.07     
    338000   0.88162831     0.0023323615   0.0024653167   20.617436      19.308218      1.309218      -1.3139339      19142.13     
    339000   0.97940586     0.0023323615   0.0026496985   20.680517      19.226099      1.4544177     -1.2327363      18625.307    
    340000   0.84834619     0.0023323615  -0.0038959935   20.530441      19.270647      1.2597941     -1.2249491      18407.053    
    341000   1.1003377      0.0023323615  -0.0024219365   21.009242      19.375241      1.6340014     -1.2601689      18432.04     
    342000   0.87531836     0.0023323615   0.0015019786   20.36338       19.063532      1.2998478     -1.3934887      18580.934    
    343000   0.99222866     0.0023323615  -0.0017338873   20.450617      18.977158      1.4734596     -1.4729223      18282.007    
    344000   0.88679748     0.0023323615  -0.0023646582   20.51104       19.194146      1.3168943     -1.2898976      18331.378    
    345000   0.92296438     0.0023323615   0.0026069987   20.422201      19.051599      1.3706021     -1.4254958      18436.126    
    346000   0.94430836     0.0023323615  -0.00078999081  20.63113       19.228832      1.4022979     -1.3130899      18467.326    
    347000   0.95215168     0.0023323615  -0.0030129354   20.59711       19.183165      1.4139452     -1.3127622      18820.282    
    348000   0.84079311     0.0023323615   0.001345131    20.408904      19.160326      1.2485778     -1.2491943      18501.273    
    349000   0.94314052     0.0023323615   0.0034389022   20.404782      19.004218      1.4005637     -1.5203491      18403.425    
    350000   1.0716542      0.0023323615   0.0006012915   20.796075      19.204668      1.5914065     -1.3847578      18680.314    
    351000   1.0924296      0.0023323615  -0.00071717814  20.704204      19.081946      1.622258      -1.4472915      18807.027    
    352000   0.9250687      0.0023323615   0.0022317601   20.912834      19.539107      1.373727      -1.0938852      19032.805    
    353000   1.0537334      0.0023323615   0.00013045103  20.898511      19.333717      1.5647941     -1.2192334      18485.344    
    354000   1.0947921      0.0023323615   0.0063464699   20.487816      18.862049      1.6257663     -1.6222068      18361.752    
    355000   1.0323136      0.0023323615   0.0043528842   20.561388      19.028402      1.5329857     -1.5414507      18252.203    
    356000   1.0049915      0.0023323615   0.0015617409   20.42746       18.935048      1.4924123     -1.6219709      18301.282    
    357000   1.1005245      0.0023323615  -0.0015666659   20.707699      19.07342       1.6342789     -1.4304119      18317.168    
    358000   0.98763945     0.0023323615   0.0052368322   20.47534       19.008696      1.4666446     -1.5287697      18476.061    
    359000   1.0493276      0.0023323615   0.0018050083   20.841808      19.283556      1.5582514     -1.1483458      18621.27     
    360000   1.1464924      0.0023323615   0.00052576798  20.704499      19.001957      1.7025411     -1.3893236      18481.798    
    361000   0.98762035     0.0023323615  -0.0012205073   20.791819      19.325203      1.4666162     -1.2066944      18405.166    
    362000   1.0481309      0.0023323615  -0.0018800791   21.048791      19.492316      1.5564744     -1.0093615      18526.026    
    363000   1.0060526      0.0023323615  -0.0029193161   20.77746       19.283472      1.4939881     -1.2669643      18239.498    
    364000   0.98989776     0.0023323615  -0.002728179    20.877199      19.407201      1.4699982     -1.1613971      18589.592    
    365000   1.0248841      0.0023323615  -0.0015210091   20.922259      19.400306      1.521953      -1.1263238      19276.541    
    366000   1.0336188      0.0023323615  -0.0035395064   20.951372      19.416448      1.5349238     -1.0559297      20132.63     
    367000   1.1284853      0.0023323615  -0.0019903404   21.399061      19.723261      1.6758007     -0.91992328     20744.446    
    368000   1.0477508      0.0023323615   0.0035287081   21.073186      19.517276      1.5559099     -0.99915126     20900.534    
    369000   1.0365824      0.0023323615  -0.0016299748   21.021931      19.482606      1.5393248     -1.1398611      20710.988    
    370000   0.98473447     0.0023323615  -0.0012455645   20.950903      19.488572      1.4623307     -1.09999        20959.609    
    371000   1.1046834      0.0023323615   0.00010017666  21.172002      19.531548      1.6404548     -1.0687456      20266.124    
    372000   1.0817648      0.0023323615   0.0023467852   21.022186      19.415765      1.6064207     -1.1099097      19221.086    
    373000   1.0398821      0.0023323615  -0.0044599311   20.842672      19.298447      1.544225      -1.2735023      18999.991    
    374000   0.91923503     0.0023323615   0.0024038987   20.594415      19.229351      1.365064      -1.4016148      18451.227    
    375000   0.95823776     0.0023323615   9.4772697e-05  20.720426      19.297442      1.4229831     -1.159553       18332.095    
    376000   1.0911954      0.0023323615   0.00037043374  20.556453      18.936028      1.6204252     -1.5082018      18579.235    
    377000   1.0778775      0.0023323615   0.00022940942  20.723558      19.12291       1.6006482     -1.4105296      19013.662    
    378000   1.0367545      0.0023323615   0.001206907    20.719461      19.17988       1.5395804     -1.222893       18723.692    
    379000   0.90396929     0.0023323615  -0.0024693381   20.46452       19.122126      1.3423944     -1.4836007      18515.042    
    380000   1.0218043      0.0023323615  -0.00040358361  20.688266      19.170887      1.5173795     -1.3574565      18510.167    
    381000   1.1994014      0.0023323615   0.0001828447   20.930726      19.149615      1.7811111     -1.3355869      18293.845    
    382000   1.1581163      0.0023323615   0.00077172988  20.668836      18.949034      1.7198027     -1.4597777      18354.327    
    383000   1.0263535      0.0023323615   0.00041272405  20.481354      18.957219      1.5241349     -1.4951401      18189.733    
    384000   0.98464728     0.0023323615   0.0029093628   20.616371      19.15417       1.4622012     -1.4082599      18239.582    
    385000   0.92914872     0.0023323615  -0.0011817451   20.411133      19.031348      1.3797858     -1.4735276      18429.1      
    386000   0.92179765     0.0023323615  -0.0035506731   20.215641      18.846772      1.3688695     -1.6635485      18230.124    
    387000   1.0701953      0.0023323615   0.0014165297   20.78883       19.19959       1.58924       -1.2968013      18239.799    
    388000   0.98522129     0.0023323615   3.7472284e-05  20.739762      19.276709      1.4630536     -1.2919979      18397.363    
    389000   0.94355824     0.0023323615  -2.2150442e-05  20.204291      18.803107      1.401184      -1.576204       18368.494    
    390000   1.0281876      0.0023323615  -0.0018912275   20.726888      19.200029      1.5268586     -1.4976258      18330.806    
    391000   1.1217422      0.0023323615   0.0015303515   20.789243      19.123456      1.6657871     -1.4153959      18374.533    
    392000   1.0281387      0.0023323615  -0.00053221847  20.707532      19.180746      1.526786      -1.4530988      18359.85     
    393000   1.0135341      0.0023323615  -0.00047870152  20.632569      19.127471      1.5050982     -1.3977085      18309.225    
    394000   1.0656011      0.0023323615  -0.0030140264   20.838808      19.25639       1.5824176     -1.2446563      18401.43     
    395000   0.98617285     0.0023323615   0.0042620802   20.556716      19.092249      1.4644667     -1.4239428      18474.005    
    396000   0.96705561     0.0023323615  -0.0013026679   20.530891      19.094814      1.4360776     -1.5592354      18351.557    
    397000   1.0326799      0.0023323615   0.0035469778   20.53504       19.00151       1.5335297     -1.4398638      18221.91     
    398000   0.93388012     0.0023323615  -0.0020763128   20.446438      19.059626      1.386812      -1.6090678      18351.108    
    399000   0.89060546     0.0023323615   0.001948738    20.027737      18.705188      1.3225491     -1.7411536      18442.85     
    400000   1.0839467      0.0023323615   0.0036820875   20.811741      19.20208       1.6096608     -1.4240002      18514.022    
    401000   0.96890645     0.0023323615   0.0010688272   20.336623      18.897797      1.4388261     -1.6496183      18430.566    
    402000   0.9810901      0.0023323615  -0.00033649558  20.648667      19.191748      1.4569188     -1.2494266      18471.226    
    403000   1.0814872      0.0023323615   0.0014989896   20.79457       19.188562      1.6060084     -1.3874934      18591.566    
    404000   1.0331331      0.0023323615   0.0017630601   20.716573      19.18237       1.5342026     -1.4056767      18677.248    
    405000   0.96531178     0.0023323615   0.00027917861  20.243018      18.80953       1.433488      -1.6393016      18376.018    
    406000   0.85147634     0.0023323615  -7.5942386e-05  20.364297      19.099855      1.2644424     -1.3961039      18408.961    
    407000   1.0472967      0.0023323615  -0.0011518131   20.614155      19.05892       1.5552355     -1.4766304      18432.087    
    408000   1.047283       0.0023323615  -0.00032480441  20.61732       19.062105      1.5552153     -1.4732805      18367.899    
    409000   1.0421026      0.0023323615   0.0032367403   20.729126      19.181604      1.5475224     -1.5084556      18415.373    
    410000   0.9608098      0.0023323615  -0.0014911553   20.516737      19.089934      1.4268025     -1.464568       18603.354    
    411000   0.95850381     0.0023323615   0.0015321233   20.640524      19.217146      1.4233782     -1.5129535      18491.361    
    412000   1.0187154      0.0023323615  -9.3011188e-05  20.772735      19.259943      1.5127924     -1.4954516      18415.122    
    413000   1.0414347      0.0023323615  -0.00093940342  20.618975      19.072445      1.5465305     -1.5072265      18208.205    
    414000   0.95515862     0.0023323615  -0.0037652265   20.527398      19.108987      1.4184105     -1.3962909      18218.528    
    415000   0.89816372     0.0023323615   0.00082474193  20.504098      19.170325      1.3337731     -1.3204631      18174.94     
    416000   1.0364454      0.0023323615  -0.00028126938  20.463071      18.92395       1.5391214     -1.4778813      18278.766    
    417000   1.1524416      0.0023323615  -0.0017499883   20.887105      19.17573       1.7113758     -1.242273       18149.252    
    418000   1.0333697      0.0023323615   0.0041865521   20.628232      19.093678      1.5345539     -1.4436209      18303.604    
    419000   1.069319       0.0023323615   0.0029382908   20.682753      19.094814      1.5879387     -1.3367571      18121.701    
    420000   1.0929214      0.0023323615   0.0046609621   20.500328      18.87734       1.6229882     -1.5266147      18306.854    
    421000   0.97542478     0.0023323615   0.00032404039  20.578653      19.130148      1.4485058     -1.3317128      18240.802    
    422000   0.9497951      0.0023323615  -0.0020665958   20.629011      19.218565      1.4104457     -1.4165542      18229.172    
    423000   1.0567855      0.0023323615  -0.0012376224   20.536804      18.967478      1.5693264     -1.3776227      18302.587    
    424000   0.99494194     0.0023323615  -0.0018955591   20.485815      19.008326      1.4774888     -1.3986508      18436.17     
    425000   1.1659517      0.0023323615  -0.0026206259   21.018968      19.28753       1.7314383     -1.1938348      18411.409    
    426000   0.91554474     0.0023323615  -0.0030733224   20.657332      19.297749      1.3595839     -1.2248855      18824.453    
    427000   1.0089175      0.0023323615   0.0010814615   20.776286      19.278043      1.4982425     -1.2109373      18711.442    
    428000   0.9671745      0.0023323615  -0.0032192787   20.739501      19.303247      1.4362541     -1.1934383      18449.583    
    429000   0.95109626     0.0023323615   0.00088358779  20.566858      19.15448       1.412378      -1.4526532      18408.614    
    430000   1.0084152      0.0023323615   0.0044131484   20.654075      19.156579      1.4974966     -1.4424392      18121.162    
    431000   0.97199671     0.0023323615   0.0017853872   20.589511      19.146096      1.4434151     -1.3574907      18301.02     
    432000   0.90614956     0.0023323615   0.00034343219  20.383243      19.037611      1.3456321     -1.3605842      18133.346    
    433000   0.85717246     0.0023323615  -0.002673733    20.436566      19.163665      1.2729011     -1.3697487      18301.681    
    434000   0.87936194     0.0023323615   0.0010104953   20.559398      19.253546      1.3058525     -1.2174175      18623.685    
    435000   0.88352208     0.0023323615  -0.0034703662   20.518427      19.206397      1.3120303     -1.2994591      18575.992    
    436000   1.0067738      0.0023323615  -0.0021396218   20.896818      19.401758      1.4950591     -1.1035968      18324.435    
    437000   0.92862315     0.0023323615  -0.00013006372  20.482843      19.103837      1.3790054     -1.3858386      18272.96     
    438000   1.1564288      0.0023323615   0.00027260428  20.895871      19.178574      1.7172967     -1.3347187      18310.414    
    439000   1.0449504      0.0023323615   0.0016738915   20.783211      19.231459      1.5517513     -1.4105851      18282.232    
    440000   1.0532469      0.0023323615  -0.0043199329   20.498582      18.93451       1.5640716     -1.5525379      18258.5      
    441000   1.0310293      0.0023323615  -0.00028335731  20.687417      19.156338      1.5310785     -1.2355369      18266.085    
    442000   0.99566179     0.0023323615  -0.0040708312   20.705646      19.227088      1.4785578     -1.4214274      18162.171    
    443000   1.0636015      0.0023323615  -0.00013011451  20.770932      19.191483      1.5794483     -1.3474572      18229.066    
    444000   0.9883613      0.0023323615   0.0003733016   20.261493      18.793776      1.4677165     -1.6670082      18374.008    
    445000   0.95642383     0.0023323615  -0.0030337884   20.457271      19.036982      1.4202894     -1.4445043      18155.848    
    446000   0.98095432     0.0023323615  -0.0014472235   20.245711      18.788994      1.4567172     -1.601621       18124.08     
    447000   0.92901788     0.0023323615  -0.0013758271   20.351965      18.972373      1.3795916     -1.564915       18273.114    
    448000   0.93976457     0.0023323615  -0.0024147117   20.736774      19.341224      1.3955504     -1.1880808      18333.034    
    449000   0.92813502     0.0023323615  -0.0033313356   20.826617      19.448337      1.3782805     -1.151828       18533.635    
    450000   0.92172646     0.0023323615   0.0010071998   20.514214      19.14545       1.3687638     -1.3610859      18543.617    
    451000   0.97559655     0.0023323615   0.0034390784   20.69639       19.247629      1.4487609     -1.3498276      18552.878    
    452000   0.9179964      0.0023323615  -0.0016866336   20.462162      19.098937      1.3632247     -1.4110052      18510.503    
    453000   1.0235079      0.0023323615  -0.0018035445   20.688978      19.169069      1.5199093     -1.2945128      18555.628    
    454000   1.1871118      0.0023323615  -0.0023874748   20.723158      18.960297      1.762861      -1.4610575      18395.372    
    455000   0.81872997     0.0023323615   0.0027740109   20.740182      19.524368      1.215814      -1.0337993      18535.342    
    456000   0.91228841     0.0023323615   0.0051669644   20.736914      19.382166      1.3547483     -1.1000802      18678.146    
    457000   1.0109818      0.0023323615   0.00035208517  20.841418      19.34011       1.5013079     -1.1373908      18664.552    
    458000   1.0481096      0.0023323615   6.8729969e-05  20.624367      19.067924      1.5564427     -1.4975998      18567.471    
    459000   1.1451766      0.0023323615   0.0010679012   20.927058      19.226471      1.7005872     -1.3741647      18239.929    
    460000   0.98685052     0.0023323615   0.0016243515   20.580977      19.115504      1.465473      -1.3403766      18453.966    
    461000   0.90790649     0.0023323615  -0.00037089778  20.659509      19.311268      1.3482411     -1.2491537      18481.39     
    462000   0.91564561     0.0023323615   0.00084570483  20.664329      19.304595      1.3597337     -1.2115441      18311.872    
    463000   1.0667062      0.0023323615   5.0964563e-05  20.879377      19.295318      1.5840587     -1.1638863      18399.387    
    464000   0.88170413     0.0023323615  -0.00041160631  20.59164       19.28231       1.3093306     -1.1934273      18575.38     
    465000   1.0009476      0.0023323615  -0.0019377591   20.816463      19.330056      1.4864072     -1.1661877      18444.302    
    466000   0.99755469     0.0023323615   0.0016426633   20.835284      19.353915      1.4813687     -1.3130567      18360.806    
    467000   1.0925609      0.0023323615   0.0013957164   20.658487      19.036034      1.6224529     -1.5311356      18419.054    
    468000   0.96305312     0.0023323615   0.0042137126   20.537179      19.107045      1.4301339     -1.3329656      18320.967    
    469000   1.0641954      0.0023323615  -0.00053640718  20.986456      19.406126      1.5803302     -1.2629536      18389.208    
    470000   1.0666163      0.0023323615  -0.0013526632   20.786759      19.202834      1.5839251     -1.4014385      18500.594    
    471000   0.93956359     0.0023323615  -0.0026999497   20.597749      19.202497      1.3952519     -1.396276       18645.777    
    472000   0.83240754     0.0023323615  -0.0040762095   20.210706      18.974581      1.2361252     -1.4404254      18346.706    
    473000   1.0002661      0.0023323615   0.0073620554   20.577056      19.091661      1.4853951     -1.3923199      18318.708    
    474000   0.9743179      0.0023323615   0.0012511989   20.498663      19.051801      1.4468621     -1.5152381      18271.92     
    475000   1.0174943      0.0023323615   0.00020124668  20.658463      19.147484      1.5109791     -1.3479594      18397.289    
    476000   1.1105115      0.0023323615   0.00010931196  20.910603      19.261493      1.6491095     -1.2015034      18384.31     
    477000   0.91596879     0.0023323615  -0.0017725211   20.735409      19.375195      1.3602136     -1.2257536      18488.278    
    478000   0.84894531     0.0023323615   0.000687235    20.557948      19.297264      1.2606838     -1.2761805      18513.937    
    479000   1.1217392      0.0023323615  -0.0011211819   20.786369      19.120586      1.6657826     -1.4849682      18259.248    
    480000   0.97866004     0.0023323615   0.0032794976   20.31472       18.86141       1.4533102     -1.5998594      18429.913    
    481000   0.96768933     0.0023323615   0.002123511    20.661662      19.224644      1.4370187     -1.2857301      18499.919    
    482000   0.93946597     0.0023323615   0.0033929672   20.073109      18.678002      1.395107      -1.7915863      18293.5      
    483000   0.83202876     0.0023323615   0.00087737531  20.331016      19.095453      1.2355627     -1.4884087      18245.56     
    484000   0.96384295     0.0023323615  -0.0012691343   20.589842      19.158535      1.4313068     -1.3991264      18341.19     
    485000   1.0748281      0.0023323615   0.0030638514   21.015532      19.419412      1.5961197     -1.2066708      18368.831    
    486000   1.1214837      0.0023323615  -0.0005363135   20.795529      19.130125      1.6654033     -1.4154752      18532.799    
    487000   1.0692185      0.0023323615   0.0013360373   20.610461      19.022671      1.5877895     -1.5057648      18438.336    
    488000   1.0150913      0.0023323615  -0.0013392617   20.579589      19.072178      1.5074106     -1.4988139      18419.349    
    489000   0.92239307     0.0023323615  -0.0037347358   20.665555      19.295801      1.3697537     -1.3543165      18321.747    
    490000   1.0579603      0.0023323615   0.00055912676  20.789053      19.217982      1.5710711     -1.2921781      18382.143    
    491000   1.0708449      0.0023323615   0.0043796283   20.882159      19.291954      1.5902047     -1.168363       18745.677    
    492000   1.1224342      0.0023323615  -0.00067572147  21.03698       19.370165      1.6668148     -1.1900873      18614.39     
    493000   1.1703201      0.0023323615   0.00025686885  21.056479      19.318554      1.7379253     -1.288814       18559.571    
    494000   0.90587522     0.0023323615   0.0012726589   20.544194      19.19897       1.3452247     -1.2986764      18580.643    
    495000   0.87951594     0.0023323615  -0.0012860308   20.754827      19.448746      1.3060812     -1.187574       18665.935    
    496000   1.1737824      0.0023323615   0.00046168151  20.981392      19.238325      1.7430669     -1.2207912      18673.939    
    497000   1.025241       0.0023323615   0.00057668911  20.830185      19.307702      1.5224828     -1.2495199      18733.068    
    498000   1.0066622      0.0023323615   0.0016660122   20.797301      19.302408      1.4948934     -1.1651134      18565.803    
    499000   1.0030207      0.0023323615   0.00084354672  20.836845      19.347359      1.4894857     -1.1120031      18572.511    
    500000   0.96492851     0.0023323615  -0.00078166202  20.656958      19.224039      1.4329188     -1.326152       18482.674    
    501000   1.0741812      0.0023323615  -0.001665681    20.66191       19.066751      1.595159      -1.383358       18482.427    
    502000   0.96354332     0.0023323615  -0.0047185319   20.313822      18.88296       1.4308618     -1.5075154      18377.155    
    503000   0.96041925     0.0023323615  -0.00067623226  20.618935      19.192713      1.4262226     -1.3192406      18396.098    
    504000   1.0013442      0.0023323615  -0.00075910552  20.990731      19.503735      1.4869961     -1.1052008      18522.643    
    505000   0.98785141     0.0023323615   0.00013965371  20.72792       19.260961      1.4669593     -1.2815887      18554.644    
    506000   1.0593138      0.0023323615   0.0012285747   21.055357      19.482276      1.573081      -1.0702357      18526.473    
    507000   0.91478455     0.0023323615  -0.00092237265  20.579307      19.220852      1.3584551     -1.3230677      18528.244    
    508000   1.2029534      0.0023323615  -0.0027058287   21.120729      19.334343      1.7863857     -1.3381653      18435.785    
    509000   0.98181534     0.0023323615  -0.0034303836   20.699982      19.241986      1.4579958     -1.2356001      18490.158    
    510000   1.0838446      0.0023323615   0.0019321902   20.594241      18.984732      1.6095092     -1.437158       18454.171    
    511000   1.0276796      0.0023323615  -0.0029630359   20.711209      19.185105      1.5261042     -1.361773       18391.97     
    512000   1.022458       0.0023323615  -0.0015671236   20.890352      19.372002      1.5183501     -1.1672783      18395.352    
    513000   0.94012066     0.0023323615  -0.0014766435   20.707553      19.311473      1.3960792     -1.1737675      18493.111    
    514000   1.0269066      0.0023323615   0.00094526083  20.865269      19.340312      1.5249564     -1.1990183      18463.558    
    515000   0.88659396     0.0023323615   0.00078218564  20.593881      19.277289      1.316592      -1.077172       18662.521    
    516000   0.96378422     0.0023323615  -0.0028687943   20.747676      19.316456      1.4312196     -1.2677851      18610.444    
    517000   1.143262       0.0023323615   0.0019092004   21.028205      19.330461      1.6977441     -1.1942397      18524.753    
    518000   0.87441912     0.0023323615  -0.00086261064  20.848323      19.549811      1.2985124     -1.122044       18624.001    
    519000   0.91056225     0.0023323615   0.0017505507   20.242142      18.889957      1.3521849     -1.5662123      18475.356    
    520000   0.96374376     0.0023323615   0.0015866539   20.461464      19.030305      1.4311595     -1.4503492      18547.022    
    521000   1.2046453      0.0023323615   0.00056413027  20.928836      19.139938      1.7888983     -1.3233151      18456.87     
    522000   0.99427684     0.0023323615  -0.0018397034   20.696902      19.220401      1.4765011     -1.3859603      18526.476    
    523000   0.9925567      0.0023323615  -0.0013057985   20.638881      19.164934      1.4739467     -1.3158682      18560.158    
    524000   1.0694177      0.0023323615  -0.0026595554   20.528378      18.940292      1.5880853     -1.5691914      18440.901    
    525000   1.0357935      0.0023323615   0.0019828461   20.618393      19.08024       1.5381533     -1.4780669      18357.747    
    526000   0.83203342     0.0023323615   0.0016880075   20.331421      19.095852      1.2355696     -1.4031857      18491.7      
    527000   1.0981974      0.0023323615   0.0021978883   20.897379      19.266556      1.6308231     -1.3315528      18461.947    
    528000   1.1505367      0.0023323615  -0.0064168697   20.908016      19.199469      1.7085471     -1.2823183      18536.733    
    529000   0.88924746     0.0023323615   0.0018377483   20.520174      19.199642      1.3205325     -1.2764691      18541.743    
    530000   0.97485137     0.0023323615  -0.0032340139   20.864632      19.416978      1.4476543     -1.1339427      18704.384    
    531000   1.0479162      0.0023323615   0.001973038    20.892594      19.336438      1.5561555     -1.3370057      18637.508    
    532000   0.9533357      0.0023323615   0.00025502498  20.308525      18.892821      1.4157035     -1.6144109      18331.839    
    533000   1.0865648      0.0023323615   0.0048555122   20.677665      19.064116      1.6135487     -1.4856524      18514.716    
    534000   1.0072484      0.0023323615  -0.00085543369  20.72247       19.226706      1.4957639     -1.2902394      18831.19     
    535000   0.96771274     0.0023323615  -0.00047971456  20.618166      19.181112      1.4370534     -1.3399359      18381.517    
    536000   0.96501179     0.0023323615  -6.9460747e-05  20.618291      19.185248      1.4330425     -1.3648         18381.287    
    537000   0.89603475     0.0023323615  -0.0012075493   20.664071      19.333459      1.3306116     -1.2554979      18311.553    
    538000   1.0377585      0.0023323615   0.0023394006   20.585454      19.044383      1.5410714     -1.5695406      18254.41     
    539000   1.0002707      0.0023323615  -0.0027938579   20.622158      19.136756      1.485402      -1.4710744      18198.776    
    540000   1.0468935      0.0023323615   0.00040990703  20.663827      19.109191      1.5546368     -1.4449282      18295.089    
    541000   0.96652279     0.0023323615   0.00062756861  20.514927      19.079641      1.4352863     -1.2736016      18476.604    
    542000   1.01219        0.0023323615  -0.00099260773  20.661997      19.158895      1.5031021     -1.2861689      18504.089    
    543000   0.95819531     0.0023323615  -0.0016061136   20.412143      18.989223      1.42292       -1.5349013      18632.282    
    544000   1.0059154      0.0023323615  -0.0004000719   20.546082      19.052297      1.4937844     -1.4550286      18366.685    
    545000   1.2323934      0.0023323615   0.0015497556   20.842977      19.012873      1.8301041     -1.5259677      18310.475    
    546000   0.98536171     0.0023323615   0.00048386849  20.849121      19.385859      1.4632621     -1.1684399      18415.743    
    547000   0.87060663     0.0023323615   0.0040142263   20.695387      19.402536      1.2928508     -1.1634866      18851.47     
    548000   0.94108025     0.0023323615  -0.001185493    20.948235      19.550731      1.3975042     -0.96541096     19426.761    
    549000   1.0649113      0.0023323615  -0.0026763428   20.949071      19.367678      1.5813933     -1.111053       19075.975    
    550000   1.1674838      0.0023323615   0.0023712674   20.966894      19.23318       1.7337134     -1.2185613      18629.458    
    551000   1.0174259      0.0023323615   2.4723431e-05  20.677247      19.16637       1.5108775     -1.2619776      18573.216    
    552000   0.94158439     0.0023323615   0.00015639072  20.528962      19.130709      1.3982528     -1.3591921      18666.717    
    553000   0.99429623     0.0023323615  -0.0028657373   20.527656      19.051126      1.4765299     -1.4632033      18437.645    
    554000   1.0316124      0.0023323615   0.00028609974  20.779625      19.24768       1.5319445     -1.2564926      18613.751    
    555000   1.0544451      0.0023323615   0.0011831631   20.701491      19.13564       1.565851      -1.3076642      18641.883    
    556000   0.9909758      0.0023323615   0.0028671238   20.408409      18.936809      1.4715991     -1.4721597      18540.675    
    557000   0.95772184     0.0023323615  -0.0016117883   20.650242      19.228025      1.4222169     -1.2943064      18397.57     
    558000   1.0002175      0.0023323615   4.5930166e-05  20.689658      19.204335      1.4853229     -1.2839382      18447.704    
    559000   0.750734       0.0023323615  -0.0018969027   20.238384      19.123544      1.11484       -1.3831286      18397.129    
    560000   0.94726457     0.0023323615  -0.0012514209   20.483591      19.076903      1.4066879     -1.3261451      18601.759    
    561000   1.0605905      0.0023323615  -0.0014921803   20.620696      19.045719      1.5749769     -1.3857254      18503.808    
    562000   0.98727783     0.0023323615  -0.0018223682   21.089404      19.623296      1.4661076     -1.0246937      18703.518    
    563000   0.98379681     0.0023323615   0.0035561036   20.726086      19.265148      1.4609383     -1.2722344      18771.649    
    564000   1.0539286      0.0023323615   0.0031427043   20.890534      19.32545       1.565084      -1.2064555      18360.398    
    565000   0.97255185     0.0023323615  -0.0024541444   20.675492      19.231252      1.4442395     -1.293336       18671.483    
    566000   0.99118029     0.0023323615   0.0018422651   20.503347      19.031444      1.4719027     -1.4018927      19578.811    
    567000   0.99873416     0.0023323615  -0.0040514837   20.63426       19.15114       1.4831202     -1.2940814      18765.484    
    568000   0.89877455     0.0023323615  -0.00066145865  20.531079      19.196399      1.3346802     -1.4662036      18334.419    
    569000   0.98503045     0.0023323615   0.0012691664   20.400977      18.938207      1.4627702     -1.4597461      18443.402    
    570000   1.2371077      0.0023323615  -0.00092942805  21.214448      19.377343      1.837105      -1.0973144      18538.116    
    571000   1.0392829      0.0023323615  -0.0010243015   20.729068      19.185733      1.5433351     -1.2350343      18645.167    
    572000   0.94144369     0.0023323615   0.00065196798  20.899883      19.501839      1.3980439     -1.0629156      18406.116    
    573000   0.99130803     0.0023323615  -0.0023457441   20.428463      18.956371      1.4720924     -1.4739545      18355.782    
    574000   0.8656482      0.0023323615   0.00088336308  20.902763      19.617275      1.2854876     -0.96855815     18493.204    
    575000   0.91912591     0.0023323615  -0.00083999593  20.713641      19.348739      1.364902      -1.1164127      18775.004    
    576000   0.97569846     0.0023323615  -0.0014970452   20.686432      19.23752       1.4489122     -1.3453166      18625.801    
    577000   1.1350058      0.0023323615  -0.0025918823   20.688408      19.002925      1.6854836     -1.5423426      18448.372    
    578000   0.92317066     0.0023323615  -0.0017451668   20.114555      18.743647      1.3709084     -1.7664732      18328.069    
    579000   1.0452851      0.0023323615   0.00055615659  20.810683      19.258435      1.5522483     -1.2385386      18528.261    
    580000   1.1862675      0.0023323615   0.0014556165   21.024461      19.262853      1.7616072     -1.2052222      18724.756    
    581000   1.0184115      0.0023323615   0.00013501399  20.486646      18.974304      1.5123411     -1.4359033      18429.797    
    582000   1.1028729      0.0023323615   0.0028474301   20.987224      19.349457      1.6377662     -1.2530468      18505.139    
    583000   1.0802939      0.0023323615   0.0056426327   20.875238      19.271002      1.6042364     -1.2997405      18488.004    
    584000   0.91883446     0.0023323615  -0.0002200013   20.748327      19.383858      1.3644692     -1.1285725      18480.727    
    585000   0.93405782     0.0023323615   0.00057439827  20.333782      18.946706      1.3870759     -1.5101858      18280.222    
    586000   1.0384447      0.0023323615   0.0015049487   20.739131      19.197041      1.5420904     -1.3833438      18295.659    
    587000   0.87899399     0.0023323615   0.0011723238   20.553197      19.247891      1.3053061     -1.3050772      18358.669    
    588000   1.072934       0.0023323615   0.00031317947  20.816945      19.223638      1.593307      -1.2037147      18591.386    
    589000   1.0786008      0.0023323615  -0.001274892    20.939151      19.337429      1.6017222     -1.2398041      18891.239    
    590000   0.96142726     0.0023323615   0.0019936254   20.598255      19.170536      1.4277195     -1.2934161      18420.807    
    591000   0.97218672     0.0023323615  -0.0020146969   20.529321      19.085624      1.4436973     -1.485719       18416.838    
    592000   1.0680061      0.0023323615   0.00012367374  21.145179      19.559189      1.5859891     -0.93494164     18584.622    
    593000   1.0513115      0.0023323615  -0.003022416    20.806286      19.245089      1.5611976     -1.2697081      18679.862    
    594000   0.92819915     0.0023323615   2.3177064e-05  20.874398      19.496023      1.3783757     -1.0032078      18803.597    
    595000   1.0080456      0.0023323615  -0.00048044856  20.759757      19.262809      1.4969477     -1.2139653      18650.672    
    596000   0.97847347     0.0023323615  -0.001459778    20.944967      19.491934      1.4530331     -1.2205968      18753.57     
    597000   1.2084593      0.0023323615  -0.00018573724  20.905887      19.111325      1.794562      -1.3485575      18855.451    
    598000   1.1134414      0.0023323615  -0.00030836275  20.79339       19.13993       1.6534605     -1.3935778      18751.09     
    599000   0.97921035     0.0023323615  -0.0011191731   20.794008      19.33988       1.4541274     -1.3325336      18674.879    
    600000   1.1248019      0.0023323615  -0.0031043942   20.920681      19.250351      1.6703308     -1.3184848      18650.585    
    601000   1.1517677      0.0023323615   0.0013752998   20.828434      19.118059      1.710375      -1.4203632      18485.59     
    602000   0.94836005     0.0023323615   0.0018772691   20.536544      19.12823       1.4083147     -1.4577276      18302.513    
    603000   0.84937408     0.0023323615  -0.0006755328   20.350257      19.088936      1.2613205     -1.4256189      18441.303    
    604000   0.89680682     0.0023323615   0.0011444535   20.619478      19.28772       1.3317581     -1.2149271      18676.035    
    605000   1.1089034      0.0023323615   0.0013154474   20.875388      19.228666      1.6467215     -1.2507579      18678.038    
    606000   1.1507545      0.0023323615   0.0048550857   20.817109      19.108239      1.7088704     -1.3537642      18341.807    
    607000   0.92982879     0.0023323615  -0.006773948    20.602711      19.221915      1.3807957     -1.4389148      18239.245    
    608000   0.99174323     0.0023323615   0.0040924566   20.335465      18.862726      1.4727387     -1.6521097      18098.329    
    609000   0.98011355     0.0023323615   0.0016252042   20.297135      18.841666      1.4554686     -1.5703893      18184.808    
    610000   0.94464355     0.0023323615  -0.00020624264  20.713519      19.310724      1.4027957     -1.2592224      18289.923    
    611000   1.2156885      0.0023323615  -0.000229441    20.93719       19.131893      1.8052974     -1.4139721      18356.089    
    612000   1.0567998      0.0023323615   0.0024005795   20.712008      19.14266       1.5693478     -1.3153065      18491.042    
    613000   0.96336674     0.0023323615  -0.0011659326   20.956861      19.526261      1.4305996     -1.0557907      18489.323    
    614000   1.2083103      0.0023323615   0.00056129778  20.969657      19.175316      1.7943407     -1.2639881      18576.272    
    615000   0.97103712     0.0023323615  -0.0039889526   20.822823      19.380832      1.4419901     -1.1982423      18520.354    
    616000   0.94282856     0.0023323615   0.0010803916   20.970741      19.57064       1.4001004     -0.99633874     18746.85     
    617000   1.0788718      0.0023323615   0.0027672821   20.990006      19.387882      1.6021246     -1.0821176      18924.524    
    618000   1.0105139      0.0023323615  -0.0029289321   20.982707      19.482094      1.5006131     -1.0696325      18848.928    
    619000   1.0039845      0.0023323615   0.00034991604  20.845128      19.354211      1.490917      -1.1194167      18966.404    
    620000   0.98996089     0.0023323615   0.0034755076   20.85967       19.389578      1.4700919     -1.2460374      18473.281    
    621000   0.92047904     0.0023323615  -0.00094713882  20.797883      19.430972      1.3669114     -1.0600207      18502.22     
    622000   1.1595327      0.0023323615   0.0090125037   21.28614       19.564234      1.721906      -1.0757104      18478.274    
    623000   1.0731527      0.0023323615  -0.00014538534  21.123187      19.529556      1.5936317     -0.99257893     18750.594    
    624000   1.0677326      0.0023323615   0.0053521254   20.913007      19.327424      1.585583      -1.1964509      18428.838    
    625000   1.0368022      0.0023323615   0.0038189858   20.695007      19.155355      1.5396513     -1.3480666      18472.313    
    626000   1.0507383      0.0023323615  -0.00097243775  20.913835      19.353489      1.5603464     -1.2598732      18356.18     
    627000   0.99718336     0.0023323615  -0.001062114    20.798048      19.317231      1.4808173     -1.2289682      18517.395    
    628000   0.9996604      0.0023323615   0.0010235182   20.879947      19.395452      1.4844957     -1.2831357      18335.726    
    629000   1.0910684      0.0023323615   0.00032167124  20.536555      18.916319      1.6202366     -1.6356589      18542.239    
    630000   1.0436423      0.0023323615   0.00012449834  20.711849      19.16204       1.5498088     -1.3745379      18487.292    
    631000   0.97485813     0.0023323615   0.0011309325   20.995627      19.547962      1.4476643     -0.96984245     18628.923    
    632000   0.97841481     0.0023323615  -0.0056325725   20.638137      19.185191      1.452946      -1.4191339      18521.154    
    633000   1.066721       0.0023323615  -0.0011993011   20.865493      19.281412      1.5840807     -1.2039493      18568.386    
    634000   1.0739349      0.0023323615   0.0026623979   20.762321      19.167528      1.5947934     -1.4134384      18552.034    
    635000   0.95191995     0.0023323615  -0.0033124032   20.610005      19.196404      1.4136011     -1.4595445      18480.942    
    636000   0.9504128      0.0023323615  -0.0002156999   20.508846      19.097483      1.411363      -1.4461087      18336.308    
    637000   0.90098542     0.0023323615   0.0027800466   20.380232      19.042269      1.3379634     -1.4313644      18349.458    
    638000   1.0248252      0.0023323615   0.0029508865   20.463422      18.941556      1.5218654     -1.5606412      18337.302    
    639000   0.92984324     0.0023323615   0.0033074502   20.648764      19.267947      1.3808172     -1.2658602      18382.217    
    640000   0.82981064     0.0023323615   0.0028224955   20.484708      19.252439      1.2322688     -1.4102005      18459.055    
    641000   1.0701934      0.0023323615   0.004116718    20.686898      19.09766       1.5892372     -1.4257165      18471.099    
    642000   1.1171862      0.0023323615  -0.0036165611   20.91903       19.260008      1.6590215     -1.3016893      18543.024    
    643000   1.0087412      0.0023323615  -0.0021035167   20.688912      19.190931      1.4979807     -1.3231902      18503.942    
    644000   0.96828121     0.0023323615   0.00037285696  20.647969      19.210072      1.4378976     -1.1804654      18539.101    
    645000   0.94057957     0.0023323615  -0.00079487857  20.769553      19.372792      1.3967607     -1.1686979      18549.079    
    646000   1.1180395      0.0023323615  -0.0017140023   20.849087      19.188798      1.6602887     -1.3205409      18404.266    
    647000   0.97812016     0.0023323615  -0.0024799032   20.603359      19.150851      1.4525084     -1.3893002      18491.09     
    648000   0.97184378     0.0023323615   0.0014398772   20.657194      19.214006      1.443188      -1.266111       18552.309    
    649000   1.0212646      0.0023323615  -0.0014792613   20.453718      18.93714       1.516578      -1.5823397      18645.453    
    650000   0.812405       0.0023323615   0.0047843777   20.319219      19.112798      1.2064214     -1.4686043      18391.566    
    651000   0.992243       0.0023323615   0.0015002166   20.401187      18.927706      1.4734809     -1.6259727      18296.629    
    652000   1.0632378      0.0023323615   0.0015135612   20.546207      18.967298      1.5789081     -1.4157495      18439.497    
    653000   0.94177592     0.0023323615   0.00064715725  20.733911      19.335374      1.3985372     -1.3498319      19611.587    
    654000   0.93032433     0.0023323615   0.00020670641  20.58178       19.200249      1.3815316     -1.3197887      19803.762    
    655000   1.019874       0.0023323615  -0.0016427308   20.923395      19.408883      1.5145129     -1.2853299      19791.306    
    656000   0.95089374     0.0023323615   0.00072034399  20.702613      19.290536      1.4120772     -1.2119996      20042.152    
    657000   1.0842345      0.0023323615   0.0039727571   20.776858      19.16677       1.6100883     -1.4220697      19900.654    
    658000   1.0256016      0.0023323615   0.00050627691  20.597836      19.074817      1.5230183     -1.3981975      20130.973    
    659000   1.1197432      0.0023323615  -0.0060110561   20.924866      19.262048      1.6628186     -1.2774035      20035.558    
    660000   1.2562885      0.0023323615   0.0033918036   20.868751      19.003162      1.8655884     -1.4958207      20122.13     
    661000   0.86724486     0.0023323615  -0.00029474691  20.845419      19.557561      1.2878586     -1.0666408      20187.45     
    662000   1.0832811      0.0023323615  -0.0013204949   20.881859      19.273187      1.6086725     -1.186727       20154.301    
    663000   1.1265333      0.0023323615   0.00018839949  20.709941      19.037039      1.6729019     -1.5100437      20207.276    
    664000   0.90810256     0.0023323615   0.0010173822   20.285855      18.937323      1.3485323     -1.4900078      19910.833    
    665000   1.0404636      0.0023323615   0.0014437046   20.684503      19.139415      1.5450884     -1.3281361      20112.342    
    666000   0.95250551     0.0023323615   0.00066457847  20.392224      18.977753      1.4144707     -1.5813551      19841.097    
    667000   0.89956787     0.0023323615  -0.0016237641   20.577686      19.241827      1.3358583     -1.304645       20177.301    
    668000   0.99831718     0.0023323615   0.00058085725  20.708286      19.225785      1.482501      -1.2361747      19942.439    
    669000   0.98824917     0.0023323615  -0.00077852112  20.793973      19.326423      1.46755       -1.0995544      20195.48     
    670000   1.0353009      0.0023323615   0.00011502233  20.614394      19.076972      1.5374218     -1.5442101      20215.244    
    671000   0.97170373     0.0023323615  -0.00037433337  20.685708      19.242728      1.44298       -1.2517219      20135.68     
    672000   1.0011462      0.0023323615  -0.00053540659  20.643809      19.157107      1.4867021     -1.3353171      19864.146    
    673000   0.93009171     0.0023323615  -0.002766043    20.678624      19.297438      1.3811862     -1.2822894      19620.642    
    674000   1.0160495      0.0023323615  -0.00084546757  20.885473      19.37664       1.5088335     -1.2053461      19912.842    
    675000   0.99094671     0.0023323615   0.00037749184  20.633247      19.161691      1.4715559     -1.2573511      19837.765    
    676000   1.038095       0.0023323615   0.0019490814   20.669607      19.128036      1.5415711     -1.2669185      19990.7      
    677000   1.0821856      0.0023323615   0.0007450782   21.138491      19.531446      1.6070457     -0.98330805     20126.049    
    678000   0.97973491     0.0023323615   0.0015415847   20.648523      19.193617      1.4549063     -1.2280755      20147.516    
    679000   1.1127632      0.0023323615   0.0049919576   20.395904      18.743451      1.6524534     -1.6634956      20072.236    
    680000   1.1319581      0.0023323615   0.00081891191  20.882331      19.201373      1.6809578     -1.3193136      19999.464    
    681000   0.94711089     0.0023323615   0.0012568885   20.662862      19.256402      1.4064597     -1.2362054      20061.916    
    682000   1.0484192      0.0023323615   0.0025044711   20.674061      19.117158      1.5569025     -1.2933436      20028.358    
    683000   0.99852445     0.0023323615  -0.00182115     20.626083      19.143274      1.4828088     -1.3820949      20074.67     
    684000   1.0134229      0.0023323615   0.0010355861   20.771202      19.266269      1.5049331     -1.2697985      19883.607    
    685000   0.95766432     0.0023323615  -0.001456048    20.216012      18.793881      1.4221315     -1.6509057      19907.965    
    686000   0.84846409     0.0023323615  -0.0010666616   20.232833      18.972864      1.2599692     -1.4665731      19732.955    
    687000   0.87562783     0.0023323615  -1.5186404e-06  20.465248      19.164941      1.3003073     -1.3351109      19830.536    
    688000   1.1209882      0.0023323615   0.0042169877   20.667953      19.003285      1.6646675     -1.380262       19927.934    
    689000   1.0551448      0.0023323615   0.0023010738   21.020583      19.453693      1.56689       -1.167127       20013.868    
    690000   1.074106       0.0023323615  -0.0023048531   20.996821      19.401774      1.5950474     -1.2118544      19990.924    
    691000   1.046669       0.0023323615  -0.0011653438   20.845675      19.291372      1.5543035     -1.2145276      20385.021    
    692000   1.0365267      0.0023323615   0.0033969957   20.93834       19.399098      1.5392422     -1.2854535      20356.763    
    693000   1.1004732      0.0023323615   0.0028350575   20.99388       19.359677      1.6342027     -1.2236331      20353.67     
    694000   1.0555651      0.0023323615  -0.00069233399  20.791484      19.22397       1.5675141     -1.3480213      20888.269    
    695000   1.0494708      0.0023323615  -0.00052983692  21.025369      19.466905      1.5584641     -1.0821119      20468.528    
    696000   0.92511696     0.0023323615   0.00090291267  20.386789      19.012991      1.3737987     -1.4698154      19920.226    
    697000   1.08678        0.0023323615  -0.0024457639   20.979586      19.365718      1.6138684     -1.2008322      19908.013    
    698000   1.0944525      0.0023323615   0.0018910647   20.917385      19.292123      1.6252619     -1.2634402      19923.666    
    699000   1.0098234      0.0023323615   0.0020734612   20.78779       19.288203      1.4995877     -1.2694146      20078.288    
    700000   0.90284968     0.0023323615  -0.00091393151  20.586131      19.245399      1.3407318     -1.2579634      20089.851    
    701000   1.0179934      0.0023323615   0.0009430225   20.833406      19.321686      1.5117203     -1.2512393      20087.477    
    702000   1.0460759      0.0023323615   0.0016747103   20.983811      19.430388      1.5534227     -1.1783055      19898.983    
    703000   1.1131423      0.0023323615   0.0034936816   20.791284      19.138268      1.6530163     -1.3279465      19992.742    
    704000   1.0011769      0.0023323615   0.0017706123   20.661928      19.175181      1.4867476     -1.344336       19820.054    
    705000   1.0098181      0.0023323615  -0.00037381865  20.642759      19.14318       1.4995799     -1.2681843      19708.256    
    706000   1.0781403      0.0023323615   0.0019339085   20.887453      19.286415      1.6010383     -1.3371844      20067.752    
    707000   0.93428375     0.0023323615  -0.0037974028   20.362114      18.974703      1.3874114     -1.4432008      20030.179    
    708000   1.0041975      0.0023323615   0.0023048843   20.933584      19.442351      1.4912332     -1.0409002      20165.006    
    709000   1.0081498      0.0023323615   0.0039374851   20.776041      19.278938      1.4971025     -1.2549702      20191.848    
    710000   1.0384485      0.0023323615  -0.0019959062   20.693049      19.150953      1.5420961     -1.3868576      20095.371    
    711000   0.95220659     0.0023323615  -0.00066889908  20.640648      19.226621      1.4140268     -1.2387431      20030.299    
    712000   0.94135765     0.0023323615   0.00095103114  20.293991      18.896074      1.3979161     -1.571851       19980.656    
    713000   1.1811525      0.0023323615   0.0043320557   21.020979      19.266968      1.7540114     -1.2723382      19899.9      
    714000   0.92676737     0.0023323615  -0.0054666323   20.669051      19.292801      1.3762495     -1.2032957      20023.247    
    715000   1.0498877      0.0023323615  -0.0012120666   20.611577      19.052494      1.5590832     -1.3698655      20027.325    
    716000   0.93392935     0.0023323615   0.0016538645   20.692804      19.305919      1.3868851     -1.3367333      20068.696    
    717000   1.0177937      0.0023323615   0.0022065138   20.437189      18.925766      1.5114236     -1.5025243      19881.333    
    718000   0.98536852     0.0023323615   0.0040970297   20.455677      18.992405      1.4632723     -1.3915979      19920.035    
    719000   1.0631689      0.0023323615   0.00071902793  20.758361      19.179555      1.5788059     -1.1512072      20138.727    
    720000   1.0710449      0.0023323615   0.0018480903   20.66772       19.077218      1.5905017     -1.3854868      20205.525    
    721000   1.0647746      0.0023323615  -0.001631948    20.579886      18.998696      1.5811902     -1.4666383      19978.444    
    722000   1.1306731      0.0023323615   0.0016223461   20.847034      19.167985      1.6790495     -1.3663803      19893.201    
    723000   1.0529082      0.0023323615  -0.0012435865   20.688333      19.124764      1.5635687     -1.3509277      19703.607    
    724000   1.1155571      0.0023323615  -0.0039795765   20.979835      19.323232      1.6566023     -1.2177619      20100.835    
    725000   1.0618112      0.0023323615   0.0012192704   20.645596      19.068806      1.5767897     -1.4969548      19882.201    
    726000   1.1481052      0.0023323615   0.0035437982   20.750014      19.045077      1.7049363     -1.4628735      20016.887    
    727000   1.0746941      0.0023323615   0.0011729193   20.678859      19.082938      1.5959207     -1.4351158      20048.026    
    728000   0.98478046     0.0023323615  -0.0049440505   20.565111      19.102712      1.462399      -1.369149       19852.885    
    729000   0.95361571     0.0023323615   0.0028331259   20.311291      18.895172      1.4161193     -1.5281176      19985.268    
    730000   1.1000045      0.0023323615  -0.0002527505   20.942933      19.309426      1.6335067     -1.2923239      20250.261    
    731000   0.99361767     0.0023323615  -0.0016524012   20.461252      18.985729      1.4755222     -1.5387674      20142.819    
    732000   0.99037405     0.0023323615  -0.0014232833   20.550376      19.079671      1.4707055     -1.4338304      19962.988    
    733000   0.99609985     0.0023323615  -0.0017302671   20.928258      19.44905       1.4792083     -1.1244753      20042.659    
    734000   1.2162223      0.0023323615   4.5997443e-05  21.075389      19.269299      1.8060901     -1.2906289      20070.936    
    735000   1.0289895      0.0023323615  -7.9222335e-05  20.569138      19.041088      1.5280495     -1.4478012      20001.187    
    736000   1.0067954      0.0023323615  -0.0026806363   20.585208      19.090117      1.4950911     -1.4468955      19851.969    
    737000   0.93925842     0.0023323615   0.0012089624   20.651897      19.257098      1.3947988     -1.3128858      19842.43     
    738000   1.037651       0.0023323615   0.0008595927   20.641186      19.100274      1.5409117     -1.3303468      19947.891    
    739000   0.94890096     0.0023323615  -0.0053565647   20.310704      18.901586      1.4091179     -1.5888627      19929.868    
    740000   1.0115392      0.0023323615   0.0029536996   20.952959      19.450823      1.5021358     -1.203331       20029.27     
    741000   1.0621459      0.0023323615   0.0031781772   20.713094      19.135807      1.5772866     -1.3479075      20054.285    
    742000   0.93914245     0.0023323615  -0.00087208092  20.663131      19.268504      1.3946265     -1.2718039      20264.639    
    743000   0.86631836     0.0023323615   0.0012662297   20.463652      19.177169      1.2864828     -1.451207       19950.116    
    744000   0.94708363     0.0023323615  -0.00022032878  20.318735      18.912316      1.4064192     -1.5312215      19890.105    
    745000   1.1043198      0.0023323615   0.0040900165   20.847401      19.207486      1.6399149     -1.3459575      19878.047    
    746000   0.98951938     0.0023323615   0.0024551095   20.536779      19.067343      1.4694363     -1.4053207      19911.627    
    747000   0.94984704     0.0023323615  -0.0042047439   20.693208      19.282685      1.4105228     -1.2242258      19927.221    
    748000   1.0808476      0.0023323615  -0.00036960035  20.71956       19.114501      1.6050587     -1.2712094      20021.388    
    749000   0.90535203     0.0023323615  -0.0026727924   20.727462      19.383014      1.3444478     -1.17738        20467.004    
    750000   0.84125357     0.0023323615  -0.00080951617  20.818711      19.569449      1.2492615     -1.1049235      20681.639    
    751000   1.0307254      0.0023323615  -0.0019059017   20.778467      19.24784       1.5306271     -1.2467678      20214.867    
    752000   1.1389861      0.0023323615   0.001776642    20.885546      19.194152      1.6913944     -1.2263922      20068.454    
    753000   1.0670611      0.0023323615  -0.001037655    20.987326      19.40274       1.5845858     -1.2222258      19778.58     
    754000   1.0637272      0.0023323615  -0.00029180198  20.785421      19.205786      1.5796349     -1.2188818      19887.14     
    755000   1.08271        0.0023323615   0.0011150279   20.62801       19.020185      1.6078243     -1.3699351      19989.595    
    756000   0.8931969      0.0023323615  -0.0021174954   20.582574      19.256177      1.3263974     -1.1849195      19858.174    
    757000   0.8760888      0.0023323615   0.0012071289   20.435353      19.134362      1.3009919     -1.3161084      19919.487    
    758000   1.0891006      0.0023323615  -0.0041119434   20.921339      19.304025      1.6173143     -1.1810566      20410.115    
    759000   0.99618282     0.0023323615   0.0024047461   20.771238      19.291907      1.4793315     -1.126662       22869.09     
    760000   1.0319465      0.0023323615   0.0011640756   21.087198      19.554757      1.5324406     -1.0131599      26313.984    
    761000   0.94461901     0.0023323615  -0.0012344457   20.915815      19.513055      1.4027592     -1.0894271      26112.716    
    762000   1.0321415      0.0023323615  -0.0020774099   20.644831      19.112101      1.5327301     -1.3577736      22521.625    
    763000   1.0416391      0.0023323615  -0.0006338042   20.793142      19.246307      1.546834      -1.1743924      20111.183    
    764000   1.0283112      0.0023323615   0.0033145959   21.067299      19.540257      1.5270421     -1.0514435      20487.762    
    765000   1.0894515      0.0023323615  -0.0013543711   20.957724      19.339888      1.6178355     -1.0807532      21438.49     
    766000   0.9531939      0.0023323615   0.0026966807   21.013619      19.598126      1.4154929     -0.98322904     20632.33     
    767000   0.93900628     0.0023323615  -0.0013989676   20.790485      19.39606       1.3944243     -1.0429689      19610.188    
    768000   0.97795256     0.0023323615   0.00020566938  20.842579      19.390319      1.4522596     -1.124085       19319.565    
    769000   1.0581207      0.0023323615  -0.0012750378   21.078236      19.506926      1.5713093     -0.97896532     18770.036    
    770000   1.1331844      0.0023323615  -0.001249928    20.981407      19.298629      1.6827789     -1.1228114      19536.014    
    771000   1.0224446      0.0023323615   0.0031479371   20.758329      19.239998      1.5183302     -1.2598109      20159.353    
    772000   1.0551438      0.0023323615   0.00058241137  20.90431       19.337421      1.5668885     -1.1625714      20035.832    
    773000   0.95247914     0.0023323615  -0.0012248944   20.859809      19.445377      1.4144315     -1.117811       20342.76     
    774000   1.115677       0.0023323615  -0.0017970102   21.088043      19.431262      1.6567804     -1.0895942      20363.881    
    775000   1.011069       0.0023323615  -0.0019431921   20.806455      19.305018      1.5014374     -1.1780716      20230.236    
    776000   0.93730658     0.0023323615  -0.00013411352  20.58495       19.19305       1.3919003     -1.42721        20231.54     
    777000   1.0975809      0.0023323615  -0.0019096793   20.680229      19.050321      1.6299077     -1.5199162      20094.999    
    778000   0.9227474      0.0023323615   0.0007781905   20.624571      19.254291      1.3702799     -1.2794769      20071.913    
    779000   0.92006681     0.0023323615  -0.00060456015  20.823917      19.457618      1.3662992     -1.1074387      20093.571    
    780000   0.87488346     0.0023323615   0.0033045389   20.577869      19.278667      1.2992019     -1.1587466      20198.848    
    781000   0.92926982     0.0023323615   0.0006092075   20.885148      19.505182      1.3799657     -1.1036587      20349.139    
    782000   0.94771167     0.0023323615  -0.0015737559   20.799937      19.392585      1.4073518     -1.1223206      20506.986    
    783000   0.96159595     0.0023323615   0.0011029226   20.572249      19.144279      1.42797       -1.3322528      20216.251    
    784000   1.113744       0.0023323615  -0.0026856215   20.615897      18.961987      1.6539099     -1.5258749      19832.03     
    785000   1.0789323      0.0023323615  -0.0012432736   21.044754      19.44254       1.6022144     -1.1666102      20098.896    
    786000   0.98332404     0.0023323615  -0.0015623491   20.512681      19.052445      1.4602362     -1.3113119      20247.489    
    787000   0.91314631     0.0023323615  -0.0016188299   20.655363      19.299341      1.3560223     -1.1662865      20251.432    
    788000   0.96146569     0.0023323615  -0.0043554559   20.515245      19.087468      1.4277765     -1.4116088      20187.899    
    789000   0.95911338     0.0023323615   0.00124006     20.98375       19.559466      1.4242834     -1.0257592      20070.536    
    790000   1.1901765      0.0023323615   0.0011969514   21.159676      19.392264      1.7674121     -1.0837381      20200.736    
    791000   0.94368826     0.0023323615   0.0022896002   20.597725      19.196348      1.4013771     -1.2474029      20271.277    
    792000   0.99177206     0.0023323615   0.00011299952  20.634837      19.162055      1.4727815     -1.2530014      20087.178    
    793000   0.9705754      0.0023323615   0.0032591878   20.880184      19.438879      1.4413045     -1.0838768      20088.269    
    794000   1.0614797      0.0023323615  -0.0018322722   20.622982      19.046685      1.5762974     -1.4138144      20053.359    
    795000   0.90983032     0.0023323615  -0.0022641905   20.366726      19.015628      1.351098      -1.4445878      19950.391    
    796000   0.85079335     0.0023323615  -0.0012244313   20.547294      19.283866      1.2634281     -1.1421517      20011.87     
    797000   1.0481164      0.0023323615  -0.0013645218   21.137141      19.580689      1.5564528     -1.0181297      20159.728    
    798000   1.05291        0.0023323615  -0.0025711108   20.984371      19.4208        1.5635713     -1.0828579      20630.828    
    799000   0.9526999      0.0023323615  -0.003695359    20.999651      19.584892      1.4147594     -0.96491099     20751.632    
    800000   1.0991386      0.0023323615   0.0047828252   20.977207      19.344986      1.6322208     -1.2445173      20329.062    
    801000   0.98617431     0.0023323615  -0.00045784928  20.652499      19.18803       1.4644688     -1.3623177      20299.088    
    802000   1.0924072      0.0023323615   0.0033739316   20.831596      19.209372      1.6222247     -1.2696508      20023.754    
    803000   0.95633322     0.0023323615   0.0017561573   20.354047      18.933892      1.4201548     -1.442224       19855.705    
    804000   1.0884017      0.0023323615   0.0052045241   20.923677      19.307401      1.6162765     -1.2002491      20099.641    
    805000   1.0226273      0.0023323615   0.002335978    20.849308      19.330707      1.5186015     -1.2335427      20139.576    
    806000   1.0493815      0.0023323615   0.00038745544  20.755431      19.197099      1.5583316     -1.2839638      20010.105    
    807000   0.93475358     0.0023323615  -0.0019955336   20.671123      19.283014      1.3881091     -1.4048795      20112.301    
    808000   0.97756731     0.0023323615   5.2952565e-05  20.546525      19.094838      1.4516875     -1.3862194      19927.683    
    809000   0.9770745      0.0023323615  -0.0038026712   20.818568      19.367612      1.4509556     -1.0922783      20175.155    
    810000   1.1065052      0.0023323615  -0.002218257    20.956952      19.313792      1.6431602     -1.2042749      20256.454    
    811000   1.0327078      0.0023323615  -0.00096526765  20.642265      19.108694      1.5335711     -1.4438107      20163.771    
    812000   0.99836015     0.0023323615   0.0034335233   20.709574      19.227009      1.4825648     -1.3738475      20019.42     
    813000   0.94547808     0.0023323615   0.0023965147   20.779906      19.375871      1.4040349     -1.1612227      20201.685    
    814000   0.95640176     0.0023323615  -0.0015696971   20.722778      19.302521      1.4202566     -1.2924409      20227.924    
    815000   1.143651       0.0023323615  -0.002816202    20.917982      19.21966       1.6983217     -1.3075413      20298.708    
    816000   1.0394033      0.0023323615   0.0012998025   20.908979      19.365465      1.5435139     -1.1984891      20140.681    
    817000   1.0217439      0.0023323615   0.0023732498   20.694288      19.176999      1.5172896     -1.4256895      19937.742    
    818000   0.934749       0.0023323615  -0.00071945136  20.579872      19.19177       1.3881023     -1.3386074      20008.97     
    819000   0.87972039     0.0023323615   0.001677397    20.698197      19.391812      1.3063848     -1.2180096      20103.645    
    820000   1.0153391      0.0023323615  -2.1227858e-05  20.793335      19.285556      1.5077785     -1.3671541      20024.625    
    821000   0.97578794     0.0023323615  -0.0012345479   20.734189      19.285144      1.4490451     -1.1719255      20049.818    
    822000   0.87815284     0.0023323615  -0.0036417642   20.55483       19.250773      1.304057      -1.1653551      20142.836    
    823000   1.0872995      0.0023323615   0.0016893016   20.982045      19.367405      1.6146398     -1.222063       20036.89     
    824000   1.0515626      0.0023323615  -0.0018359183   20.73995       19.178379      1.5615705     -1.3435287      20039.481    
    825000   1.0651631      0.0023323615   0.0006628955   20.759639      19.177871      1.5817672     -1.3734605      20018.481    
    826000   0.96227169     0.0023323615  -0.0029683414   20.541297      19.112324      1.4289735     -1.4664426      19843.945    
    827000   0.97446782     0.0023323615   0.0018591255   20.50464       19.057555      1.4470847     -1.4032862      19980.723    
    828000   1.0023046      0.0023323615   0.0010871692   20.582898      19.094475      1.4884224     -1.4340171      19982.584    
    829000   0.93680636     0.0023323615   0.0011530855   20.351702      18.960544      1.3911575     -1.4390726      19570.619    
    830000   1.0757821      0.0023323615  -0.0026300938   20.60874       19.011204      1.5975363     -1.4676518      18465.885    
    831000   0.99182732     0.0023323615  -0.0032759643   20.853751      19.380888      1.4728636     -1.2128563      18441.208    
    832000   1.0868783      0.0023323615   0.0018909312   20.649469      19.035454      1.6140143     -1.4013749      18511.581    
    833000   0.93385346     0.0023323615   0.0023449609   20.602185      19.215412      1.3867724     -1.3452077      18556.234    
    834000   0.9722546      0.0023323615   0.0010938411   20.787819      19.344021      1.4437981     -1.1618608      18520.917    
    835000   0.92396609     0.0023323615   0.0016455446   20.775446      19.403356      1.3720896     -1.1724887      18558.56     
    836000   0.87280545     0.0023323615   0.0026575938   20.602901      19.306785      1.2961161     -1.2055474      18357.483    
    837000   0.99738257     0.0023323615   0.0010807337   20.702096      19.220982      1.4811131     -1.2485115      18450.043    
    838000   1.0633049      0.0023323615  -0.0039028517   20.919131      19.340123      1.5790078     -1.24896        18556.58     
    839000   1.0030866      0.0023323615  -0.00055387549  20.941823      19.45224       1.4895835     -0.99375677     18977.207    
    840000   1.1590183      0.0023323615  -0.00026084941  21.335104      19.613962      1.7211422     -0.94985669     19272.503    
    841000   1.0706042      0.0023323615  -0.003113976    20.904348      19.314501      1.5898472     -1.1608793      18868.822    
    842000   0.85699085     0.0023323615  -0.00054572105  20.713766      19.441135      1.2726314     -1.1118038      18540.717    
    843000   0.81968853     0.0023323615  -0.00046429473  20.451286      19.234048      1.2172375     -1.2891708      18465.119    
    844000   1.0236379      0.0023323615   0.0036734454   20.676748      19.156646      1.5201022     -1.3145027      18540.427    
    845000   1.0526857      0.0023323615  -0.00068299025  20.826749      19.263511      1.5632383     -1.3397314      18498.112    
    846000   1.174804       0.0023323615   0.0027492756   21.304288      19.559704      1.7445839     -1.0633213      18757.641    
    847000   1.0718852      0.0023323615   0.0018025024   21.09545       19.5037        1.5917496     -1.026539       19000.411    
    848000   0.93542512     0.0023323615   0.0057497851   20.568191      19.179085      1.3891063     -1.3000967      18747.913    
    849000   1.0081874      0.0023323615   0.0016984907   20.79176       19.294602      1.4971583     -1.2983853      18707.416    
    850000   0.9151446      0.0023323615   0.00096991623  20.660628      19.301638      1.3589897     -1.1817633      18637.932    
    851000   1.0055538      0.0023323615   0.0006795247   20.794284      19.301037      1.4932474     -1.1837324      18531.009    
    852000   1.0272189      0.0023323615  -0.0017371731   20.786759      19.261339      1.5254201     -1.3612197      18494.345    
    853000   0.93884734     0.0023323615   0.00020019495  20.645471      19.251283      1.3941883     -1.3629013      18497.824    
    854000   1.0874648      0.0023323615  -0.0018954948   20.500936      18.886051      1.6148853     -1.5857463      18388.984    
    855000   0.87457527     0.0023323615   0.00062368203  20.53563       19.236886      1.2987443     -1.2753299      18313.837    
    856000   1.0225145      0.0023323615  -9.0397272e-05  20.551504      19.03307       1.5184341     -1.5661986      18301.644    
    857000   1.0895688      0.0023323615  -0.001237908    20.409198      18.791189      1.6180097     -1.7070665      18274.991    
    858000   0.9939927      0.0023323615   0.00029381048  20.866448      19.390369      1.4760792     -1.2472891      18351.452    
    859000   1.1250219      0.0023323615   0.0027880949   20.858201      19.187543      1.6706575     -1.2801729      18466.298    
    860000   1.1289713      0.0023323615  -0.0005525695   20.622263      18.945741      1.6765223     -1.5046223      18393.118    
    861000   0.80261985     0.0023323615   0.0027460716   20.12435       18.932459      1.1918905     -1.5616016      18365.151    
    862000   1.1612135      0.0023323615   0.00069483763  20.926463      19.202061      1.7244021     -1.322285       18330.749    
    863000   1.0196408      0.0023323615   0.002956868    20.487276      18.973109      1.5141665     -1.4374404      18377.188    
    864000   1.0078383      0.0023323615   0.002723229    20.654957      19.158317      1.4966399     -1.4105649      18768.067    
    865000   0.97272357     0.0023323615  -0.0019437591   20.600909      19.156415      1.4444945     -1.3967888      18629.402    
    866000   1.2255988      0.0023323615   0.0057834324   21.016316      19.196302      1.8200143     -1.2379952      18545.474    
    867000   1.0275534      0.0023323615  -0.00041688507  20.653371      19.127455      1.5259168     -1.4147747      18336.163    
    868000   1.0188709      0.0023323615   0.00026953835  20.416344      18.903321      1.5130232     -1.5431684      18434.77     
    869000   1.018926       0.0023323615   0.0034893445   20.433381      18.920276      1.5131052     -1.5554778      18742.632    
    870000   0.88757497     0.0023323615   0.0011412276   20.287476      18.969427      1.3180488     -1.561725       19834.505    
    871000   1.0284164      0.0023323615   0.0028783461   21.021862      19.494663      1.5271983     -1.1171915      20031.156    
    872000   0.9451365      0.0023323615  -0.0037138693   20.735406      19.331879      1.4035277     -1.2725398      20100.879    
    873000   1.0465533      0.0023323615  -0.0021047868   20.939663      19.385531      1.5541316     -1.1611132      20111.11     
    874000   1.0788784      0.0023323615   0.0049639571   20.818997      19.216862      1.6021344     -1.3686906      19928.125    
    875000   1.0795591      0.0023323615  -0.00054406391  20.688281      19.085136      1.6031453     -1.3097753      19921.749    
    876000   1.003631       0.0023323615  -0.0024444773   20.925508      19.435116      1.490392      -1.2379335      20037.481    
    877000   1.068097       0.0023323615  -0.0043472144   20.797322      19.211198      1.5861241     -1.3086776      19953.769    
    878000   0.95377889     0.0023323615   0.0017748669   20.649988      19.233626      1.4163617     -1.3209317      19930.457    
    879000   0.94011517     0.0023323615   0.00096345909  20.665278      19.269206      1.396071      -1.2796793      19898.313    
    880000   1.1914564      0.0023323615   0.00087292242  20.964266      19.194954      1.7693128     -1.3854607      20110.109    
    881000   1.1600824      0.0023323615  -0.00043527206  20.899401      19.176679      1.7227223     -1.4179686      20159.471    
    882000   0.92260046     0.0023323615  -0.0014528523   20.543566      19.173505      1.3700617     -1.2586437      20414.102    
    883000   0.82039088     0.0023323615   0.0048767465   20.386765      19.168485      1.2182805     -1.3182483      20144.572    
    884000   1.1460402      0.0023323615  -0.0026806608   20.828947      19.127077      1.7018697     -1.3596488      20202.781    
    885000   1.0579729      0.0023323615   0.0042255008   20.921733      19.350643      1.5710898     -1.1603257      20122.998    
    886000   1.041606       0.0023323615  -0.0067974803   21.075107      19.528322      1.5467849     -1.2140189      20327.398    
    887000   1.0719304      0.0023323615   0.0010880386   20.663567      19.07175       1.5918166     -1.4206711      20267.14     
    888000   1.0314734      0.0023323615  -0.00053336107  20.459886      18.928148      1.531738      -1.4506198      20212.526    
    889000   0.7727735      0.0023323615   0.0018194008   20.237302      19.089733      1.1475686     -1.3074255      20050.188    
    890000   0.98647534     0.0023323615  -0.00021352522  20.498535      19.033619      1.4649159     -1.3801634      19906.29     
    891000   1.0297932      0.0023323615   0.0024564866   20.736369      19.207126      1.5292429     -1.3217743      19854.994    
    892000   0.94154061     0.0023323615  -0.0045312029   20.529719      19.131532      1.3981878     -1.4993956      20018.641    
    893000   1.0179796      0.0023323615  -0.00099432087  20.776486      19.264786      1.5116996     -1.3665815      19962.7      
    894000   1.141873       0.0023323615   0.00085277207  20.877282      19.1816        1.6956813     -1.360207       20115.451    
    895000   0.92301928     0.0023323615  -0.0031306366   20.939576      19.568892      1.3706836     -1.0788598      20232.623    
    896000   1.0896573      0.0023323615  -0.00073925414  20.861985      19.243844      1.6181411     -1.279256       20224.862    
    897000   1.0636231      0.0023323615   0.0023296041   20.979063      19.399583      1.5794803     -1.0748671      20071.537    
    898000   1.0430107      0.0023323615   0.0015442825   20.695282      19.146411      1.5488709     -1.270137       20076.479    
    899000   1.022136       0.0023323615   0.003857646    20.75468       19.236808      1.5178719     -1.2615144      20101.863    
    900000   0.95451136     0.0023323615  -0.0014292511   20.437256      19.019807      1.4174494     -1.3968605      20012.167    
    901000   0.99991684     0.0023323615   0.00087935737  20.538523      19.053647      1.4848765     -1.4641845      20120.272    
    902000   1.137956       0.0023323615  -0.0010587744   20.657042      18.967178      1.6898647     -1.446196       19926.681    
    903000   1.1786286      0.0023323615  -0.0042798264   21.023603      19.27334       1.7502635     -1.2286088      19919.069    
    904000   0.98704238     0.0023323615  -0.0027603461   20.645542      19.179784      1.4657579     -1.3458374      19913.835    
    905000   1.0188493      0.0023323615   0.0030939928   20.705371      19.19238       1.5129913     -1.4009638      20082.555    
    906000   0.90981215     0.0023323615   0.00030055375  20.171454      18.820382      1.351071      -1.5672363      19838.088    
    907000   0.99654438     0.0023323615  -0.0016432595   20.547856      19.067988      1.4798684     -1.5750094      19943.642    
    908000   1.0625038      0.0023323615   0.00032202526  20.838106      19.260288      1.5778182     -1.307071       19944.786    
    909000   1.0593583      0.0023323615  -0.003248931    20.754975      19.181828      1.573147      -1.4824855      19924.047    
    910000   1.0436117      0.0023323615   0.001210036    20.545061      18.995297      1.5497634     -1.5357849      19975.009    
    911000   0.99542186     0.0023323615  -0.0017304701   20.458696      18.980495      1.4782015     -1.4612012      19746.408    
    912000   1.0780276      0.0023323615   0.0016423335   20.863367      19.262496      1.600871      -1.2427029      19915.206    
    913000   0.91926739     0.0023323615   0.0027800737   20.477545      19.112433      1.3651121     -1.3616252      20208.483    
    914000   0.98777214     0.0023323615   0.00026957292  20.706283      19.239441      1.4668416     -1.416424       19926.494    
    915000   0.89316543     0.0023323615  -0.00033580453  20.413185      19.086835      1.3263507     -1.4432601      20171.604    
    916000   0.70008707     0.0023323615  -0.0031086238   20.082281      19.042652      1.0396293     -1.4656712      20047.708    
    917000   0.96842538     0.0023323615   0.00077747849  20.397466      18.959354      1.4381117     -1.5351878      19815.026    
    918000   0.92476659     0.0023323615   0.0014895589   20.422974      19.049696      1.3732784     -1.4501312      20020.934    
    919000   0.87962028     0.0023323615   0.0031610077   20.582474      19.276237      1.3062361     -1.3557445      20086.992    
    920000   0.96209388     0.0023323615   0.0040770421   20.910282      19.481572      1.4287094     -1.113367       20256.089    
    921000   1.1559221      0.0023323615   0.0033864877   21.085367      19.368822      1.7165443     -1.1446317      20506.08     
    922000   0.88729547     0.0023323615  -0.0026167122   20.356711      19.039077      1.3176338     -1.4042941      20583.438    
    923000   0.86783039     0.0023323615  -0.0025846023   20.193659      18.904931      1.2887281     -1.649041       20103.956    
    924000   1.0472084      0.0023323615  -0.0019223387   20.274156      18.719052      1.5551045     -1.7178836      20003.011    
    925000   1.0376461      0.0023323615   0.0031312054   20.189635      18.648731      1.5409044     -1.852689       20048.01     
    926000   0.97042241     0.0023323615  -0.00043550953  20.670395      19.229318      1.4410773     -1.4205766      19916.553    
    927000   1.1876512      0.0023323615  -0.0012861524   20.700777      18.937115      1.7636621     -1.5201088      20278.629    
    928000   1.0010227      0.0023323615  -0.0010225033   20.515362      19.028843      1.4865188     -1.5705499      20179.638    
    929000   1.0466891      0.0023323615   0.0030503507   20.570365      19.016032      1.5543333     -1.360616       20154.322    
    930000   1.0549815      0.0023323615  -0.0018793256   20.621158      19.05451       1.5666475     -1.3682902      20211.797    
    931000   1.1263913      0.0023323615   0.004355211    21.085714      19.413023      1.672691      -1.1211077      20130.372    
    932000   1.0394147      0.0023323615   0.0044423306   20.915349      19.371818      1.5435308     -1.0401535      20118.714    
    933000   1.212804       0.0023323615  -0.00072318591  21.176615      19.375601      1.801014      -1.2944754      20058.404    
    934000   1.1180786      0.0023323615  -0.0028324885   21.094945      19.434599      1.6603467     -1.1662129      20252.197    
    935000   1.0214568      0.0023323615   0.00061398662  20.837514      19.320651      1.5168634     -1.1868735      20537.054    
    936000   1.119618       0.0023323615   0.00054269312  20.829837      19.167204      1.6626327     -1.3916647      19967.389    
    937000   1.0253515      0.0023323615  -0.0010705507   20.514943      18.992296      1.522647      -1.4090101      19915.254    
    938000   0.81971399     0.0023323615  -0.0017717812   20.392431      19.175156      1.2172753     -1.2008048      20063.763    
    939000   0.88558239     0.0023323615  -0.00038740316  20.642823      19.327733      1.3150899     -1.0931342      20649.788    
    940000   0.96326397     0.0023323615   0.0024704114   20.759574      19.329127      1.430447      -1.3317293      20109.165    
    941000   1.1034598      0.0023323615   0.00094443666  20.799237      19.160599      1.6386378     -1.3817142      19987.181    
    942000   0.9637708      0.0023323615  -0.00076951362  20.79349       19.362291      1.4311996     -1.1924545      20343.453    
    943000   0.92890206     0.0023323615   0.0040208699   20.757936      19.378517      1.3794196     -1.2070605      20731.882    
    944000   0.93868041     0.0023323615   0.00047213905  20.563209      19.169269      1.3939404     -1.2544853      20483.49     
    945000   0.8914184      0.0023323615   0.0020003194   20.463664      19.139908      1.3237563     -1.3869372      20065.913    
    946000   1.0393893      0.0023323615  -0.0030557416   20.754592      19.211098      1.5434931     -1.3744698      20164.203    
    947000   1.0337765      0.0023323615  -0.00089942517  20.900902      19.365744      1.5351581     -1.2359012      20263.911    
    948000   1.0262417      0.0023323615   0.0055142649   20.549014      19.025046      1.5239689     -1.4015816      20191.668    
    949000   0.98037216     0.0023323615  -0.004063505    20.752447      19.296594      1.4558527     -1.3041537      20113.627    
    950000   0.99048735     0.0023323615   0.00028802563  20.500765      19.029891      1.4708737     -1.431231       19534.255    
    951000   0.86425406     0.0023323615  -0.00042836628  20.437631      19.154213      1.2834173     -1.19606        20083.335    
    952000   0.86792597     0.0023323615  -0.0025565083   20.804879      19.516009      1.2888701     -1.088843       20276.449    
    953000   1.0713961      0.0023323615   0.00083673938  20.742694      19.15167       1.5910232     -1.3656861      19939.965    
    954000   0.90816413     0.0023323615  -0.00097513996  20.733507      19.384883      1.3486237     -1.0893659      20057.929    
    955000   1.0234665      0.0023323615  -0.00091718706  20.651305      19.131457      1.5198478     -1.2932102      19803.145    
    956000   1.0368925      0.0023323615  -0.00021374395  20.68007       19.140284      1.5397853     -1.3188071      18524.712    
    957000   0.96942875     0.0023323615  -0.0013030304   20.631858      19.192257      1.4396017     -1.3223577      18546.294    
    958000   1.0646913      0.0023323615  -0.0045074941   20.693451      19.112384      1.5810666     -1.4355407      19572.081    
    959000   1.0038969      0.0023323615   0.00030495919  20.659798      19.169011      1.4907869     -1.3451096      20007.638    
    960000   1.1076431      0.0023323615  -5.8508944e-05  20.711775      19.066924      1.6448501     -1.4679093      20005.059    
    961000   1.0357785      0.0023323615  -0.00084251908  20.984125      19.445994      1.5381311     -1.0927266      19916.923    
    962000   1.1348365      0.0023323615  -0.00011555922  20.925027      19.239795      1.6852321     -1.1877162      20180.25     
    963000   1.0167011      0.0023323615   0.0011995507   20.940728      19.430927      1.5098011     -1.029823       20283.133    
    964000   0.91488647     0.0023323615  -0.0023986125   20.456011      19.097405      1.3586064     -1.4238495      20038.089    
    965000   0.93529133     0.0023323615  -0.0032630244   20.665294      19.276386      1.3889076     -1.2364872      19680.487    
    966000   0.9900223      0.0023323615  -0.0012622507   20.448987      18.978804      1.4701831     -1.4617817      19932.498    
    967000   0.97718437     0.0023323615   5.8740469e-05  20.679005      19.227886      1.4511188     -1.2952473      20047.277    
    968000   1.1278537      0.0023323615   1.5947033e-05  20.808901      19.134038      1.6748627     -1.3337374      19996.803    
    969000   0.93583395     0.0023323615   4.6752075e-05  20.783467      19.393754      1.3897134     -1.2571573      20053.42     
    970000   0.9499303      0.0023323615  -0.0032315993   20.567123      19.156476      1.4106465     -1.425305       19979.667    
    971000   1.062157       0.0023323615  -0.0035785225   20.587171      19.009868      1.5773032     -1.5117558      19723.737    
    972000   0.97320744     0.0023323615  -0.0018477068   20.507581      19.062368      1.445213      -1.4108246      19872.752    
    973000   0.92132763     0.0023323615  -0.0005650761   20.552998      19.184826      1.3681715     -1.2640792      19990.968    
    974000   0.99028143     0.0023323615  -0.0011098741   20.874889      19.404322      1.4705679     -1.202952       19745.248    
    975000   1.0077962      0.0023323615   0.00062077931  20.936449      19.439872      1.4965773     -1.12931        20179.654    
    976000   0.97890471     0.0023323615   0.0010977001   20.5852        19.131526      1.4536735     -1.2905033      19972.315    
    977000   1.0568759      0.0023323615   0.0025793188   20.625528      19.056067      1.5694606     -1.4341816      19710.214    
    978000   0.92734765     0.0023323615  -0.00057931556  20.481613      19.104502      1.3771113     -1.327828       19908.303    
    979000   0.82153448     0.0023323615  -0.0030271527   20.354272      19.134294      1.2199787     -1.3509048      19815.309    
    980000   1.0258118      0.0023323615  -0.0013090726   20.989375      19.466045      1.5233305     -1.1309435      20108.241    
    981000   1.0801457      0.0023323615  -0.0045377434   20.818053      19.214036      1.6040163     -1.3396238      20051.441    
    982000   0.98635272     0.0023323615   0.0034931873   20.834852      19.370118      1.4647338     -1.2117073      20051.51     
    983000   0.97220918     0.0023323615  -0.0040337732   20.399018      18.955288      1.4437306     -1.5563734      19813.326    
    984000   0.93060245     0.0023323615  -0.0033257166   20.763399      19.381454      1.3819446     -1.2511255      19993.567    
    985000   1.0032975      0.0023323615  -0.0013680451   20.741712      19.251815      1.4898968     -1.29744        20001.989    
    986000   0.99869557     0.0023323615   0.002121763    20.853213      19.37015       1.4830629     -1.1794792      20074.816    
    987000   0.80072982     0.0023323615   3.3979299e-05  20.31588       19.126797      1.1890838     -1.3726328      20186.96     
    988000   1.032427       0.0023323615  -0.0021908556   20.838067      19.304913      1.5331542     -1.3505001      20232.557    
    989000   1.0310568      0.0023323615   0.004170778    20.840941      19.309822      1.5311193     -1.2715118      20134.311    
    990000   0.90501671     0.0023323615  -0.0028971951   20.19486       18.850911      1.3439498     -1.5973105      20104.503    
    991000   1.0517233      0.0023323615  -0.00022903931  20.857613      19.295804      1.561809      -1.2484728      20107.391    
    992000   1.1516674      0.0023323615  -0.00059956836  20.643434      18.933208      1.7102261     -1.6021268      20115.67     
    993000   0.89074897     0.0023323615  -0.0027463992   20.278269      18.955507      1.3227622     -1.584959       20014.539    
    994000   0.88566759     0.0023323615   0.00093441999  20.405975      19.090758      1.3152164     -1.5117363      19941.925    
    995000   0.96601176     0.0023323615   0.0020590518   20.37008       18.935552      1.4345275     -1.631212       19970.058    
    996000   0.99809731     0.0023323615  -0.0018669655   20.485956      19.003781      1.4821745     -1.5518725      19373.357    
    997000   1.0938891      0.0023323615   0.0041095576   20.892111      19.267686      1.6244253     -1.369585       18354.361    
    998000   1.025211       0.0023323615  -0.0031302254   20.757681      19.235243      1.5224383     -1.2873253      19345        
    999000   0.93046292     0.0023323615   0.001207146    20.501911      19.120173      1.3817374     -1.3434674      19926.999    
   1000000   0.91833153     0.0023323615   0.0015979425   20.476518      19.112795      1.3637223     -1.3348198      20074.626    
Loop time of 52.5621 on 1 procs for 1000000 steps with 100 atoms

Performance: 8218844.358 tau/day, 19025.103 timesteps/s
99.5% CPU use with 1 MPI tasks x 1 OpenMP threads

MPI task timing breakdown:
Section |  min time  |  avg time  |  max time  |%varavg| %total
---------------------------------------------------------------
Pair    | 43.751     | 43.751     | 43.751     |   0.0 | 83.24
Bond    | 1.2517     | 1.2517     | 1.2517     |   0.0 |  2.38
Neigh   | 3.732      | 3.732      | 3.732      |   0.0 |  7.10
Comm    | 1.3725     | 1.3725     | 1.3725     |   0.0 |  2.61
Output  | 0.20832    | 0.20832    | 0.20832    |   0.0 |  0.40
Modify  | 1.8909     | 1.8909     | 1.8909     |   0.0 |  3.60
Other   |            | 0.3558     |            |       |  0.68

Nlocal:            100 ave         100 max         100 min
Histogram: 1 0 0 0 0 0 0 0 0 0
Nghost:            350 ave         350 max         350 min
Histogram: 1 0 0 0 0 0 0 0 0 0
Neighs:           4851 ave        4851 max        4851 min
Histogram: 1 0 0 0 0 0 0 0 0 0

Total # of neighbors = 4851
Ave neighs/atom = 48.51
Ave special neighs/atom = 1.98
Neighbor list builds = 97913
Dangerous builds = 80168

write_data      ${outputfile_assembled} nofix nocoeff
write_data      7_assembled.data nofix nocoeff
System init for write_data ...
Generated 0 of 6 mixed pair_coeff terms from geometric mixing rule

Total wall time: 0:00:53
