LAMMPS (23 Jun 2022 - Update 1)
OMP_NUM_THREADS environment is not set. Defaulting to 1 thread. (src/comm.cpp:98)
  using 1 OpenMP thread(s) per MPI task


variable        runtime equal 1000000
variable		subsample_rate equal 1000

variable		outputfile_created string '3_created.data'
variable		outputfile_relaxed string '5_relaxed.data'
variable		outputfile_selfasb string '6_a_self_assemble.lammpstrj'
variable		outputfile_trajlin string '6_b_trajlin.data'
variable		outputfile_assembled string '7_assembled.data'

units           lj
atom_style      full
dimension       3
boundary        p p p
timestep        0.005

read_data       ${outputfile_created}
read_data       3_created.data
Reading data file ...
  orthogonal box = (0 0 0) to (35 35 35)
  1 by 1 by 1 MPI processor grid
  reading atoms ...
  100 atoms
  reading velocities ...
  100 velocities
  scanning bonds ...
  1 = max bonds/atom
  reading bonds ...
  99 bonds
Finding 1-2 1-3 1-4 neighbors ...
  special bond factors lj:    0        0        0       
  special bond factors coul:  0        0        0       
     2 = max # of 1-2 neighbors
     2 = max # of 1-3 neighbors
     4 = max # of 1-4 neighbors
     6 = max # of special neighbors
  special bonds CPU = 0.000 seconds
  read_data CPU = 0.006 seconds

bond_style      fene
bond_coeff      * 30.0 1.5 1.0 1.0
special_bonds   fene
Finding 1-2 1-3 1-4 neighbors ...
  special bond factors lj:    0        1        1       
  special bond factors coul:  0        1        1       
     2 = max # of 1-2 neighbors
     6 = max # of special neighbors
  special bonds CPU = 0.000 seconds

variable        Temp equal 1.0
variable        velSeed equal 926458

velocity        all create ${Temp} ${velSeed}
velocity        all create 1 ${velSeed}
velocity        all create 1 926458

### Output
thermo_style    custom step temp density press etotal pe ke epair spcpu
thermo          1000

###########################################################################
# Soft relaxation (to remove overlaps of particles)
######################################################################

pair_style      soft 1.0
pair_coeff      * * 0.0
variable        prefactor equal ramp(0,300)
fix             rampSoft all adapt 1 pair soft a * * v_prefactor

minimize        0.0 1.0e-8 1000 100000
WARNING: Using 'neigh_modify every 1 delay 0 check yes' setting during minimization (src/min.cpp:187)
Generated 0 of 6 mixed pair_coeff terms from geometric mixing rule
Neighbor list info ...
  update every 1 steps, delay 0 steps, check yes
  max neighbors/atom: 2000, page size: 100000
  master list distance cutoff = 1.3
  ghost atom cutoff = 1.3
  binsize = 0.65, bins = 54 54 54
  1 neighbor lists, perpetual/occasional/extra = 1 0 0
  (1) pair soft, perpetual
      attributes: half, newton on
      pair build: half/bin/newton
      stencil: half/bin/3d
      bin: standard
WARNING: Communication cutoff 1.3 is shorter than a bond length based estimate of 1.7550000000000001. This may lead to errors. (src/comm.cpp:727)
Per MPI rank memory allocation (min/avg/max) = 8.346 | 8.346 | 8.346 Mbytes
   Step          Temp         Density         Press          TotEng         PotEng         KinEng         E_pair         S/CPU     
         0   1              0.0023323615  -0.0039617958   21.524174      20.039174      1.485          0              0            
       362   1              0.0023323615   0.0023090379   21.485548      20.000548      1.485          0              71415.241    
Loop time of 0.00507385 on 1 procs for 362 steps with 100 atoms

98.9% CPU use with 1 MPI tasks x 1 OpenMP threads

Minimization stats:
  Stopping criterion = force tolerance
  Energy initial, next-to-last, final = 
      20.0391741078675   20.0005480767337   20.0005480767337
  Force two-norm initial, final = 11.878422 7.9509778e-09
  Force max component initial, final = 6.6117807 1.3572772e-09
  Final line search alpha, max atom move = 1 1.3572772e-09
  Iterations, force evaluations = 362 738

MPI task timing breakdown:
Section |  min time  |  avg time  |  max time  |%varavg| %total
---------------------------------------------------------------
Pair    | 0.00021333 | 0.00021333 | 0.00021333 |   0.0 |  4.20
Bond    | 0.0023438  | 0.0023438  | 0.0023438  |   0.0 | 46.19
Neigh   | 0.0013626  | 0.0013626  | 0.0013626  |   0.0 | 26.86
Comm    | 0.00017766 | 0.00017766 | 0.00017766 |   0.0 |  3.50
Output  | 0          | 0          | 0          |   0.0 |  0.00
Modify  | 0          | 0          | 0          |   0.0 |  0.00
Other   |            | 0.0009764  |            |       | 19.24

Nlocal:            100 ave         100 max         100 min
Histogram: 1 0 0 0 0 0 0 0 0 0
Nghost:             20 ave          20 max          20 min
Histogram: 1 0 0 0 0 0 0 0 0 0
Neighs:              0 ave           0 max           0 min
Histogram: 1 0 0 0 0 0 0 0 0 0

Total # of neighbors = 0
Ave neighs/atom = 0
Ave special neighs/atom = 1.98
Neighbor list builds = 17
Dangerous builds = 0

fix             nvtSoft all nvt temp ${Temp} ${Temp} 0.5
fix             nvtSoft all nvt temp 1 ${Temp} 0.5
fix             nvtSoft all nvt temp 1 1 0.5
run             100000
Generated 0 of 6 mixed pair_coeff terms from geometric mixing rule
WARNING: Communication cutoff 1.3 is shorter than a bond length based estimate of 1.7550000000000001. This may lead to errors. (src/comm.cpp:727)
Per MPI rank memory allocation (min/avg/max) = 7.221 | 7.221 | 7.221 Mbytes
   Step          Temp         Density         Press          TotEng         PotEng         KinEng         E_pair         S/CPU     
       362   1              0.0023323615   0.0023090379   21.485548      20.000548      1.485          0              0            
      1000   0.90989032     0.0023323615  -0.0021940042   21.776974      20.425787      1.3511871      0.00036425437  78265.902    
      2000   0.86546688     0.0023323615   0.0034714157   21.677128      20.39191       1.2852183      0.0025814786   77784.396    
      3000   0.98199538     0.0023323615   0.0028144228   21.866132      20.407869      1.4582631      0.0011756043   73653.637    
      4000   1.004495       0.0023323615  -0.0014058211   21.945624      20.453949      1.4916751      0.011986179    73558.105    
      5000   1.1222705      0.0023323615   0.0044495116   21.986385      20.319813      1.6665718      0.0050317639   75353.532    
      6000   1.0538243      0.0023323615   0.0023957538   21.985713      20.420784      1.564929       0.012100514    75832.202    
      7000   1.0210598      0.0023323615  -0.00038820026  21.904665      20.388391      1.5162738      0              77763.666    
      8000   0.94819751     0.0023323615   0.0024943091   21.747889      20.339816      1.4080733      0              77693.872    
      9000   0.92364502     0.0023323615   0.0020053029   21.724166      20.352554      1.3716129      1.7780894e-05  76360.424    
     10000   0.86685188     0.0023323615   0.00078277366  21.644879      20.357604      1.287275       0.0098636418   76725.462    
     11000   1.0057103      0.0023323615   0.00010113276  21.8558        20.362321      1.4934798      0.020705341    76540.662    
     12000   0.97901664     0.0023323615  -0.0026996968   21.871206      20.417366      1.4538397      0.0052928539   76448.911    
     13000   0.97718436     0.0023323615  -6.1641422e-06  21.963706      20.512587      1.4511188      0.025022446    76246.908    
     14000   1.0530014      0.0023323615  -0.0009993112   21.947994      20.384287      1.5637071      0.0020860456   75730.881    
     15000   0.99094527     0.0023323615   0.0011068478   21.895146      20.423592      1.4715537      0.0015091113   76585.295    
     16000   0.91285091     0.0023323615  -0.00025424173  21.87524       20.519657      1.3555836      0.0047853639   76142.557    
     17000   0.82806978     0.0023323615  -0.00054698156  21.701984      20.472301      1.2296836      0              75432.752    
     18000   1.043278       0.0023323615  -6.6143919e-05  22.003299      20.454031      1.5492679      0.0034319132   76634.624    
     19000   1.0879249      0.0023323615  -0.0017804642   21.998985      20.383416      1.6155685      0.015376175    75414.855    
     20000   1.1144506      0.0023323615   0.0025198298   22.190904      20.535944      1.6549592      0              76800.026    
     21000   1.0427751      0.0023323615   0.0011345349   22.099492      20.550971      1.548521       0.00040047813  77083.957    
     22000   1.0586695      0.0023323615   0.0017882747   22.05673       20.484606      1.5721242      0              76437.376    
     23000   1.0058426      0.0023323615  -0.0055245362   21.954628      20.460951      1.4936763      0.0027619031   76170.686    
     24000   0.98273442     0.0023323615   0.0015147357   21.862067      20.402707      1.4593606      0              76152.606    
     25000   0.95835343     0.0023323615   0.0017808774   21.937761      20.514606      1.4231548      0.00020839942  75806.747    
     26000   0.93993778     0.0023323615  -0.0021777292   21.884849      20.489042      1.3958076      0.0088889834   76759.449    
     27000   0.9308188      0.0023323615  -0.00011239942  21.842252      20.459986      1.3822659      0.021612409    75883.802    
     28000   1.0149581      0.0023323615   0.0041996387   21.906846      20.399633      1.5072129      0.0064059022   76333.384    
     29000   0.92841138     0.0023323615  -2.5398808e-05  21.987185      20.608494      1.3786909      0.0046112484   76147.497    
     30000   1.021043       0.0023323615   0.001589158    22.097958      20.581709      1.5162489      0.016799508    73047.23     
     31000   1.0465985      0.0023323615  -0.0021744286   22.037917      20.483718      1.5541987      0.0057879149   77120.696    
     32000   0.98907108     0.0023323615  -0.0015558606   22.044089      20.575318      1.4687705      0.009448173    76566.085    
     33000   1.0918536      0.0023323615  -0.0025643847   22.039275      20.417873      1.6214025      0              75115.475    
     34000   0.99801543     0.0023323615   0.0016279766   21.932339      20.450286      1.4820529      0.017384617    77514.368    
     35000   1.0352271      0.0023323615  -0.0052971711   22.076004      20.538692      1.5373122      0.00010473809  76178.996    
     36000   1.1141579      0.0023323615  -0.00093279925  22.222491      20.567966      1.6545245      0.00033678641  77165.954    
     37000   1.0369415      0.0023323615   0.00013065175  22.217841      20.677983      1.5398581      0.013788831    76192.607    
     38000   1.0515596      0.0023323615   0.0021717558   22.070766      20.5092        1.561566       0.0067894678   76932.622    
     39000   1.0238495      0.0023323615   0.00026414509  22.040141      20.519725      1.5204165      0.00044464649  75979.805    
     40000   1.0749111      0.0023323615  -0.0026849368   22.039327      20.443084      1.596243       0.012651334    74834.672    
     41000   0.99070886     0.0023323615  -0.0030385564   22.03241       20.561207      1.4712027      0.00092855646  78177.959    
     42000   0.95315224     0.0023323615   0.0019788197   21.965263      20.549832      1.4154311      0.020233689    76255.827    
     43000   1.0644183      0.0023323615  -0.0011168725   22.287172      20.706511      1.5806611      0.039694129    76483.064    
     44000   1.0253747      0.0023323615  -0.006676522    22.066233      20.543552      1.5226814      0              75365.884    
     45000   0.94179556     0.0023323615  -0.0047206018   21.970644      20.572077      1.3985664      0.019869988    75855.711    
     46000   1.0083495      0.0023323615  -0.0017646918   21.972114      20.474715      1.497399       0.00026040605  75841.53     
     47000   0.98767959     0.0023323615  -0.00080218158  22.091674      20.62497       1.4667042      0.024266258    75950.15     
     48000   1.1473449      0.0023323615  -0.0025885687   22.080512      20.376705      1.7038072      0.00065962995  75823.554    
     49000   1.0679312      0.0023323615   0.0017688272   21.970482      20.384604      1.5858779      0.014142422    77560.33     
     50000   0.9581935      0.0023323615   0.0014398836   21.955202      20.532284      1.4229173      0.0055011948   76112.485    
     51000   1.0215759      0.0023323615  -0.00093292688  21.934681      20.41764       1.5170402      0              75691.879    
     52000   0.98079591     0.0023323615   0.0040701936   21.977374      20.520892      1.4564819      0.0020862422   76542.537    
     53000   1.0090927      0.0023323615   0.0013324753   22.095438      20.596935      1.4985027      0              76291.437    
     54000   0.97519627     0.0023323615   0.0013260734   22.070151      20.621984      1.4481665      0.026885444    76816.639    
     55000   1.1805087      0.0023323615  -0.001586238    22.424088      20.671033      1.7530554      0.024690954    76740.859    
     56000   0.98387121     0.0023323615   0.0037155145   22.104425      20.643376      1.4610487      0.01435493     76505.867    
     57000   1.0723812      0.0023323615  -0.0037916262   22.122726      20.53024       1.592486       0.013635549    76825.568    
     58000   1.0152349      0.0023323615   0.00021908047  22.082827      20.575203      1.5076238      0.00077375639  76402.914    
     59000   1.1424502      0.0023323615  -0.0052108657   22.30072       20.604182      1.6965385      0.013308184    77537.616    
     60000   1.0359703      0.0023323615  -0.00097887545  22.188218      20.649802      1.538416       0.00011346294  76186.088    
     61000   1.1646839      0.0023323615  -0.002085017    22.239945      20.51039       1.7295556      0.012918477    78119.288    
     62000   1.101836       0.0023323615   0.0010338878   22.171386      20.53516       1.6362265      0.001396566    76834.912    
     63000   0.96616435     0.0023323615   0.00097550571  21.903821      20.469067      1.4347541      0.013027663    78168.836    
     64000   1.0068907      0.0023323615  -0.0020278726   22.061652      20.566419      1.4952327      0.013750276    76547.353    
     65000   0.98723233     0.0023323615   0.0022441476   22.031073      20.565033      1.46604        0.0066686189   77332.158    
     66000   1.0273881      0.0023323615  -0.0003515278   22.183579      20.657908      1.5256713      0              75425.856    
     67000   0.96528212     0.0023323615  -0.00014822656  21.9396        20.506156      1.4334439      0.010365557    77874.33     
     68000   1.069702       0.0023323615   9.4754668e-05  22.081119      20.492611      1.5885075      0.00049153926  74633.9      
     69000   1.1229502      0.0023323615   0.0011504079   22.200329      20.532748      1.6675811      0.0068454249   77293.473    
     70000   1.0062775      0.0023323615  -0.00085311964  22.094021      20.599699      1.4943221      0.013222355    75801.386    
     71000   1.0906935      0.0023323615   0.00015260357  22.145362      20.525682      1.6196798      0.018338513    76372.169    
     72000   1.010401       0.0023323615  -6.0487182e-06  22.154105      20.653659      1.5004455      0.0013793953   75205.516    
     73000   1.1177599      0.0023323615  -0.0034084797   22.254435      20.594562      1.6598735      0.00011231735  78001.222    
     74000   0.9768019      0.0023323615   0.00016143893  22.07312       20.622569      1.4505508      0.0084515956   75990.85     
     75000   1.1360996      0.0023323615   0.002159116    22.161595      20.474487      1.6871079      0.0089909162   76926.278    
     76000   0.97379329     0.0023323615  -0.00068458621  21.988928      20.542845      1.446083       0              76440.66     
     77000   0.94876793     0.0023323615  -0.0016073976   21.923496      20.514575      1.4089204      0.017745108    76250.867    
     78000   0.83947996     0.0023323615  -0.00062768559  21.726727      20.480099      1.2466277      0.0054510099   76462.151    
     79000   1.0090614      0.0023323615  -0.00080262643  22.068192      20.569736      1.4984562      0.00023011166  77295.325    
     80000   1.1217643      0.0023323615  -0.0038177864   22.367902      20.702082      1.66582        0.032902439    76507.629    
     81000   1.0240158      0.0023323615   0.00023547123  22.031597      20.510933      1.5206635      0.0068767308   75941.25     
     82000   1.003236       0.0023323615  -0.0022802982   21.894199      20.404393      1.4898055      0.019136282    75078.35     
     83000   1.0554159      0.0023323615   0.004011718    22.104562      20.537269      1.5672927      0.0080869707   75027.389    
     84000   0.83527346     0.0023323615  -0.0034122221   21.874648      20.634267      1.2403811      0.0030083664   76672.129    
     85000   1.036002       0.0023323615   0.0013573923   21.962923      20.42446       1.5384629      0.015709144    77091.873    
     86000   0.9432002      0.0023323615  -0.0032183248   21.913588      20.512936      1.4006523      0.013730309    76538.6      
     87000   0.95566008     0.0023323615  -0.00049614223  21.91653       20.497375      1.4191552      0.0035862035   75527.275    
     88000   0.93373351     0.0023323615  -0.00097093893  21.870485      20.483891      1.3865943      0.0018212145   75629.424    
     89000   0.9684944      0.0023323615  -0.00047342045  21.973429      20.535215      1.4382142      0.00087524744  75842.289    
     90000   0.98293324     0.0023323615  -0.0032204602   22.050919      20.591263      1.4596559      0.015353933    77240.834    
     91000   1.0832827      0.0023323615   0.0048517083   22.11977       20.511095      1.6086749      0.0052867789   78057.279    
     92000   0.85899662     0.0023323615  -0.0013049519   21.765697      20.490087      1.27561        0.0024124001   76904.348    
     93000   0.96176266     0.0023323615  -4.4223672e-05  21.874222      20.446004      1.4282176      0.0045653365   78157.032    
     94000   0.96019503     0.0023323615   0.00024459347  21.944954      20.519064      1.4258896      3.8053462e-05  76748.233    
     95000   0.94702149     0.0023323615  -0.0033658915   21.86315       20.456823      1.4063269      0              77537.015    
     96000   0.91119348     0.0023323615  -0.0013197298   21.825018      20.471896      1.3531223      0.00043282989  76263.276    
     97000   1.0016687      0.0023323615  -0.0019514304   22.013024      20.525546      1.487478       0.0048369955   75612.126    
     98000   1.02143        0.0023323615  -0.0057874974   22.177965      20.661142      1.5168235      0              74975.035    
     99000   1.032786       0.0023323615   0.0018228259   21.975336      20.441649      1.5336871      7.1595851e-05  78394.34     
    100000   1.0594928      0.0023323615   0.0036169719   22.011024      20.437677      1.5733468      0.00032948157  76013.02     
    100362   1.1904942      0.0023323615  -0.00089755607  22.316856      20.548972      1.7678839      0.00063845255  75828.621    
Loop time of 1.30926 on 1 procs for 100000 steps with 100 atoms

Performance: 32995724.920 tau/day, 76378.993 timesteps/s
99.3% CPU use with 1 MPI tasks x 1 OpenMP threads

MPI task timing breakdown:
Section |  min time  |  avg time  |  max time  |%varavg| %total
---------------------------------------------------------------
Pair    | 0.049447   | 0.049447   | 0.049447   |   0.0 |  3.78
Bond    | 0.12587    | 0.12587    | 0.12587    |   0.0 |  9.61
Neigh   | 0.80236    | 0.80236    | 0.80236    |   0.0 | 61.28
Comm    | 0.054083   | 0.054083   | 0.054083   |   0.0 |  4.13
Output  | 0.0018624  | 0.0018624  | 0.0018624  |   0.0 |  0.14
Modify  | 0.24265    | 0.24265    | 0.24265    |   0.0 | 18.53
Other   |            | 0.03299    |            |       |  2.52

Nlocal:            100 ave         100 max         100 min
Histogram: 1 0 0 0 0 0 0 0 0 0
Nghost:             60 ave          60 max          60 min
Histogram: 1 0 0 0 0 0 0 0 0 0
Neighs:             36 ave          36 max          36 min
Histogram: 1 0 0 0 0 0 0 0 0 0

Total # of neighbors = 36
Ave neighs/atom = 0.36
Ave special neighs/atom = 1.98
Neighbor list builds = 9821
Dangerous builds = 8265
unfix           nvtSoft
unfix           rampSoft
reset_timestep  0

write_data      ${outputfile_relaxed}
write_data      5_relaxed.data
System init for write_data ...
Generated 0 of 6 mixed pair_coeff terms from geometric mixing rule
WARNING: Communication cutoff 1.3 is shorter than a bond length based estimate of 1.7550000000000001. This may lead to errors. (src/comm.cpp:727)
WARNING: Not all mixed pair coeffs generated from mixing. Use write_data with 'pair ij' option to store all pair coeffs. (src/write_data.cpp:309)

###########################################################################
# Full LJ with Coulomb
######################################################################

# Cutoffs and parameters:
# - Values: Marcel Verkade's Bachelor Thesis
# - Mapping to atom groups: Patrick Onck's paper
# - 1: aliphatic, 2: aromatic, 3: anion, 4: cation
# pair_style	lj/cut/coul/cut <lj_cut_global> <coul_cut_global>
# pair_coeff	<type_1>  <type_2>  <eps>  <sigma>  <r_cut_lj>  <r_cut_coul>

# Problem: Onck's model is much more complex, and Marcel has no sigma reported
# Using sigma=1 randomly

variable		glob_ljeps equal 1.0
variable		glob_ljsig 	equal 1.0
variable		glob_coulcut equal 10.0
variable		att_ljcut equal 2.50
variable		rep_ljcut equal 1.12

pair_style		lj/cut/coul/cut 						${att_ljcut} 	${glob_coulcut}
pair_style		lj/cut/coul/cut 						2.5 	${glob_coulcut}
pair_style		lj/cut/coul/cut 						2.5 	10
pair_coeff		1 1 	${glob_ljeps} 	${glob_ljsig}	${att_ljcut} 	${glob_coulcut}
pair_coeff		1 1 	1 	${glob_ljsig}	${att_ljcut} 	${glob_coulcut}
pair_coeff		1 1 	1 	1	${att_ljcut} 	${glob_coulcut}
pair_coeff		1 1 	1 	1	2.5 	${glob_coulcut}
pair_coeff		1 1 	1 	1	2.5 	10
pair_coeff		1 2 	${glob_ljeps} 	${glob_ljsig}	${att_ljcut} 	${glob_coulcut}
pair_coeff		1 2 	1 	${glob_ljsig}	${att_ljcut} 	${glob_coulcut}
pair_coeff		1 2 	1 	1	${att_ljcut} 	${glob_coulcut}
pair_coeff		1 2 	1 	1	2.5 	${glob_coulcut}
pair_coeff		1 2 	1 	1	2.5 	10
pair_coeff		1 3 	${glob_ljeps} 	${glob_ljsig}	${rep_ljcut} 	${glob_coulcut}
pair_coeff		1 3 	1 	${glob_ljsig}	${rep_ljcut} 	${glob_coulcut}
pair_coeff		1 3 	1 	1	${rep_ljcut} 	${glob_coulcut}
pair_coeff		1 3 	1 	1	1.12 	${glob_coulcut}
pair_coeff		1 3 	1 	1	1.12 	10
pair_coeff		1 4 	${glob_ljeps} 	${glob_ljsig}	${rep_ljcut} 	${glob_coulcut}
pair_coeff		1 4 	1 	${glob_ljsig}	${rep_ljcut} 	${glob_coulcut}
pair_coeff		1 4 	1 	1	${rep_ljcut} 	${glob_coulcut}
pair_coeff		1 4 	1 	1	1.12 	${glob_coulcut}
pair_coeff		1 4 	1 	1	1.12 	10
pair_coeff		2 2 	${glob_ljeps} 	${glob_ljsig}	${att_ljcut} 	${glob_coulcut}
pair_coeff		2 2 	1 	${glob_ljsig}	${att_ljcut} 	${glob_coulcut}
pair_coeff		2 2 	1 	1	${att_ljcut} 	${glob_coulcut}
pair_coeff		2 2 	1 	1	2.5 	${glob_coulcut}
pair_coeff		2 2 	1 	1	2.5 	10
pair_coeff		2 3 	${glob_ljeps} 	${glob_ljsig}	${rep_ljcut} 	${glob_coulcut}
pair_coeff		2 3 	1 	${glob_ljsig}	${rep_ljcut} 	${glob_coulcut}
pair_coeff		2 3 	1 	1	${rep_ljcut} 	${glob_coulcut}
pair_coeff		2 3 	1 	1	1.12 	${glob_coulcut}
pair_coeff		2 3 	1 	1	1.12 	10
pair_coeff		2 4 	${glob_ljeps} 	${glob_ljsig}	${att_ljcut} 	${glob_coulcut}
pair_coeff		2 4 	1 	${glob_ljsig}	${att_ljcut} 	${glob_coulcut}
pair_coeff		2 4 	1 	1	${att_ljcut} 	${glob_coulcut}
pair_coeff		2 4 	1 	1	2.5 	${glob_coulcut}
pair_coeff		2 4 	1 	1	2.5 	10
pair_coeff		3 3 	${glob_ljeps} 	${glob_ljsig}	${rep_ljcut} 	${glob_coulcut}
pair_coeff		3 3 	1 	${glob_ljsig}	${rep_ljcut} 	${glob_coulcut}
pair_coeff		3 3 	1 	1	${rep_ljcut} 	${glob_coulcut}
pair_coeff		3 3 	1 	1	1.12 	${glob_coulcut}
pair_coeff		3 3 	1 	1	1.12 	10
pair_coeff		3 4 	${glob_ljeps} 	${glob_ljsig}	${att_ljcut} 	${glob_coulcut}
pair_coeff		3 4 	1 	${glob_ljsig}	${att_ljcut} 	${glob_coulcut}
pair_coeff		3 4 	1 	1	${att_ljcut} 	${glob_coulcut}
pair_coeff		3 4 	1 	1	2.5 	${glob_coulcut}
pair_coeff		3 4 	1 	1	2.5 	10
pair_coeff		4 4 	${glob_ljeps} 	${glob_ljsig}	${rep_ljcut} 	${glob_coulcut}
pair_coeff		4 4 	1 	${glob_ljsig}	${rep_ljcut} 	${glob_coulcut}
pair_coeff		4 4 	1 	1	${rep_ljcut} 	${glob_coulcut}
pair_coeff		4 4 	1 	1	1.12 	${glob_coulcut}
pair_coeff		4 4 	1 	1	1.12 	10


fix             noDriftRot 	all momentum 10 linear 1 1 1 angular
fix             nvt1 		all nvt temp ${Temp} ${Temp} 0.5
fix             nvt1 		all nvt temp 1 ${Temp} 0.5
fix             nvt1 		all nvt temp 1 1 0.5

# dump          assemble 	all custom 1000 				${outputfile_selfasb} id type xu yu zu vx vy vz
dump            lindump 	all custom ${subsample_rate} 	${outputfile_trajlin} id type xu yu zu vx vy vz
dump            lindump 	all custom 1000 	${outputfile_trajlin} id type xu yu zu vx vy vz
dump            lindump 	all custom 1000 	6_b_trajlin.data id type xu yu zu vx vy vz

run             ${runtime}
run             1000000
Generated 0 of 6 mixed pair_coeff terms from geometric mixing rule
Neighbor list info ...
  update every 1 steps, delay 10 steps, check yes
  max neighbors/atom: 2000, page size: 100000
  master list distance cutoff = 10.3
  ghost atom cutoff = 10.3
  binsize = 5.15, bins = 7 7 7
  1 neighbor lists, perpetual/occasional/extra = 1 0 0
  (1) pair lj/cut/coul/cut, perpetual
      attributes: half, newton on
      pair build: half/bin/newton
      stencil: half/bin/3d
      bin: standard
Per MPI rank memory allocation (min/avg/max) = 7.712 | 7.712 | 7.712 Mbytes
   Step          Temp         Density         Press          TotEng         PotEng         KinEng         E_pair         S/CPU     
         0   1.1904942      0.0023323615  -0.0015097095   21.925663      20.15778       1.7678839     -0.39055445     0            
      1000   0.91640929     0.0023323615  -0.0028060609   21.048515      19.687647      1.3608678     -0.83864921     32404.698    
      2000   0.92496121     0.0023323615  -0.00029557938  20.944922      19.571354      1.3735674     -1.0311841      29835.359    
      3000   1.090258       0.0023323615   0.0036663935   20.834994      19.21596       1.6190331     -1.2701519      26901.983    
      4000   0.90632472     0.0023323615   0.00065653603  20.574705      19.228813      1.3458922     -1.4147985      21266.051    
      5000   0.97344245     0.0023323615  -0.00034468432  19.926283      18.480721      1.445562      -1.8947468      17733.823    
      6000   0.95128609     0.0023323615   0.00057511422  20.263103      18.850443      1.4126598     -1.6673113      18026.693    
      7000   1.0160621      0.0023323615   0.0020190082   20.596738      19.087886      1.5088523     -1.5936167      18160.579    
      8000   1.0290573      0.0023323615   0.00010584373  20.538618      19.010468      1.52815       -1.5898103      18121.487    
      9000   1.0692583      0.0023323615  -0.0020240111   20.286172      18.698323      1.5878486     -1.8064301      17994.707    
     10000   0.99570492     0.0023323615   0.0039978673   20.462403      18.983782      1.4786218     -1.5795602      18013.068    
     11000   0.996607       0.0023323615  -0.0032513291   20.31025       18.830288      1.4799614     -1.6969364      18127.823    
     12000   0.89944002     0.0023323615   0.0036256418   20.493304      19.157636      1.3356684     -1.3817126      18006.436    
     13000   1.1327466      0.0023323615   0.0039327956   21.008177      19.326049      1.6821287     -1.2936242      18216.769    
     14000   0.84156788     0.0023323615   0.0013551433   20.218626      18.968898      1.2497283     -1.5232534      17980.204    
     15000   0.97043319     0.0023323615   0.0028245112   20.240055      18.798962      1.4410933     -1.7168824      18109.595    
     16000   1.0616687      0.0023323615  -0.0019411211   20.632103      19.055525      1.5765781     -1.5069949      17878.407    
     17000   1.0959545      0.0023323615   0.0020273423   20.431896      18.804404      1.6274924     -1.6378602      18026.82     
     18000   1.1521231      0.0023323615  -0.00028124903  20.768498      19.057595      1.7109028     -1.4428861      18158.196    
     19000   1.1275929      0.0023323615   0.00085673111  20.54988       18.875405      1.6744754     -1.5880652      17844.37     
     20000   1.0194572      0.0023323615  -0.00035746067  20.05975       18.545856      1.513894      -1.9316769      17945.659    
     21000   0.84989051     0.0023323615  -0.002076212    19.867371      18.605283      1.2620874     -1.9103856      18091.23     
     22000   1.0703843      0.0023323615   0.0013256277   20.153214      18.563694      1.5895207     -1.92726        17771.451    
     23000   1.0016823      0.0023323615   0.0019701064   19.988273      18.500774      1.4874982     -1.9047647      17942.404    
     24000   0.98944519     0.0023323615   0.0025522113   20.260065      18.790739      1.4693261     -1.6902959      17902.123    
     25000   0.93610805     0.0023323615  -0.00088544353  20.117798      18.727678      1.3901205     -1.7575344      17877.946    
     26000   0.96073017     0.0023323615   0.0022317229   20.47444       19.047755      1.4266843     -1.5206227      17945.908    
     27000   1.0676587      0.0023323615  -0.00021716202  20.423473      18.838         1.5854732     -1.6300354      17974.567    
     28000   0.92777158     0.0023323615  -0.0024375916   20.170141      18.7924        1.3777408     -1.7535462      17942.217    
     29000   0.86376545     0.0023323615   0.0017084321   20.011687      18.728996      1.2826917     -1.7376283      17773.008    
     30000   0.94710627     0.0023323615  -0.001174498    19.975654      18.569201      1.4064528     -1.9331546      18090.059    
     31000   1.0533851      0.0023323615   0.00219951     20.472854      18.908577      1.5642768     -1.6818417      18150.793    
     32000   0.91691494     0.0023323615  -0.0018164335   20.072424      18.710806      1.3616187     -1.8097593      18170.394    
     33000   0.89833539     0.0023323615   0.00096186742  19.984139      18.650111      1.3340281     -1.9283918      18020.493    
     34000   0.93630284     0.0023323615   0.001496195    20.240777      18.850367      1.3904097     -1.7155314      18112.024    
     35000   1.0234475      0.0023323615   0.0018194633   20.197264      18.677445      1.5198195     -1.8116273      18062.724    
     36000   0.9272324      0.0023323615   0.0023182746   20.203441      18.826501      1.3769401     -1.8685212      17858.769    
     37000   1.0620502      0.0023323615   0.0015415765   20.318598      18.741454      1.5771446     -1.8357086      18060.57     
     38000   1.0185141      0.0023323615  -0.0026316231   20.411074      18.89858       1.5124935     -1.5765745      17943.446    
     39000   1.1281502      0.0023323615  -0.00078182517  20.780107      19.104803      1.6753031     -1.425239       18009.477    
     40000   1.0408095      0.0023323615   0.00019292685  20.294351      18.748749      1.5456021     -1.7318321      18188.635    
     41000   0.92600283     0.0023323615  -0.0009321908   20.086201      18.711087      1.3751142     -1.7793534      17956.707    
     42000   0.94031752     0.0023323615   0.0024580351   19.931034      18.534662      1.3963715     -1.8680885      18053.763    
     43000   0.98679959     0.0023323615  -0.0020971551   20.085473      18.620076      1.4653974     -1.8680091      17941.14     
     44000   1.041337       0.0023323615   0.0030832385   20.557693      19.011308      1.5463854     -1.5717335      17865.268    
     45000   0.9204476      0.0023323615   0.0011610781   19.990164      18.623299      1.3668647     -1.7951518      17937.023    
     46000   1.1703853      0.0023323615   8.4019504e-05  20.553462      18.81544       1.7380222     -1.6224699      18109.306    
     47000   0.95982463     0.0023323615   0.0023379451   20.26198       18.83664       1.4253396     -1.5862918      18044.898    
     48000   1.0929103      0.0023323615  -0.0011150619   20.340918      18.717946      1.6229719     -1.7684449      18102.038    
     49000   1.019214       0.0023323615   0.0030655829   20.494149      18.980616      1.5135328     -1.573035       18169.164    
     50000   0.94666634     0.0023323615   0.00057451826  20.360334      18.954534      1.4057995     -1.5771674      18380.298    
     51000   1.1084655      0.0023323615   0.0013248788   20.427603      18.781532      1.6460712     -1.6709001      18116.86     
     52000   0.87065798     0.0023323615   0.0058583441   19.974239      18.681311      1.2929271     -1.8739564      17936.771    
     53000   0.97666346     0.0023323615  -0.003836545    20.333535      18.88319       1.4503452     -1.6418036      17953.416    
     54000   1.1376661      0.0023323615   0.0070328099   20.431355      18.741921      1.6894342     -1.7877666      18009.019    
     55000   0.99183515     0.0023323615  -0.0056090165   20.121791      18.648916      1.4728752     -1.7897107      17994.146    
     56000   1.0965908      0.0023323615  -0.0012427685   20.225914      18.597477      1.6284373     -1.8186845      18022.448    
     57000   0.95550396     0.0023323615  -0.00091809609  20.359072      18.940149      1.4189234     -1.5658647      18034.767    
     58000   0.92544123     0.0023323615  -0.0022733713   20.182635      18.808354      1.3742802     -1.7478451      18106.763    
     59000   1.0422712      0.0023323615  -0.0050487032   20.287988      18.740215      1.5477728     -1.8590471      17925.397    
     60000   1.1050285      0.0023323615   8.7635144e-05  20.48239       18.841423      1.6409673     -1.6473874      18060.567    
     61000   0.9807536      0.0023323615  -0.0032024578   20.200265      18.743846      1.4564191     -1.7584611      18068.649    
     62000   0.95673767     0.0023323615   0.002049474    20.215314      18.794559      1.4207554     -1.7353977      18020.584    
     63000   1.0717331      0.0023323615  -0.00033572693  20.390807      18.799284      1.5915237     -1.7201737      18175.549    
     64000   0.98306455     0.0023323615  -0.0010931987   20.480998      19.021147      1.4598509     -1.6143205      18099.064    
     65000   0.84885083     0.0023323615  -0.0017438483   19.787434      18.526891      1.2605435     -1.9845611      17962.362    
     66000   1.1000481      0.0023323615   0.00033623949  20.683313      19.049741      1.6335715     -1.4788633      17859.674    
     67000   1.0791986      0.0023323615  -0.002834789    20.5088        18.90619       1.6026099     -1.5732895      17688.718    
     68000   0.96871664     0.0023323615  -0.0022988339   20.043556      18.605012      1.4385442     -1.863114       17905.685    
     69000   1.0400089      0.0023323615  -0.00033958236  20.072435      18.528022      1.5444132     -1.8941893      17802.355    
     70000   1.0545414      0.0023323615   0.0009947568   20.256376      18.690382      1.565994      -1.7976631      17862.403    
     71000   1.0221624      0.0023323615  -0.0020187039   20.359466      18.841555      1.5179112     -1.7117093      17925.008    
     72000   0.95251355     0.0023323615  -9.6395943e-05  20.294648      18.880165      1.4144826     -1.6212265      17800.482    
     73000   1.0369794      0.0023323615   0.0011258787   20.250699      18.710785      1.5399144     -1.6948403      17961.347    
     74000   0.96549494     0.0023323615   0.00021777099  20.257194      18.823434      1.43376       -1.7574835      18167.424    
     75000   1.1255128      0.0023323615  -0.00089073102  20.446354      18.774967      1.6713865     -1.7231608      17703.724    
     76000   1.002385       0.0023323615  -0.00037805848  20.564132      19.07559       1.4885417     -1.4968101      18001.194    
     77000   1.0020534      0.0023323615  -0.0031607262   20.526376      19.038327      1.4880493     -1.5200286      17981.671    
     78000   1.1266024      0.0023323615   0.0019023627   20.499053      18.826048      1.6730046     -1.7137277      17750.911    
     79000   1.1855005      0.0023323615  -0.0031388351   20.487061      18.726593      1.7604683     -1.6939611      17924.061    
     80000   1.0899143      0.0023323615   0.00081756886  20.32758       18.709058      1.6185227     -1.7426974      18023.311    
     81000   1.0437198      0.0023323615   0.0083834827   20.198087      18.648164      1.5499239     -1.7920342      17989.797    
     82000   0.90074928     0.0023323615   0.001295319    19.960327      18.622714      1.3376127     -1.8887969      17969.509    
     83000   0.93181519     0.0023323615  -0.0069853144   20.34547       18.961725      1.3837456     -1.5619369      17933.648    
     84000   1.0372805      0.0023323615   0.0016105994   20.519317      18.978956      1.5403616     -1.5750974      18091.961    
     85000   1.0086475      0.0023323615   0.0015149341   20.508257      19.010416      1.4978416     -1.5653559      18124.169    
     86000   1.0170256      0.0023323615   0.0024805581   20.427357      18.917074      1.510283      -1.6626477      18092.519    
     87000   1.0570398      0.0023323615   0.001675619    20.287192      18.717488      1.5697041     -1.7496896      17971.318    
     88000   0.88453286     0.0023323615  -0.0011865805   20.115394      18.801863      1.3135313     -1.6780472      17941.533    
     89000   1.0291114      0.0023323615  -0.0013724432   20.500944      18.972713      1.5282304     -1.5740258      18114.919    
     90000   0.98657722     0.0023323615   0.0026709277   20.448744      18.983677      1.4650672     -1.5044153      18242.156    
     91000   0.96059824     0.0023323615  -0.00023076978  20.437998      19.01151       1.4264884     -1.6412725      18303.55     
     92000   1.0312308      0.0023323615  -0.0032976609   20.468428      18.93705       1.5313778     -1.6234185      17997.27     
     93000   1.0266782      0.0023323615  -0.001852643    20.334652      18.810035      1.5246172     -1.8683153      17849.6      
     94000   1.0933226      0.0023323615  -0.0029964772   20.904624      19.28104       1.6235841     -1.4649667      17865.782    
     95000   1.0285205      0.0023323615   0.0028676908   20.385288      18.857935      1.5273529     -1.7208405      18021.326    
     96000   1.0486977      0.0023323615  -0.00016162193  20.53038       18.973064      1.5573162     -1.5514812      17925.838    
     97000   0.99010737     0.0023323615  -0.0014163127   20.409155      18.938845      1.4703094     -1.5667146      17932.343    
     98000   0.97684703     0.0023323615   0.0018644405   20.828071      19.377453      1.4506178     -1.3921287      18025.843    
     99000   1.0864029      0.0023323615  -0.0014345956   20.570396      18.957087      1.6133083     -1.482795       17918.231    
    100000   0.94768688     0.0023323615   0.003795788    20.410405      19.00309       1.407315      -1.5975679      18117.754    
    101000   1.0269935      0.0023323615   0.00033862774  20.462686      18.937601      1.5250853     -1.6486357      18285.085    
    102000   0.99477728     0.0023323615   0.00303297     20.441806      18.964562      1.4772443     -1.5965831      18078.418    
    103000   1.0720442      0.0023323615   0.001688161    20.43947       18.847484      1.5919856     -1.6379417      17923.363    
    104000   1.0273921      0.0023323615  -0.0051374558   20.253355      18.727678      1.5256772     -1.8702584      17783.917    
    105000   0.98190859     0.0023323615   0.002878944    20.139637      18.681502      1.4581343     -1.8469103      17809.785    
    106000   1.0330028      0.0023323615   0.0018779302   20.361107      18.827098      1.5340091     -1.614099       17873.649    
    107000   0.93642813     0.0023323615  -0.0012655872   20.110889      18.720293      1.3905958     -1.8882073      17948.438    
    108000   1.0666976      0.0023323615   0.00053846774  20.419083      18.835037      1.5840459     -1.6801451      17945.495    
    109000   0.9622493      0.0023323615   0.003362139    20.307226      18.878286      1.4289402     -1.6138765      18187.804    
    110000   1.2157508      0.0023323615  -0.00033999454  20.484143      18.678754      1.8053899     -1.8930332      18013.803    
    111000   1.0499911      0.0023323615  -0.00090090473  20.415626      18.856389      1.5592368     -1.7688463      17865.149    
    112000   0.91769678     0.0023323615   0.00075272584  20.051647      18.688867      1.3627797     -1.898703       17784.795    
    113000   0.81090499     0.0023323615   0.00026632259  19.934052      18.729858      1.2041939     -1.7517257      17930.127    
    114000   1.0261449      0.0023323615  -0.0044072209   20.252337      18.728512      1.5238251     -1.9041591      18022.81     
    115000   1.0030481      0.0023323615  -0.0022501048   20.348048      18.858522      1.4895264     -1.7271734      18008.17     
    116000   1.1134192      0.0023323615   0.0044002461   20.570353      18.916925      1.6534275     -1.6101302      17970.389    
    117000   1.052736       0.0023323615   0.0038310138   20.610732      19.047419      1.5633129     -1.4915321      17979.673    
    118000   1.205171       0.0023323615   0.0010859749   20.513907      18.724229      1.7896789     -1.702744       18113.956    
    119000   0.96629426     0.0023323615  -7.9438051e-05  20.327818      18.892871      1.434947      -1.5825953      17949.909    
    120000   1.1038936      0.0023323615   0.0023226638   20.33499       18.695708      1.6392821     -1.7438408      17967.931    
    121000   0.90882917     0.0023323615  -0.00071191268  20.270582      18.920971      1.3496113     -1.6078297      17802.584    
    122000   0.95352807     0.0023323615  -0.001039807    20.151736      18.735747      1.4159892     -1.8651506      18121.764    
    123000   0.92179038     0.0023323615   0.0021156521   20.326281      18.957422      1.3688587     -1.672237       18002.123    
    124000   0.93552074     0.0023323615   0.00019648527  20.28198       18.892731      1.3892483     -1.7538368      17952.131    
    125000   1.0491978      0.0023323615   0.002240797    20.412256      18.854197      1.5580588     -1.7635819      17821.048    
    126000   1.0220965      0.0023323615   0.0013628819   20.132516      18.614702      1.5178133     -1.7559707      18013.098    
    127000   1.0173242      0.0023323615   0.0044953668   20.240212      18.729486      1.5107265     -1.7090854      17901.42     
    128000   1.0062193      0.0023323615  -0.0041130971   20.548753      19.054518      1.4942356     -1.6066916      17835.302    
    129000   1.130909       0.0023323615   0.0020037726   20.779045      19.099645      1.6793998     -1.6029202      17949.88     
    130000   1.0627403      0.0023323615   0.00041748815  20.539275      18.961106      1.5781694     -1.5930165      17884.538    
    131000   0.93386667     0.0023323615  -0.0036199422   20.21362       18.826828      1.386792      -1.6880504      17803.864    
    132000   1.0094603      0.0023323615   0.0033129866   20.191879      18.69283       1.4990486     -1.7089251      17871.749    
    133000   0.95345207     0.0023323615   0.0010271434   20.10938       18.693504      1.4158763     -1.7351353      17795.341    
    134000   0.93123717     0.0023323615  -0.0021970076   20.094243      18.711356      1.3828872     -1.7303153      17761.568    
    135000   0.99578988     0.0023323615  -0.00050035002  20.032962      18.554214      1.478748      -1.9176036      17915.059    
    136000   0.92237833     0.0023323615   0.0031331645   20.067546      18.697814      1.3697318     -1.804576       17803.902    
    137000   1.0168176      0.0023323615   0.00090080712  20.176326      18.666352      1.5099741     -1.7781247      17895.062    
    138000   1.1077686      0.0023323615   0.00051800889  20.673986      19.028949      1.6450364     -1.6322323      17887.013    
    139000   1.1734811      0.0023323615   0.00084131285  20.707419      18.9648        1.7426194     -1.6803768      17911.716    
    140000   1.1517972      0.0023323615  -0.00051943769  20.488723      18.778304      1.7104189     -1.7825576      18099.156    
    141000   1.0164248      0.0023323615   0.0001654405   20.432825      18.923434      1.5093909     -1.5863471      17670.302    
    142000   1.0503364      0.0023323615  -0.0015303069   20.331747      18.771997      1.5597496     -1.8276641      17922.069    
    143000   0.90150613     0.0023323615  -0.0024163301   20.034004      18.695268      1.3387366     -1.7445789      17808.968    
    144000   1.0625872      0.0023323615   0.0024847384   19.99467       18.416728      1.577942      -2.0405512      17880.463    
    145000   1.082002       0.0023323615   0.0026607879   20.393312      18.786539      1.6067729     -1.7485147      17856.162    
    146000   0.98211999     0.0023323615  -0.00079542225  20.178235      18.719787      1.4584482     -1.7244544      17561.379    
    147000   1.0655302      0.0023323615  -0.0020463427   20.353311      18.770999      1.5823124     -1.7959391      17885.593    
    148000   1.0176701      0.0023323615   0.0019234641   20.142625      18.631385      1.5112402     -1.87078        17756.105    
    149000   1.0826363      0.0023323615  -0.0041909197   20.650396      19.042681      1.6077149     -1.6861959      17947.983    
    150000   0.93300209     0.0023323615  -0.0030853554   20.421435      19.035927      1.3855081     -1.5900436      17779.498    
    151000   1.0527455      0.0023323615   0.0057080167   20.676764      19.113437      1.563327      -1.4920111      17732.052    
    152000   0.92850061     0.0023323615   0.0011200386   20.130957      18.752134      1.3788234     -1.6955328      17664.985    
    153000   0.95617762     0.0023323615   0.0031038204   20.494544      19.07462       1.4199238     -1.5759943      17848.537    
    154000   0.99871786     0.0023323615   0.0016148493   20.485087      19.001991      1.483096      -1.5477754      17892.759    
    155000   1.0409405      0.0023323615   0.00054486839  20.087626      18.54183       1.5457967     -1.9739442      17762.156    
    156000   0.99203783     0.0023323615   0.0022206413   20.133894      18.660717      1.4731762     -1.8993184      17404.097    
    157000   0.98393977     0.0023323615  -0.0025249478   20.346202      18.885052      1.4611506     -1.6499089      17878.186    
    158000   0.88473788     0.0023323615   0.0033914721   20.299543      18.985708      1.3138357     -1.6109931      17603.908    
    159000   1.142984       0.0023323615  -0.0023773972   20.586861      18.889529      1.6973313     -1.7524798      17617.15     
    160000   0.95777567     0.0023323615   0.0014813962   20.122268      18.699971      1.4222969     -1.7283901      17618.627    
    161000   0.99587277     0.0023323615   0.0020961243   20.508841      19.02997       1.4788711     -1.4597738      17909.785    
    162000   1.0463714      0.0023323615   0.0017581571   20.611398      19.057536      1.5538615     -1.5916078      17917.031    
    163000   0.98134424     0.0023323615  -0.0019937623   20.372378      18.915082      1.4572962     -1.5970641      17871.08     
    164000   0.89167985     0.0023323615  -0.00099756887  20.176386      18.852241      1.3241446     -1.7709068      17747.262    
    165000   0.91389638     0.0023323615   0.00090595859  20.40816       19.051024      1.3571361     -1.6723764      17784.516    
    166000   1.2084502      0.0023323615   0.0059857759   20.640192      18.845644      1.7945485     -1.764108       17641.1      
    167000   1.053445       0.0023323615   0.0016835148   20.449479      18.885113      1.5643658     -1.5183533      17833.08     
    168000   1.0543272      0.0023323615  -0.0035539377   20.44086       18.875184      1.5656759     -1.6519439      18096.022    
    169000   1.0190795      0.0023323615   0.001760213    20.428505      18.915172      1.5133331     -1.6252531      18141.078    
    170000   0.94924184     0.0023323615  -0.0010209235   20.693659      19.284035      1.4096241     -1.2952695      17931.371    
    171000   1.0079601      0.0023323615   0.0019453846   20.419114      18.922294      1.4968208     -1.5619087      17901.68     
    172000   1.0871111      0.0023323615  -0.00035136628  20.325502      18.711142      1.61436       -1.8034373      17529.321    
    173000   0.93124624     0.0023323615   0.004484089    20.122265      18.739364      1.3829007     -1.7075793      17579.209    
    174000   1.0425653      0.0023323615  -0.0003363513   20.286223      18.738014      1.5482094     -1.8411219      17770.957    
    175000   1.0223371      0.0023323615   0.0016825791   20.231775      18.713605      1.5181705     -1.7738979      17925.684    
    176000   0.91658888     0.0023323615   0.0019992352   20.122825      18.761691      1.3611345     -1.7235654      17959.689    
    177000   1.0126744      0.0023323615  -0.0023013474   20.099668      18.595847      1.5038215     -1.9579057      17796.093    
    178000   0.9649162      0.0023323615  -0.00071498855  19.986376      18.553475      1.4329006     -2.0485103      17740.203    
    179000   1.1279281      0.0023323615   0.0029218281   20.743475      19.068502      1.6749732     -1.4985938      17866.473    
    180000   0.99852115     0.0023323615   0.0013538577   20.22522       18.742416      1.4828039     -1.7806337      17896.371    
    181000   1.1200787      0.0023323615   0.0001632275   20.450868      18.787551      1.6633169     -1.8007349      17834.151    
    182000   0.98013733     0.0023323615   0.0049107441   20.20876       18.753256      1.4555039     -1.6449362      17730.506    
    183000   0.96349971     0.0023323615   0.00025209393  20.232966      18.802169      1.4307971     -1.7669827      17624.491    
    184000   0.95091154     0.0023323615  -0.0037384488   20.270744      18.85864       1.4121036     -1.7935892      17830.755    
    185000   1.0658581      0.0023323615  -0.003742218    20.52067       18.937871      1.5827992     -1.6664016      17528.007    
    186000   1.1216312      0.0023323615  -0.0016800707   20.483644      18.818022      1.6656223     -1.6988638      17603.482    
    187000   1.0265543      0.0023323615  -0.00028525619  20.207999      18.683566      1.5244331     -1.803922       17538.978    
    188000   1.0015066      0.0023323615   0.0044165036   20.003734      18.516496      1.4872374     -1.8714096      17431.021    
    189000   1.0276363      0.0023323615   5.4981341e-05  20.499722      18.973682      1.5260399     -1.622672       17921.525    
    190000   0.97591954     0.0023323615  -0.0017108552   20.021643      18.572403      1.4492405     -1.8164532      17656.332    
    191000   0.93819649     0.0023323615   0.00085609549  20.356509      18.963287      1.3932218     -1.5671962      17807.04     
    192000   1.0242648      0.0023323615   0.00041205351  20.611859      19.090825      1.5210333     -1.4165179      17873.822    
    193000   1.0050508      0.0023323615   0.00094104135  20.257443      18.764942      1.4925004     -1.681929       17772.982    
    194000   0.91625221     0.0023323615  -0.0037729486   20.195358      18.834723      1.3606345     -1.6547179      17680.693    
    195000   0.89625939     0.0023323615   0.001424311    20.246601      18.915656      1.3309452     -1.6178824      17595.472    
    196000   1.2090703      0.0023323615   0.0013757538   20.83972       19.04425       1.7954694     -1.5907995      17546.877    
    197000   1.0643521      0.0023323615  -0.0016984079   20.517173      18.93661       1.5805628     -1.6631492      17914.281    
    198000   1.0881121      0.0023323615  -0.00055370254  20.181529      18.565682      1.6158465     -1.8856496      17493.579    
    199000   0.91188707     0.0023323615  -0.0041079694   20.072081      18.717929      1.3541523     -1.7899385      17652.704    
    200000   0.98380872     0.0023323615   0.0011576734   20.161111      18.700155      1.4609559     -1.7935932      17626.312    
    201000   0.99064324     0.0023323615   0.0016881      20.68413       19.213024      1.4711052     -1.347106       17710.249    
    202000   1.0141141      0.0023323615  -0.00030234071  20.323907      18.817948      1.5059594     -1.6694801      17764.015    
    203000   1.0766331      0.0023323615  -0.00065628438  20.620921      19.022121      1.5988001     -1.5172528      18041.245    
    204000   1.0290314      0.0023323615  -0.00360945     20.524557      18.996446      1.5281117     -1.5214841      18064.018    
    205000   0.94658378     0.0023323615  -0.00085601232  20.363219      18.957542      1.4056769     -1.5069975      17995.651    
    206000   0.97765729     0.0023323615  -0.0037789373   20.300188      18.848367      1.4518211     -1.541733       17997.4      
    207000   0.9792785      0.0023323615   0.00064962607  20.114264      18.660035      1.4542286     -1.8354865      17950.4      
    208000   0.96812814     0.0023323615   0.00093363211  20.322154      18.884484      1.4376703     -1.7192993      17952.763    
    209000   0.93507978     0.0023323615   0.0012664109   20.207727      18.819133      1.3885935     -1.7213792      17831.15     
    210000   1.0782348      0.0023323615   0.0011876524   20.608207      19.007029      1.6011787     -1.5717371      17949.274    
    211000   1.0065639      0.0023323615  -0.003079461    20.364841      18.870094      1.4947474     -1.6813409      17750.09     
    212000   0.98536022     0.0023323615   0.0004691147   20.360795      18.897535      1.4632599     -1.5169038      18009.707    
    213000   0.94228465     0.0023323615   0.0038981315   20.182062      18.78277       1.3992927     -1.5859641      18089.312    
    214000   1.0461362      0.0023323615  -0.0037595666   20.462828      18.909315      1.5535122     -1.6207261      18030.535    
    215000   1.0663127      0.0023323615   0.002405756    20.329656      18.746182      1.5834743     -1.7355005      18050.041    
    216000   1.0844803      0.0023323615  -0.0045140002   20.443821      18.833367      1.6104533     -1.6629899      17980.917    
    217000   0.99837003     0.0023323615   0.0002277498   20.378823      18.896244      1.4825795     -1.5299574      17902.916    
    218000   0.94428199     0.0023323615  -2.7490098e-06  20.319558      18.917299      1.4022588     -1.5803501      17899.022    
    219000   1.0057573      0.0023323615  -0.0042309047   20.427987      18.934437      1.4935496     -1.6832116      17730.855    
    220000   0.95416821     0.0023323615   0.0053828105   20.259915      18.842976      1.4169398     -1.6041758      17954.859    
    221000   0.9228788      0.0023323615   0.00026027285  20.173254      18.802779      1.370475      -1.6327634      18254.683    
    222000   0.91753637     0.0023323615   0.001008673    20.257904      18.895362      1.3625415     -1.5500044      18253.151    
    223000   0.99239929     0.0023323615  -0.0019111532   20.594575      19.120862      1.473713      -1.5054019      18216.21     
    224000   0.99027049     0.0023323615  -0.0018311218   20.376034      18.905482      1.4705517     -1.6164502      17966.588    
    225000   1.0174686      0.0023323615   0.0029700493   20.464128      18.953188      1.5109408     -1.5450115      18214.854    
    226000   0.98766833     0.0023323615  -0.00048291799  20.425055      18.958368      1.4666875     -1.5798819      18174.54     
    227000   1.0273201      0.0023323615   0.0034200872   20.255914      18.730344      1.5255703     -1.7340145      18234.97     
    228000   0.97769791     0.0023323615  -0.0041421036   20.24263       18.790749      1.4518814     -1.6912526      17863.186    
    229000   1.0327592      0.0023323615   0.0014211157   20.193076      18.659429      1.5336474     -1.7589218      17944.685    
    230000   1.0561459      0.0023323615   0.0016183485   20.225813      18.657436      1.5683767     -1.8613687      17954.572    
    231000   0.95130986     0.0023323615   0.0032109576   20.155547      18.742852      1.4126951     -1.7103189      17870.558    
    232000   1.1796167      0.0023323615   0.0015231138   20.479291      18.72756       1.7517308     -1.6459808      17947.682    
    233000   0.99350188     0.0023323615  -0.0016024028   20.064707      18.589356      1.4753503     -1.9310755      17806.91     
    234000   0.98222974     0.0023323615  -0.0023999262   20.429022      18.97041       1.4586112     -1.6385061      17806.846    
    235000   1.003712       0.0023323615  -0.0042852703   20.178569      18.688056      1.4905123     -1.8405961      17952.392    
    236000   0.89783315     0.0023323615  -0.0016907273   19.941394      18.608112      1.3332822     -1.9067166      17848.272    
    237000   0.89792364     0.0023323615  -0.0012464969   20.010983      18.677566      1.3334166     -1.8506556      17869.704    
    238000   1.009273       0.0023323615   0.0031361379   20.360073      18.861302      1.4987705     -1.735173       18074.997    
    239000   0.87249489     0.0023323615   0.0016917757   20.125294      18.82964       1.2956549     -1.8184977      17959.399    
    240000   0.92999614     0.0023323615  -0.0011124065   19.997544      18.6165        1.3810443     -1.928497       18060.587    
    241000   1.0056936      0.0023323615   0.0027504749   20.043063      18.549608      1.493455      -1.92768        17982.65     
    242000   0.93951333     0.0023323615  -0.0030004291   20.169505      18.774328      1.3951773     -1.6852526      17928.984    
    243000   0.87904014     0.0023323615  -6.5584281e-05  20.190687      18.885312      1.3053746     -1.623813       17855.229    
    244000   0.98613155     0.0023323615  -4.2106132e-05  20.301009      18.836604      1.4644054     -1.6512569      18062.178    
    245000   1.0410059      0.0023323615  -0.0048859897   20.470871      18.924977      1.5458938     -1.6657607      18147.292    
    246000   1.1816961      0.0023323615  -0.0005415815   20.348428      18.593609      1.7548187     -1.836167       18080.73     
    247000   1.1312468      0.0023323615  -0.00044679623  20.598932      18.919031      1.6799015     -1.6925833      17965.359    
    248000   1.0760791      0.0023323615  -0.0016223979   20.546672      18.948694      1.5979775     -1.6009808      18009.668    
    249000   0.99802136     0.0023323615   0.00057951208  20.24168       18.759618      1.4820617     -1.706569       18113.901    
    250000   0.87795862     0.0023323615  -0.003454529    20.061979      18.758211      1.3037685     -1.6931967      18008.261    
    251000   0.94284635     0.0023323615   0.00077664125  20.208461      18.808334      1.4001268     -1.6369184      18108.859    
    252000   0.88505009     0.0023323615   0.0016399036   19.861531      18.547232      1.3142994     -1.9082105      17998.591    
    253000   1.0177745      0.0023323615   0.0010517782   20.187074      18.675679      1.5113951     -1.8571074      18116.36     
    254000   1.0076252      0.0023323615  -0.0035673663   20.481476      18.985152      1.4963235     -1.5475708      18044.64     
    255000   1.0329678      0.0023323615   0.0018996384   20.44442       18.910463      1.5339572     -1.6204368      18125.877    
    256000   1.043415       0.0023323615   0.00087809326  20.676867      19.127396      1.5494713     -1.4445498      18070.478    
    257000   0.87050578     0.0023323615  -0.0035068021   20.019149      18.726448      1.2927011     -1.7467414      17894.767    
    258000   0.84461546     0.0023323615   0.00036001782  19.996084      18.74183       1.254254      -1.6921204      17829.404    
    259000   0.9281263      0.0023323615  -0.0023261249   20.289942      18.911675      1.3782676     -1.5081405      18045.821    
    260000   1.0012809      0.0023323615   0.00075941549  20.473494      18.986592      1.4869021     -1.5682965      18022.123    
    261000   1.0446733      0.0023323615   0.002915704    20.508138      18.956798      1.5513399     -1.5189561      17937.445    
    262000   1.1207118      0.0023323615  -0.0010992145   20.561374      18.897117      1.6642571     -1.7190386      18041.049    
    263000   0.85048379     0.0023323615   0.003674279    20.149842      18.886873      1.2629684     -1.5578956      17924.74     
    264000   0.99242696     0.0023323615  -0.0017813458   20.352345      18.878591      1.473754      -1.6270732      17714.551    
    265000   0.95294525     0.0023323615  -0.0026269855   20.180954      18.76583       1.4151237     -1.6288889      17904.185    
    266000   0.87740577     0.0023323615   0.0064770037   20.310228      19.007281      1.3029476     -1.5897512      18004.351    
    267000   0.94140047     0.0023323615  -0.00258593     20.368194      18.970215      1.3979797     -1.53183        18085.89     
    268000   0.90852695     0.0023323615   0.002571334    20.054711      18.705548      1.3491625     -1.7584296      18228.17     
    269000   0.88471605     0.0023323615  -0.0022441829   20.081464      18.76766       1.3138033     -1.8180257      18004.665    
    270000   0.96911431     0.0023323615   1.5227318e-05  20.387729      18.948595      1.4391348     -1.6867712      18148.14     
    271000   0.97634327     0.0023323615  -0.00087753067  20.626001      19.176131      1.4498697     -1.4726885      18079.433    
    272000   0.98788949     0.0023323615  -0.0030755045   20.235286      18.76827       1.4670159     -1.7431278      18245.51     
    273000   0.9494223      0.0023323615  -0.0011190026   20.349289      18.939397      1.4098921     -1.6197424      18052.038    
    274000   1.1523321      0.0023323615  -0.0028482999   19.981871      18.270658      1.7112132     -2.06582        18000.925    
    275000   1.0354852      0.0023323615   0.0002136157   20.171552      18.633857      1.5376955     -1.8361798      17926.572    
    276000   0.96064837     0.0023323615  -0.0050416429   20.114999      18.688436      1.4265628     -1.8977347      18029.969    
    277000   0.97558026     0.0023323615  -0.00070036965  20.205966      18.757229      1.4487367     -1.7465484      18049.218    
    278000   0.90578874     0.0023323615  -0.0022778641   20.15472       18.809624      1.3450963     -1.6715367      17870.836    
    279000   0.87361825     0.0023323615   0.0033016123   20.098328      18.801005      1.2973231     -1.7945199      18009.409    
    280000   0.90889367     0.0023323615   0.0015605802   20.036909      18.687202      1.3497071     -1.8202572      17883.699    
    281000   0.93504216     0.0023323615   0.0031827166   20.44325       19.054713      1.3885376     -1.4944367      18117.721    
    282000   1.0280539      0.0023323615   0.0029531202   20.168132      18.641472      1.5266601     -1.844942       18040.397    
    283000   0.98340067     0.0023323615  -0.00028395514  20.281248      18.820898      1.46035       -1.7449852      17972.483    
    284000   1.0532191      0.0023323615   0.0024356198   20.193056      18.629026      1.5640304     -1.9432659      18003.367    
    285000   1.0527032      0.0023323615  -0.00083328689  20.496728      18.933463      1.5632643     -1.5555395      17851.522    
    286000   0.85913112     0.0023323615  -0.0048781351   20.278955      19.003146      1.2758097     -1.5000679      18261.042    
    287000   1.0585597      0.0023323615  -0.0026931996   20.463915      18.891953      1.5719612     -1.6609995      18032.418    
    288000   0.94905642     0.0023323615   0.0017850966   20.08112       18.671772      1.4093488     -1.866536       17890.697    
    289000   1.0100918      0.0023323615  -0.00011838951  20.057056      18.55707       1.4999864     -1.9016771      17543.543    
    290000   0.85647856     0.0023323615  -0.0039160133   20.219464      18.947593      1.2718707     -1.7289557      17749.313    
    291000   1.0196547      0.0023323615  -0.00036966798  20.258326      18.744139      1.5141872     -1.7535174      17779.073    
    292000   0.96641914     0.0023323615  -0.0036490741   20.413411      18.978279      1.4351324     -1.6245642      17927.548    
    293000   1.1650059      0.0023323615   0.0015936544   20.793672      19.063638      1.7300338     -1.441746       17874.703    
    294000   0.92467579     0.0023323615  -0.0026197379   20.014281      18.641138      1.3731436     -1.8735314      17881.517    
    295000   1.035419       0.0023323615   0.0022823674   20.5071        18.969503      1.5375972     -1.5748933      17786.173    
    296000   0.95733821     0.0023323615   0.00054169041  20.284107      18.86246       1.4216472     -1.6837941      17985.725    
    297000   1.0288802      0.0023323615   0.00065599133  20.116013      18.588126      1.5278871     -1.8975922      17943.862    
    298000   0.90791207     0.0023323615   0.00053374493  19.983891      18.635642      1.3482494     -1.8314895      17907.275    
    299000   1.0642821      0.0023323615  -2.0799026e-05  20.140087      18.559628      1.5804589     -1.8628269      18019.881    
    300000   1.158791       0.0023323615  -0.00061194291  20.327531      18.606726      1.7208046     -1.8251986      17925.493    
    301000   0.93634885     0.0023323615   0.00049696449  20.114277      18.723799      1.390478      -1.7276066      18120.195    
    302000   0.98309695     0.0023323615  -0.0014158155   20.259625      18.799726      1.459899      -1.7666102      18082.964    
    303000   1.0891565      0.0023323615  -0.00047976818  20.588008      18.970611      1.6173974     -1.4964511      18169.59     
    304000   0.99385779     0.0023323615   0.0016880551   20.242892      18.767013      1.4758788     -1.6669804      18107.151    
    305000   1.0486203      0.0023323615   0.00019646926  20.171871      18.61467       1.5572011     -1.8967237      18107.989    
    306000   0.9261673      0.0023323615   0.00096929248  20.195157      18.819798      1.3753584     -1.6411898      18118.645    
    307000   0.89097344     0.0023323615   0.001189154    20.127332      18.804236      1.3230956     -1.7460749      18131.031    
    308000   1.0327003      0.0023323615  -0.0010730689   20.546969      19.013409      1.5335599     -1.4771666      18176.81     
    309000   1.0926349      0.0023323615   0.0041796215   20.504643      18.882081      1.6225629     -1.5549313      18080.999    
    310000   0.96567902     0.0023323615   0.0023100757   20.323573      18.88954       1.4340333     -1.6185994      18084.625    
    311000   0.79702561     0.0023323615   0.0025820835   19.935464      18.751881      1.183583      -1.7640567      17951.763    
    312000   1.0060659      0.0023323615   0.0057478479   20.397161      18.903153      1.4940079     -1.6426278      17898.175    
    313000   1.0516902      0.0023323615  -0.0031509848   20.367273      18.805514      1.5617599     -1.7087333      18129.436    
    314000   0.81119104     0.0023323615  -0.0035451959   19.850657      18.646039      1.2046187     -1.7373289      18268.796    
    315000   0.94102564     0.0023323615  -0.0052857804   20.086622      18.689199      1.3974231     -1.8114203      18099.704    
    316000   0.98450045     0.0023323615  -0.0045034302   20.372849      18.910866      1.4619832     -1.6408866      18017.718    
    317000   1.0199343      0.0023323615  -0.0026718125   20.220103      18.705501      1.5146024     -1.8923606      17960.53     
    318000   1.0134322      0.0023323615   0.0047438659   20.206202      18.701256      1.5049468     -1.856314       18099.405    
    319000   0.95355393     0.0023323615  -0.0039536585   20.063096      18.647068      1.4160276     -1.8848254      18221.884    
    320000   0.93719637     0.0023323615   0.00056793359  20.280708      18.888971      1.3917366     -1.6106624      18266.002    
    321000   1.2561641      0.0023323615  -0.00026930394  20.557079      18.691676      1.8654037     -1.7490084      18058.358    
    322000   1.01561        0.0023323615   0.00095903644  20.352681      18.8445        1.5081809     -1.8022741      17840.925    
    323000   0.90641034     0.0023323615   0.0013798025   20.436314      19.090295      1.3460194     -1.5472103      18300.252    
    324000   0.9345456      0.0023323615   0.0049703772   20.221041      18.833241      1.3878002     -1.6221591      18173.034    
    325000   0.9909028      0.0023323615  -0.00076686     20.204432      18.732941      1.4714907     -1.7757147      18082.453    
    326000   0.96294225     0.0023323615  -0.0015810162   20.221842      18.791873      1.4299692     -1.631005       18189.875    
    327000   1.0172514      0.0023323615  -0.0021987018   20.471711      18.961093      1.5106184     -1.5483275      18245.734    
    328000   0.96913894     0.0023323615   0.00092313257  19.999283      18.560112      1.4391713     -1.8664709      18297.155    
    329000   1.0846115      0.0023323615  -0.0030157136   20.307515      18.696867      1.6106481     -1.6755015      18075.21     
    330000   1.027589       0.0023323615  -0.00046478966  20.316607      18.790638      1.5259696     -1.6323385      17898.184    
    331000   0.95462783     0.0023323615  -0.0012526692   20.263199      18.845576      1.4176223     -1.6857165      18191.599    
    332000   1.1827508      0.0023323615   0.0022111993   20.593351      18.836966      1.7563849     -1.7024888      18031.278    
    333000   1.0425131      0.0023323615  -8.9987812e-05  20.089802      18.54167       1.548132      -1.9398714      17960.307    
    334000   1.0503386      0.0023323615  -0.00025339339  20.146572      18.58682       1.5597528     -1.7803835      18129.808    
    335000   0.98721934     0.0023323615  -0.0014508416   20.369195      18.903174      1.4660207     -1.6548806      17875.788    
    336000   1.0503402      0.0023323615  -0.0020430682   20.400981      18.841226      1.5597551     -1.6715008      17999.422    
    337000   1.0453375      0.0023323615   0.00036801023  20.601451      19.049124      1.5523262     -1.5824995      18001.259    
    338000   0.94031719     0.0023323615  -0.0021452728   20.38763       18.991259      1.396371      -1.5761553      17769.555    
    339000   0.9302497      0.0023323615   0.002830531    20.630785      19.249364      1.3814208     -1.3076547      18052.969    
    340000   1.0266423      0.0023323615   0.0021944148   20.367017      18.842453      1.5245639     -1.5670834      18125.598    
    341000   0.9274052      0.0023323615   0.0032980555   20.334009      18.956812      1.3771967     -1.5231882      18209.71     
    342000   1.0441757      0.0023323615   0.00052305971  20.255512      18.704911      1.5506009     -1.806569       17989.083    
    343000   1.0923971      0.0023323615   0.00015586223  20.245505      18.623296      1.6222097     -1.8347891      17882.129    
    344000   0.76768423     0.0023323615  -0.00067742002  19.633954      18.493943      1.1400111     -1.9079866      17953.09     
    345000   0.96148984     0.0023323615  -0.0022899412   20.060079      18.632267      1.4278124     -1.7401919      17988.957    
    346000   0.93144454     0.0023323615  -0.0015834724   20.425528      19.042333      1.3831951     -1.4937841      18064.849    
    347000   0.92644623     0.0023323615  -0.0019289606   20.172989      18.797216      1.3757727     -1.6930121      18080.553    
    348000   1.0162772      0.0023323615   0.0044631924   20.002896      18.493725      1.5091717     -1.9732827      17865.725    
    349000   1.0354222      0.0023323615  -0.0019780593   20.350515      18.812913      1.537602      -1.8009843      17670.136    
    350000   0.94283145     0.0023323615   0.00021020166  20.160813      18.760708      1.4001047     -1.7914208      18017.09     
    351000   0.91411867     0.0023323615  -0.00059098815  20.071506      18.71404       1.3574662     -1.7051567      17848.279    
    352000   0.94860568     0.0023323615  -0.0016432453   20.330449      18.921769      1.4086794     -1.6387127      17727.854    
    353000   1.0358806      0.0023323615   0.0014073715   20.436033      18.897751      1.5382827     -1.6273307      18056.382    
    354000   0.93721226     0.0023323615  -0.0026826449   20.043786      18.652025      1.3917602     -1.7036963      18121.474    
    355000   0.88247751     0.0023323615  -0.0016292296   20.118874      18.808395      1.3104791     -1.6359847      18234.647    
    356000   0.97677728     0.0023323615  -0.00033812957  20.65783       19.207316      1.4505143     -1.4003971      18224.599    
    357000   1.0137622      0.0023323615   0.0002791044   20.309162      18.803725      1.5054369     -1.6924737      18097.154    
    358000   1.0334143      0.0023323615  -0.0027950868   20.277848      18.743228      1.5346203     -1.7453803      18094.513    
    359000   1.1033207      0.0023323615   0.0034475721   20.368024      18.729593      1.6384313     -1.7146822      18034.715    
    360000   1.0204187      0.0023323615   0.0016299468   20.335234      18.819912      1.5153217     -1.7414814      18044.412    
    361000   1.0512916      0.0023323615   0.0010380332   20.285216      18.724048      1.561168      -1.7543418      17928.378    
    362000   0.89975893     0.0023323615   0.004736664    20.023897      18.687755      1.336142      -1.8387462      18028.835    
    363000   0.8711816      0.0023323615  -0.00029850481  19.951754      18.658049      1.2937047     -1.7862242      17906.292    
    364000   0.99093112     0.0023323615  -0.0059261277   20.158839      18.687306      1.4715327     -1.8768639      17952.919    
    365000   0.98936828     0.0023323615  -0.0033447702   20.393599      18.924387      1.4692119     -1.5400911      17890.523    
    366000   1.003197       0.0023323615   0.0022125956   20.548538      19.058791      1.4897476     -1.6738045      17869.583    
    367000   1.1304164      0.0023323615   0.0013776401   20.332809      18.65414       1.6786683     -1.7995547      17768.622    
    368000   0.97961522     0.0023323615   0.0029220334   20.002146      18.547418      1.4547286     -1.9138352      17723.592    
    369000   0.96613062     0.0023323615  -0.001706788    20.037117      18.602413      1.434704      -1.854033       17769.976    
    370000   0.97650814     0.0023323615   0.0021899207   20.095802      18.645688      1.4501146     -1.7725936      17910.54     
    371000   1.0998556      0.0023323615  -0.0026246594   20.652564      19.019279      1.6332856     -1.5982164      17973.975    
    372000   1.0015533      0.0023323615   0.00011096619  20.244232      18.756925      1.4873066     -1.6726005      18089.486    
    373000   0.94910087     0.0023323615   0.0011184751   20.060907      18.651492      1.4094148     -1.837995       17955.047    
    374000   0.95333147     0.0023323615  -0.0025462546   19.88229       18.466593      1.4156972     -2.0727456      17962.951    
    375000   1.1274581      0.0023323615  -0.00047917839  20.39078       18.716504      1.6742753     -1.702194       17891.296    
    376000   0.96904042     0.0023323615  -0.0027452573   20.34427       18.905245      1.439025      -1.6828616      18075.534    
    377000   1.0072829      0.0023323615   0.0028510362   20.636247      19.140432      1.4958152     -1.4160606      18008.869    
    378000   1.0262528      0.0023323615   0.0048094744   20.367877      18.843891      1.5239854     -1.6079125      17975.386    
    379000   0.99811939     0.0023323615   0.0023406257   20.30114       18.818933      1.4822073     -1.5713331      17883.846    
    380000   0.90273996     0.0023323615   0.00093812701  20.379438      19.038869      1.3405688     -1.4746306      18016.417    
    381000   1.0185687      0.0023323615   0.0031938234   20.470868      18.958294      1.5125744     -1.5050612      17957.13     
    382000   1.0290682      0.0023323615   0.0023588797   20.376629      18.848463      1.5281662     -1.7026518      18176.87     
    383000   0.84456155     0.0023323615  -0.00033651593  19.888396      18.634222      1.2541739     -1.8428759      17950.226    
    384000   0.96199581     0.0023323615   0.00049568878  20.34837       18.919807      1.4285638     -1.6662399      17869.195    
    385000   0.9694327      0.0023323615   0.0019649605   20.205645      18.766037      1.4396076     -1.6883775      17927.841    
    386000   0.97659802     0.0023323615  -0.0026753782   20.19549       18.745241      1.4502481     -1.6639277      17938.757    
    387000   1.0298758      0.0023323615  -0.00070621306  20.373638      18.844272      1.5293655     -1.6043085      18047.521    
    388000   1.0229847      0.0023323615  -0.00042996479  20.113184      18.594052      1.5191323     -1.9208387      17763.626    
    389000   0.87506062     0.0023323615  -0.0013345402   20.050641      18.751176      1.299465      -1.8615879      17860.463    
    390000   1.0096021      0.0023323615   0.0030680572   20.163965      18.664706      1.4992592     -1.8847111      17759.678    
    391000   1.0718473      0.0023323615   0.00078041116  20.610988      19.019294      1.5916933     -1.5466304      18057.695    
    392000   0.96038685     0.0023323615  -0.0029049397   20.237619      18.811444      1.4261745     -1.8472432      17935.314    
    393000   0.97620727     0.0023323615  -0.00053764665  20.307401      18.857734      1.4496678     -1.6155125      17999.477    
    394000   0.94413901     0.0023323615   0.002392248    20.169136      18.76709       1.4020464     -1.7496494      17860.495    
    395000   0.88532699     0.0023323615   0.0008518902   19.804854      18.490144      1.3147106     -1.9897965      18011.469    
    396000   0.91138722     0.0023323615   0.0017038034   20.211281      18.857871      1.35341       -1.6836117      17793.729    
    397000   1.0322991      0.0023323615  -0.00095836338  20.380382      18.847418      1.5329642     -1.7190793      17970.862    
    398000   1.0746674      0.0023323615  -0.00060562811  20.33273       18.736849      1.5958811     -1.8324067      17971.149    
    399000   1.1511699      0.0023323615  -0.0010131392   20.19964       18.490153      1.7094873     -1.8851478      17891.659    
    400000   1.0138317      0.0023323615   0.00071844833  20.443996      18.938456      1.5055401     -1.490803       18036.015    
    401000   0.99858326     0.0023323615  -0.0025033414   20.594839      19.111943      1.4828961     -1.438363       18048.911    
    402000   1.0830097      0.0023323615   0.0029940223   20.495169      18.886899      1.6082694     -1.6016125      17995.226    
    403000   0.95788916     0.0023323615  -0.0059422588   20.472225      19.049759      1.4224654     -1.5779382      17905.097    
    404000   0.94448508     0.0023323615   0.00071755775  20.180864      18.778304      1.4025603     -1.782924       17603.106    
    405000   1.0481404      0.0023323615  -3.2279909e-05  20.378765      18.822276      1.5564885     -1.7847027      17895.152    
    406000   0.97457573     0.0023323615   0.00044098737  20.30304       18.855795      1.447245      -1.6368559      18072.163    
    407000   1.0431734      0.0023323615   0.0016666197   20.546294      18.997182      1.5491125     -1.5556437      17879.23     
    408000   1.0460069      0.0023323615   0.0010700146   20.598594      19.045274      1.5533203     -1.4534913      17996.77     
    409000   1.0445962      0.0023323615   0.0015595597   20.413888      18.862663      1.5512254     -1.6177294      18091.886    
    410000   0.99581426     0.0023323615  -0.0014797126   20.44363       18.964846      1.4787842     -1.7789372      18081.801    
    411000   0.98721152     0.0023323615   0.0014190302   20.009309      18.5433        1.4660091     -1.9959486      17968.503    
    412000   0.93608944     0.0023323615   0.00090614585  20.627073      19.236981      1.3900928     -1.4329495      17962.265    
    413000   0.98427506     0.0023323615   8.0142208e-05  20.37612       18.914471      1.4616485     -1.5780394      18144.478    
    414000   0.92686311     0.0023323615  -0.0022404208   20.3287        18.952308      1.3763917     -1.615805       18215.14     
    415000   0.98290603     0.0023323615   0.0048711516   20.348879      18.889264      1.4596155     -1.5779599      18012.132    
    416000   1.0372604      0.0023323615  -0.0008161448   20.548912      19.00858       1.5403317     -1.5292888      18020.857    
    417000   1.0387634      0.0023323615  -0.0017273349   20.334886      18.792323      1.5425636     -1.6378193      17723.825    
    418000   1.0275502      0.0023323615  -0.00086045175  20.320812      18.7949        1.525912      -1.6367994      18102.55     
    419000   1.0597624      0.0023323615  -0.0011266203   20.23579       18.662043      1.5737472     -1.9124284      17724.681    
    420000   0.86012605     0.0023323615   0.0025511861   20.002244      18.724957      1.2772872     -1.7557358      17858.233    
    421000   1.0020737      0.0023323615   0.0013680538   20.294212      18.806133      1.4880794     -1.7268541      17895.12     
    422000   0.99960998     0.0023323615   0.0057100144   20.135897      18.651476      1.4844208     -1.8179145      17856.36     
    423000   1.1353263      0.0023323615   0.00049737359  20.711317      19.025357      1.6859595     -1.4515124      17970.137    
    424000   1.1365042      0.0023323615  -0.00035101966  20.698354      19.010646      1.6877087     -1.4207056      17822.957    
    425000   1.0266461      0.0023323615   0.0011191781   20.369309      18.844739      1.5245694     -1.7083654      17833.714    
    426000   1.0512365      0.0023323615   0.0017467735   20.43919       18.878104      1.5610862     -1.6655897      17971.78     
    427000   0.94243723     0.0023323615  -0.0012009725   20.27067       18.87115       1.3995193     -1.6081114      18017.077    
    428000   0.96962263     0.0023323615  -0.00024695954  20.102223      18.662333      1.4398896     -1.7369473      18136.137    
    429000   1.0942623      0.0023323615   0.0034379444   20.344333      18.719354      1.6249795     -1.7013544      17922.407    
    430000   1.0950511      0.0023323615  -0.0027273166   20.683663      19.057512      1.6261509     -1.4391998      17978.682    
    431000   1.0054924      0.0023323615  -0.0016443992   20.168701      18.675545      1.4931562     -1.8321695      17885.112    
    432000   0.81377296     0.0023323615  -0.00052336227  19.895099      18.686646      1.2084528     -1.8175456      17896.824    
    433000   0.86885798     0.0023323615   0.0026748444   20.422868      19.132614      1.2902541     -1.5100623      17945.995    
    434000   0.90734141     0.0023323615  -0.0027414337   20.144459      18.797057      1.347402      -1.651356       17897.436    
    435000   0.86750012     0.0023323615  -0.0032003638   20.029943      18.741705      1.2882377     -1.6633946      17878.442    
    436000   0.99058118     0.0023323615  -0.002461227    20.257992      18.786979      1.4710131     -1.7543914      17833.482    
    437000   1.0026855      0.0023323615  -0.0033164546   20.39081       18.901822      1.4889879     -1.6119633      18082.81     
    438000   1.1002851      0.0023323615  -0.0019959787   20.405624      18.7717        1.6339234     -1.6704449      17849.951    
    439000   1.0713707      0.0023323615   0.0015260536   20.625798      19.034813      1.5909855     -1.4587484      18008.554    
    440000   1.2058094      0.0023323615  -0.0026947244   20.630285      18.839658      1.790627      -1.7478615      18076.136    
    441000   1.1464319      0.0023323615  -0.00049153393  20.578534      18.876083      1.7024513     -1.6678597      18293.493    
    442000   1.0117634      0.0023323615  -0.00074302462  20.539273      19.036805      1.5024686     -1.5277562      17955.105    
    443000   0.99927108     0.0023323615   0.0025646347   20.148235      18.664318      1.4839176     -1.8113409      17920.26     
    444000   0.96612634     0.0023323615   0.0022584525   20.153177      18.718479      1.4346976     -1.8126904      17726.261    
    445000   0.88086327     0.0023323615   0.0003277126   20.030779      18.722697      1.308082      -1.6618622      17959.828    
    446000   0.93655095     0.0023323615   0.00094113332  20.352625      18.961847      1.3907782     -1.5506763      17909.56     
    447000   1.1676637      0.0023323615  -0.00081310945  20.607619      18.873638      1.7339806     -1.7003643      17996.202    
    448000   0.98452661     0.0023323615  -0.00056044654  20.394811      18.932789      1.462022      -1.5837444      18229.509    
    449000   1.0746744      0.0023323615  -0.00054148925  20.498808      18.902917      1.5958915     -1.5458441      18227.188    
    450000   1.0560786      0.0023323615  -0.00061268804  20.487349      18.919072      1.5682767     -1.5837396      18390.749    
    451000   1.0103119      0.0023323615  -0.00039603996  20.506267      19.005954      1.5003132     -1.4869174      18440.465    
    452000   0.95263927     0.0023323615   0.0014621121   20.671166      19.256497      1.4146693     -1.460666       18355.1      
    453000   1.0839782      0.0023323615  -0.0026892533   20.207847      18.598139      1.6097076     -1.8897867      18324.845    
    454000   0.975952       0.0023323615  -0.0039864598   20.193602      18.744314      1.4492887     -1.6880041      18183.427    
    455000   1.1210574      0.0023323615  -0.001211869    20.460793      18.796023      1.6647702     -1.7560339      18041.691    
    456000   1.0016437      0.0023323615   0.0042605175   20.161005      18.673564      1.4874409     -1.8028463      17783.195    
    457000   0.97946044     0.0023323615   0.004308124    20.16439       18.709891      1.4544988     -1.6973641      17846.947    
    458000   1.0900103      0.0023323615  -0.0048757651   20.530185      18.91152       1.6186653     -1.7759819      17967.737    
    459000   1.0033226      0.0023323615   0.0019790954   20.322444      18.83251       1.489934      -1.6973016      17822.773    
    460000   1.0010063      0.0023323615   0.001268131    20.34436       18.857866      1.4864944     -1.7735969      17926.717    
    461000   1.1102935      0.0023323615  -0.00051577169  20.331665      18.682879      1.6487859     -1.9088795      17963.103    
    462000   0.93247948     0.0023323615  -0.003369622    20.083787      18.699055      1.384732      -1.7721342      17953.19     
    463000   1.1583487      0.0023323615   0.0015189454   20.457008      18.73686       1.7201478     -1.7626677      17929.766    
    464000   1.0666266      0.0023323615   0.0042117719   20.530487      18.946546      1.5839404     -1.5588592      17922.362    
    465000   0.90124463     0.0023323615  -0.001698956    20.328383      18.990035      1.3383483     -1.5740041      17847.669    
    466000   1.0486835      0.0023323615   0.0019209199   20.335804      18.778509      1.5572951     -1.5917694      18142.107    
    467000   1.0544238      0.0023323615   0.0028405321   20.295841      18.730022      1.5658194     -1.6930631      18098.834    
    468000   0.80281812     0.0023323615   0.00038742272  20.161633      18.969449      1.1921849     -1.5772028      18024.984    
    469000   0.93313819     0.0023323615   0.00084304018  20.505052      19.119342      1.3857102     -1.531743       18145.147    
    470000   0.97069682     0.0023323615   0.003812942    19.927564      18.486079      1.4414848     -2.1196002      18114.594    
    471000   1.0137755      0.0023323615  -0.0029599712   20.597421      19.091965      1.5054566     -1.4710355      17983.428    
    472000   1.0366249      0.0023323615   0.0034820164   20.300538      18.76115       1.539388      -1.751139       18225.148    
    473000   1.1984013      0.0023323615   0.0024220817   20.477463      18.697837      1.7796259     -1.7648468      18128.692    
    474000   0.97950104     0.0023323615   0.00042937735  20.113376      18.658817      1.454559      -1.8174463      18114.966    
    475000   0.81117592     0.0023323615   0.0016965618   20.024382      18.819786      1.2045962     -1.7265142      17845.927    
    476000   0.91607094     0.0023323615  -0.00051330604  20.243547      18.883182      1.3603653     -1.5997764      18071.613    
    477000   1.0261686      0.0023323615  -8.3652768e-05  20.505248      18.981388      1.5238604     -1.6000981      18125.041    
    478000   0.99127166     0.0023323615   0.0035199544   20.360545      18.888506      1.4720384     -1.6264954      17992.125    
    479000   0.91319448     0.0023323615  -0.00011316937  20.362095      19.006001      1.3560938     -1.5087834      17932.45     
    480000   0.94417373     0.0023323615   0.0023321466   20.184989      18.782891      1.402098      -1.6164223      18062.299    
    481000   0.9934003      0.0023323615   4.1816871e-05  20.241239      18.766039      1.4751994     -1.7058664      18152.665    
    482000   1.0762402      0.0023323615  -0.00027684697  20.142831      18.544614      1.5982167     -1.9270425      18050.145    
    483000   1.1666481      0.0023323615  -0.0010141618   20.602545      18.870073      1.7324725     -1.6085118      18061.253    
    484000   1.0162357      0.0023323615   0.0014407483   20.400341      18.891231      1.5091101     -1.6571567      18221.485    
    485000   0.97476057     0.0023323615  -0.0019894803   20.399777      18.952257      1.4475194     -1.6833717      18025.215    
    486000   0.83907707     0.0023323615  -0.00070314803  20.070947      18.824918      1.2460294     -1.7588804      17904.686    
    487000   0.96748849     0.0023323615  -0.0029690867   20.223459      18.786738      1.4367204     -1.7173644      17997.841    
    488000   0.92058856     0.0023323615   0.00041405932  19.962724      18.59565       1.367074      -1.8444348      18060.136    
    489000   0.96487369     0.0023323615   0.0012405513   20.305061      18.872223      1.4328374     -1.5625391      18239.742    
    490000   1.1074192      0.0023323615  -0.00089176855  20.433188      18.788671      1.6445176     -1.8261899      18102.212    
    491000   1.0790879      0.0023323615  -0.0031150293   20.33566       18.733215      1.6024455     -1.8624606      17795.899    
    492000   1.0019885      0.0023323615   0.0010538502   20.522996      19.035044      1.4879529     -1.5915652      17957.628    
    493000   0.90483525     0.0023323615   0.00010063134  19.972496      18.628816      1.3436803     -1.9287136      17858.526    
    494000   0.91088941     0.0023323615   0.0010916727   19.831463      18.478792      1.3526708     -1.9967612      17773.52     
    495000   0.97346375     0.0023323615   0.0013673916   20.100313      18.654719      1.4455937     -1.7568483      17996.365    
    496000   0.93322943     0.0023323615  -0.00020196444  20.179704      18.793859      1.3858457     -1.6986189      18129.785    
    497000   1.0632096      0.0023323615   0.0010080741   20.441546      18.86268       1.5788663     -1.6117802      18171.959    
    498000   1.1069826      0.0023323615   0.00053887233  20.499024      18.855154      1.6438691     -1.7032736      18187.436    
    499000   0.99144663     0.0023323615  -0.0025131295   20.333972      18.861674      1.4722982     -1.7548833      18145.339    
    500000   0.93052728     0.0023323615   0.0036590067   20.358686      18.976853      1.381833      -1.5416546      18095.9      
    501000   1.1287854      0.0023323615   2.4134302e-05  20.388287      18.71204       1.6762463     -1.7895652      18051.451    
    502000   1.0099739      0.0023323615  -0.0006565625   20.614752      19.11494       1.4998112     -1.6059175      17808.622    
    503000   0.95552845     0.0023323615   0.0030641392   20.362673      18.943713      1.4189597     -1.6627685      18042.768    
    504000   0.97246953     0.0023323615  -0.00058894732  20.129104      18.684987      1.4441172     -1.7624581      18162.816    
    505000   0.93585804     0.0023323615   0.001725717    19.826974      18.437225      1.3897492     -1.9643589      17976.668    
    506000   1.011372       0.0023323615   0.0015134808   19.979335      18.477448      1.5018874     -1.9352395      18015.262    
    507000   0.99461194     0.0023323615   0.0016026159   20.170968      18.69397       1.4769987     -1.7492989      17973.295    
    508000   0.99939292     0.0023323615   0.0021164843   20.572684      19.088586      1.4840985     -1.6192211      17993.545    
    509000   0.94324397     0.0023323615   0.0029574282   20.512736      19.112019      1.4007173     -1.491903       18063.081    
    510000   0.93179993     0.0023323615   7.7345206e-06  20.32449       18.940767      1.3837229     -1.5561517      18178.058    
    511000   0.86443121     0.0023323615   0.002169875    20.001567      18.717886      1.2836804     -1.6887275      18237.082    
    512000   0.92746592     0.0023323615   0.0018861379   20.214222      18.836935      1.3772869     -1.5350809      18256.336    
    513000   1.036186       0.0023323615  -0.0015237654   20.598535      19.059799      1.5387363     -1.5231581      18498.266    
    514000   1.1743308      0.0023323615  -0.00034322027  20.420939      18.677058      1.7438812     -1.7832619      18137.788    
    515000   0.95140538     0.0023323615   3.537768e-05   20.239907      18.82707       1.412837      -1.5876447      18073.517    
    516000   1.0046343      0.0023323615  -0.0026854832   20.309534      18.817652      1.491882      -1.6653124      18193.787    
    517000   1.0555099      0.0023323615  -0.00058500334  20.578535      19.011103      1.5674322     -1.6403882      18433.065    
    518000   1.0365618      0.0023323615  -0.0020295368   20.543369      19.004075      1.5392943     -1.5873827      18135.534    
    519000   0.99402665     0.0023323615  -0.0010283884   20.215656      18.739526      1.4761296     -1.8197246      18073.665    
    520000   0.96667038     0.0023323615   0.0016280911   20.112612      18.677107      1.4355055     -1.8156942      18158.252    
    521000   1.0761834      0.0023323615   0.00097391746  20.60943       19.011298      1.5981323     -1.5114766      18091.02     
    522000   1.0444733      0.0023323615   0.0011802639   20.497066      18.946023      1.5510429     -1.6080265      18135.29     
    523000   0.88945915     0.0023323615   0.0027325915   19.861491      18.540644      1.3208468     -1.8336446      17915.175    
    524000   0.86997889     0.0023323615  -0.0035987608   20.249039      18.957121      1.2919186     -1.5800197      18112.516    
    525000   1.1533105      0.0023323615   0.002967945    20.469179      18.756513      1.712666      -1.7391184      18143.383    
    526000   1.1246063      0.0023323615  -0.00028450249  20.419068      18.749028      1.6700403     -1.6852684      18281.656    
    527000   0.91997179     0.0023323615  -0.0021686873   20.10052       18.734362      1.3661581     -1.8604645      17882.09     
    528000   0.95670361     0.0023323615   0.0044663883   20.232898      18.812193      1.4207049     -1.7013546      18140.448    
    529000   0.82183882     0.0023323615   0.0014422796   20.014304      18.793874      1.2204306     -1.7029636      18109.155    
    530000   0.95574727     0.0023323615   0.0010808224   20.370942      18.951657      1.4192847     -1.6221149      18037.195    
    531000   0.92339037     0.0023323615   0.00079713602  20.24177       18.870536      1.3712347     -1.6135683      18007.459    
    532000   1.0351145      0.0023323615   0.0015742392   20.481582      18.944437      1.537145      -1.5419922      18132.048    
    533000   0.94719963     0.0023323615   0.0039567485   20.302549      18.895957      1.4065915     -1.5818174      18364.319    
    534000   0.85756623     0.0023323615  -0.00024649671  20.216458      18.942972      1.2734858     -1.6526786      18171.933    
    535000   0.96808972     0.0023323615   0.0010207991   20.027202      18.589589      1.4376132     -1.9589271      17969.473    
    536000   0.95708027     0.0023323615  -0.00089609043  20.436527      19.015262      1.4212642     -1.6251816      18131.518    
    537000   1.0667193      0.0023323615   0.0014259328   20.450565      18.866487      1.5840781     -1.6762269      18036.114    
    538000   0.98775134     0.0023323615  -0.0038569625   20.460404      18.993594      1.4668107     -1.6235471      18187.7      
    539000   0.92494232     0.0023323615  -0.00066544564  20.212433      18.838894      1.3735393     -1.6783125      18192.813    
    540000   1.0260046      0.0023323615  -0.0026413149   20.578028      19.054412      1.5236168     -1.4997969      18051.957    
    541000   1.0268953      0.0023323615   8.4488119e-05  20.191307      18.666367      1.5249395     -1.8934133      18081.919    
    542000   1.0257613      0.0023323615   0.0018981406   20.195912      18.672656      1.5232555     -1.8159444      18192.275    
    543000   0.95401826     0.0023323615   0.0042668739   20.113207      18.69649       1.4167171     -1.8118132      18100.981    
    544000   0.89938494     0.0023323615  -0.0047720577   20.099697      18.76411       1.3355866     -1.7813694      18119.227    
    545000   1.052267       0.0023323615  -0.0024802704   20.377492      18.814875      1.5626165     -1.7876183      18137.574    
    546000   0.99278946     0.0023323615   2.5587971e-05  20.399246      18.924954      1.4742923     -1.6049911      18100.052    
    547000   1.0095888      0.0023323615   0.00011123385  20.137675      18.638436      1.4992393     -1.8217507      18069.316    
    548000   0.96385783     0.0023323615  -0.001897004    20.452896      19.021567      1.4313289     -1.570772       17940.566    
    549000   1.0786726      0.0023323615   0.0019846037   20.370596      18.768767      1.6018288     -1.6764878      18054.683    
    550000   1.1087914      0.0023323615   0.0052959145   20.873723      19.227167      1.6465552     -1.516217       18044.901    
    551000   0.93647528     0.0023323615  -0.0015416033   20.487702      19.097036      1.3906658     -1.3918738      18444.23     
    552000   0.98556253     0.0023323615  -0.001722543    20.303504      18.839944      1.4635604     -1.6560561      18313.32     
    553000   0.9932087      0.0023323615   0.00051633127  20.485472      19.010557      1.4749149     -1.4596888      17977.779    
    554000   1.0771783      0.0023323615  -0.0001603992   20.862723      19.263113      1.5996097     -1.3480052      18224.509    
    555000   0.86461779     0.0023323615   0.0040379226   20.192294      18.908337      1.2839574     -1.6255255      18397.417    
    556000   1.0669927      0.0023323615   0.001647883    20.463903      18.879419      1.5844842     -1.613876       18179.019    
    557000   1.0223727      0.0023323615  -0.0034558295   20.658211      19.139988      1.5182234     -1.5553254      17998.922    
    558000   0.96167918     0.0023323615  -0.00020431956  20.484989      19.056895      1.4280936     -1.5164899      17798.857    
    559000   0.90347833     0.0023323615   0.00019430371  20.476563      19.134898      1.3416653     -1.4861199      18201.332    
    560000   1.046464       0.0023323615  -0.001955056    20.372559      18.81856       1.5539991     -1.7128617      18238.952    
    561000   1.0259494      0.0023323615   0.0029959152   20.478774      18.955239      1.5235349     -1.4963817      18287.507    
    562000   0.97561734     0.0023323615   9.971507e-05   20.278852      18.830061      1.4487917     -1.5572871      18189.202    
    563000   1.0741404      0.0023323615  -0.0018776537   20.149904      18.554805      1.5950985     -1.8781819      17928.172    
    564000   0.93268264     0.0023323615   0.0031131853   20.002434      18.6174        1.3850337     -1.8147702      17789.134    
    565000   1.0561261      0.0023323615  -0.00032636007  20.233523      18.665176      1.5683473     -1.8390422      17930.907    
    566000   0.9974831      0.0023323615  -0.00074187669  20.121661      18.640398      1.4812624     -1.7788509      17877.021    
    567000   1.0487563      0.0023323615   0.00097537356  20.133607      18.576204      1.5574031     -1.9711933      17923.343    
    568000   1.1417969      0.0023323615  -0.0002617244   20.321541      18.625972      1.6955684     -1.8834539      17832.663    
    569000   1.1194766      0.0023323615  -0.0045351993   20.389456      18.727033      1.6624228     -1.8165736      17908.541    
    570000   1.0075739      0.0023323615   0.00039607557  20.12555       18.629303      1.4962473     -1.9523462      17953.328    
    571000   0.90293091     0.0023323615  -0.0026410426   20.038474      18.697622      1.3408524     -1.7865344      17855.3      
    572000   1.1944817      0.0023323615  -0.0013340037   20.46582       18.692014      1.7738054     -1.7958642      17992.041    
    573000   0.97192324     0.0023323615  -0.001523681    19.942715      18.499409      1.443306      -1.9928174      17771.432    
    574000   1.0473901      0.0023323615   0.0014413099   20.498738      18.943363      1.5553742     -1.5716839      17554.148    
    575000   0.88118045     0.0023323615   0.0027817679   20.1662        18.857647      1.308553      -1.6444723      17851.522    
    576000   1.0021512      0.0023323615   0.00094094401  20.327         18.838806      1.4881945     -1.6068028      17852.333    
    577000   0.9774613      0.0023323615   0.0037298235   20.134171      18.682641      1.45153       -1.7495348      17958.875    
    578000   1.071234       0.0023323615  -0.0026843201   20.634764      19.043982      1.5907824     -1.5727455      17849.31     
    579000   1.0139358      0.0023323615  -0.0026703299   20.596677      19.090982      1.5056947     -1.4578709      17714.237    
    580000   1.0056353      0.0023323615  -0.0021095114   20.376849      18.883481      1.4933685     -1.5994582      17800.066    
    581000   1.1510315      0.0023323615  -0.0013433041   20.793636      19.084354      1.7092817     -1.4485114      17816.938    
    582000   0.9263456      0.0023323615  -0.0022761535   20.421129      19.045506      1.3756232     -1.5014204      17870.926    
    583000   1.0505058      0.0023323615  -0.0025607694   20.612491      19.05249       1.5600012     -1.4604832      17877.85     
    584000   0.91128847     0.0023323615  -0.0027591233   20.221003      18.867739      1.3532634     -1.6511727      17951.721    
    585000   1.0938549      0.0023323615  -0.002581768    20.52556       18.901185      1.6243745     -1.7035295      17849.779    
    586000   1.0132121      0.0023323615   0.0014308857   20.229373      18.724753      1.50462       -1.7403647      17554.503    
    587000   0.96196117     0.0023323615  -0.0036237389   20.276307      18.847795      1.4285123     -1.74445        17685.408    
    588000   0.9836334      0.0023323615  -0.0005524337   20.682917      19.222221      1.4606956     -1.4843321      17770.318    
    589000   0.98314277     0.0023323615  -0.004601367    20.551966      19.091999      1.459967      -1.5536289      17814.703    
    590000   1.0956131      0.0023323615   0.001067068    20.397376      18.770391      1.6269855     -1.761132       17831.548    
    591000   0.99552886     0.0023323615   0.002402339    20.225607      18.747246      1.4783604     -1.7438927      17706.108    
    592000   0.9163441      0.0023323615  -0.0032288772   20.077635      18.716864      1.360771      -1.7609409      17736.984    
    593000   1.1509217      0.0023323615   0.0049322148   20.534091      18.824973      1.7091187     -1.6600302      17855.216    
    594000   0.95060556     0.0023323615  -0.0033207969   19.936078      18.524428      1.4116493     -1.9998083      17752.151    
    595000   1.0159093      0.0023323615   0.0058415998   20.327502      18.818877      1.5086252     -1.6953252      17701.8      
    596000   0.9928892      0.0023323615   0.0017370021   20.44926       18.97482       1.4744405     -1.4741787      17969.328    
    597000   1.0680943      0.0023323615  -0.0029056116   20.506059      18.919939      1.5861201     -1.6103804      18054.579    
    598000   1.0802727      0.0023323615  -0.0020235753   20.416428      18.812223      1.604205      -1.6179576      17782.266    
    599000   1.0342419      0.0023323615   0.00047798332  20.471322      18.935472      1.5358492     -1.5909239      17903.902    
    600000   1.0096091      0.0023323615  -0.0014947276   20.254122      18.754853      1.4992695     -1.7037899      17789.933    
    601000   0.99428351     0.0023323615  -0.0010814247   20.512002      19.035491      1.476511      -1.4253512      17715.356    
    602000   1.0637641      0.0023323615   0.002582711    20.557886      18.978196      1.5796897     -1.4862396      17816.75     
    603000   1.0526435      0.0023323615   0.0014137967   20.048828      18.485653      1.5631756     -2.0777833      17780.473    
    604000   0.93381836     0.0023323615   0.0053051593   20.023252      18.636532      1.3867203     -1.7539771      17847.324    
    605000   0.99627276     0.0023323615   0.00072198694  20.399216      18.919751      1.479465      -1.581517       17710.016    
    606000   0.98643825     0.0023323615   0.0036050727   20.323658      18.858797      1.4648608     -1.6832624      17809.652    
    607000   0.90730234     0.0023323615  -0.0043895415   20.107693      18.760349      1.347344      -1.7392754      17885.192    
    608000   0.95714921     0.0023323615  -0.00046961331  20.377181      18.955815      1.4213666     -1.5000397      18000.818    
    609000   0.94180797     0.0023323615  -0.0010200134   20.012962      18.614377      1.3985848     -1.7486169      17934.219    
    610000   1.0081453      0.0023323615  -0.0068474936   20.512232      19.015136      1.4970958     -1.5910231      17766.766    
    611000   1.0491492      0.0023323615   0.0053411653   20.432868      18.874881      1.5579866     -1.6321607      17734.201    
    612000   1.1852851      0.0023323615  -0.005026422    20.370909      18.610761      1.7601484     -1.8442575      17951.117    
    613000   0.99024001     0.0023323615  -0.0028380557   20.199023      18.728517      1.4705064     -1.6843328      17683.572    
    614000   1.0056982      0.0023323615   0.00058719995  20.242847      18.749386      1.4934619     -1.7404425      17822.388    
    615000   0.96345244     0.0023323615   2.7813012e-05  20.195647      18.76492       1.4307269     -1.6582967      17654.23     
    616000   1.0096574      0.0023323615   0.0018900425   20.25253       18.753189      1.4993412     -1.7421004      17500.636    
    617000   0.86900497     0.0023323615   0.0020327505   19.861378      18.570905      1.2904724     -1.8860743      17561.669    
    618000   0.93288639     0.0023323615   0.00040333906  20.332169      18.946833      1.3853363     -1.4702007      17736.338    
    619000   0.85316602     0.0023323615  -0.0027214299   20.197672      18.930721      1.2669515     -1.5894647      18017.451    
    620000   0.98194026     0.0023323615   0.0024435594   20.516302      19.058121      1.4581813     -1.4870426      17912.719    
    621000   1.045687       0.0023323615  -0.0011839922   20.427195      18.874349      1.5528452     -1.8155456      17812.747    
    622000   1.0787073      0.0023323615  -0.0022280077   20.318066      18.716186      1.6018804     -1.7431771      17697.826    
    623000   1.106976       0.0023323615  -0.0068792836   20.295966      18.652107      1.6438594     -1.8872906      17820.663    
    624000   0.99875845     0.0023323615   0.0025078713   20.17243       18.689274      1.4831563     -1.8299474      17980.645    
    625000   1.1185633      0.0023323615  -0.0021703896   20.304551      18.643485      1.6610665     -1.7928112      17959.386    
    626000   0.86521321     0.0023323615   0.00024840165  20.071852      18.78701       1.2848416     -1.6531828      18134.884    
    627000   1.0177111      0.0023323615  -0.00068877997  20.125718      18.614417      1.5113009     -1.8264158      17870.696    
    628000   0.90326105     0.0023323615   0.0012072981   20.175092      18.833749      1.3413427     -1.7438909      17879.473    
    629000   1.1675621      0.0023323615  -0.0039203733   20.467874      18.734044      1.7338298     -1.6932373      17827.474    
    630000   1.143446       0.0023323615  -0.00033513423  20.572979      18.874962      1.6980173     -1.6450538      17759.577    
    631000   0.89703483     0.0023323615   0.0018791689   20.064075      18.731978      1.3320967     -1.7882549      18751.995    
    632000   1.0414046      0.0023323615  -0.0001734835   20.206664      18.660178      1.5464858     -1.8353417      19128.15     
    633000   1.0014433      0.0023323615   0.0023966309   20.449568      18.962425      1.4871432     -1.6785123      19412.26     
    634000   0.97496969     0.0023323615  -0.0021176856   20.171657      18.723827      1.44783       -1.9215798      19512.744    
    635000   0.82719369     0.0023323615  -0.0020438889   20.007053      18.778671      1.2283826     -1.8314481      19423.616    
    636000   1.060517       0.0023323615  -0.0024084208   20.642076      19.067208      1.5748677     -1.5788971      19525.34     
    637000   1.0565577      0.0023323615  -0.0017080423   20.437482      18.868494      1.5689881     -1.5518868      19358.29     
    638000   0.9964317      0.0023323615  -0.00065482744  20.32255       18.842849      1.4797011     -1.6994857      19460.092    
    639000   1.1159096      0.0023323615  -0.0016600738   20.469238      18.812112      1.6571258     -1.7190691      19462.376    
    640000   0.95013499     0.0023323615   0.002498722    20.257496      18.846545      1.4109505     -1.5974625      19378.077    
    641000   1.0193401      0.0023323615  -0.0018073056   20.53425       19.02053       1.51372       -1.5582237      19501.726    
    642000   0.89536826     0.0023323615   0.00029547198  20.257715      18.928093      1.3296219     -1.4904594      19455.801    
    643000   1.0916354      0.0023323615  -0.0011148069   20.245186      18.624107      1.6210786     -1.8281716      19389.219    
    644000   0.93296576     0.0023323615   0.00019371524  20.197377      18.811923      1.3854541     -1.8157435      19249.837    
    645000   0.89344127     0.0023323615  -0.0030456873   20.317127      18.990367      1.3267603     -1.6976397      19522.38     
    646000   0.99302835     0.0023323615  -0.0013290187   20.1902        18.715553      1.4746471     -1.8654003      19250.691    
    647000   1.1019412      0.0023323615  -0.0049781815   20.702384      19.066001      1.6363827     -1.46981        19460.509    
    648000   1.0161437      0.0023323615  -0.0009441119   20.268703      18.759729      1.5089733     -1.6671758      19294.64     
    649000   0.98789539     0.0023323615   0.0048132477   20.322071      18.855046      1.4670246     -1.6731315      19234.947    
    650000   0.91788474     0.0023323615  -0.0012552618   20.370214      19.007155      1.3630588     -1.6307323      19438.58     
    651000   0.952353       0.0023323615   0.00085938711  20.144046      18.729802      1.4142442     -1.7462891      19009.186    
    652000   1.0359317      0.0023323615   0.0036328692   20.263384      18.725025      1.5383586     -1.8176656      19119.993    
    653000   1.1409589      0.0023323615  -0.0028928432   20.552936      18.858612      1.694324      -1.667094       19424.591    
    654000   0.94135985     0.0023323615  -0.0033426654   20.285872      18.887953      1.3979194     -1.4744398      19566.905    
    655000   0.97108241     0.0023323615  -0.0056667137   20.309527      18.86747       1.4420574     -1.6368727      19712.483    
    656000   1.0681901      0.0023323615  -0.00093601617  20.241241      18.654979      1.5862623     -1.8483383      19425.706    
    657000   1.1705601      0.0023323615   0.0017746016   20.345576      18.607294      1.7382817     -1.8210658      19457.076    
    658000   0.92328425     0.0023323615   0.0014280339   20.060759      18.689682      1.3710771     -1.8240841      19410.886    
    659000   1.0279892      0.0023323615   0.0053769263   20.4308        18.904236      1.5265639     -1.6513744      19261.412    
    660000   1.0832817      0.0023323615   0.0010821093   20.608124      18.999451      1.6086733     -1.655383       19482.411    
    661000   1.0514994      0.0023323615   0.0017842101   20.237485      18.676008      1.5614766     -1.864904       19429.843    
    662000   1.0470106      0.0023323615   0.0014949762   20.255426      18.700615      1.5548108     -1.8391038      19417.725    
    663000   1.0372718      0.0023323615  -0.0044473783   20.427467      18.887118      1.5403486     -1.5941469      19555.852    
    664000   0.97844311     0.0023323615  -0.0022565871   20.215826      18.762838      1.452988      -1.8358665      19428.958    
    665000   1.0022138      0.0023323615   0.0018651384   20.311442      18.823154      1.4882875     -1.7149848      19357.265    
    666000   0.88027944     0.0023323615  -0.0011938744   20.225904      18.918689      1.307215      -1.5988724      19545.398    
    667000   1.0540117      0.0023323615   0.0017125505   20.144792      18.579584      1.5652074     -1.8189537      19375.903    
    668000   0.97360449     0.0023323615   0.0002563212   20.412497      18.966694      1.4458027     -1.5623461      19473.825    
    669000   1.1110883      0.0023323615   0.0010640595   20.492407      18.842441      1.6499661     -1.7020619      19376.207    
    670000   1.0560372      0.0023323615  -0.0062212431   20.698969      19.130753      1.5682153     -1.4894257      19389.073    
    671000   0.9256161      0.0023323615  -9.6139643e-06  20.56125       19.18671       1.3745399     -1.3352038      19839.642    
    672000   0.96855022     0.0023323615   0.0005701981   20.453129      19.014831      1.4382971     -1.4179598      19657.119    
    673000   0.9489512      0.0023323615  -0.0030153265   20.382346      18.973153      1.4091925     -1.543977       19735.913    
    674000   0.91289185     0.0023323615   0.00015349149  19.795836      18.440191      1.3556444     -2.0088088      19378.182    
    675000   0.88928127     0.0023323615   5.0221222e-05  20.077342      18.756759      1.3205827     -1.7396301      19414.265    
    676000   1.0571944      0.0023323615  -0.0034444663   20.360296      18.790362      1.5699336     -1.7597093      19564.182    
    677000   1.119982       0.0023323615  -0.001070816    20.435051      18.771878      1.6631733     -1.7094479      19341.027    
    678000   0.97931314     0.0023323615  -0.0017655974   20.463071      19.008791      1.45428       -1.5403374      19197.566    
    679000   0.96280306     0.0023323615   0.00031142308  20.18771       18.757947      1.4297625     -1.6571684      19219.586    
    680000   0.98337278     0.0023323615  -0.0011646026   20.516665      19.056356      1.4603086     -1.6876227      19019.227    
    681000   0.96762122     0.0023323615   0.0051804852   20.635232      19.198314      1.4369175     -1.3892437      19295.024    
    682000   1.0327835      0.0023323615   0.0014779096   20.409255      18.875572      1.5336835     -1.7117297      19269.545    
    683000   1.0150349      0.0023323615   0.00065664624  20.462863      18.955536      1.5073268     -1.6285626      19471.211    
    684000   1.0591891      0.0023323615   0.00020986431  20.615048      19.042152      1.5728958     -1.5861799      19458.377    
    685000   0.98572012     0.0023323615  -0.0039499749   20.077137      18.613342      1.4637944     -1.7963621      19481.59     
    686000   1.0873021      0.0023323615  -0.0016318094   20.197906      18.583263      1.6146436     -1.995816       19485.492    
    687000   0.97745635     0.0023323615   1.1557958e-05  20.540371      19.088848      1.4515227     -1.541736       19248.178    
    688000   1.10799        0.0023323615   0.0013520681   20.522419      18.877054      1.6453651     -1.5924369      19259.212    
    689000   1.0219278      0.0023323615   0.0047150111   20.556746      19.039183      1.5175629     -1.608013       19356.308    
    690000   1.0340298      0.0023323615   0.0020470581   20.483027      18.947493      1.5355343     -1.5051457      19692.462    
    691000   0.9712293      0.0023323615  -0.0033525658   20.481949      19.039674      1.4422755     -1.5832734      19823.514    
    692000   1.1623545      0.0023323615  -0.0018443824   20.815783      19.089686      1.7260964     -1.4557559      19796.26     
    693000   1.0122342      0.0023323615   0.0010591223   20.661771      19.158603      1.5031678     -1.3887737      19739.714    
    694000   1.0615561      0.0023323615   0.0028773675   20.491118      18.914707      1.5764109     -1.6308153      19446.871    
    695000   0.96966821     0.0023323615  -0.0030588891   20.380955      18.940998      1.4399573     -1.6793585      19576.576    
    696000   0.92331587     0.0023323615   0.00052346654  20.140515      18.769391      1.3711241     -1.8149465      19572.004    
    697000   1.1395793      0.0023323615   0.00097739854  20.648436      18.956161      1.6922753     -1.5720062      19512.641    
    698000   0.96872839     0.0023323615  -0.00018872616  20.261011      18.82245       1.4385617     -1.6616744      19394.584    
    699000   0.96486007     0.0023323615   0.0019476965   20.202363      18.769545      1.4328172     -1.6562106      19340.18     
    700000   0.91279421     0.0023323615  -0.00026965797  20.094786      18.739287      1.3554994     -1.7638854      19451.055    
    701000   0.85533726     0.0023323615  -0.0002920846   19.928948      18.658772      1.2701758     -1.7902166      19198.747    
    702000   1.0357042      0.0023323615   0.00028204509  20.329885      18.791864      1.5380208     -1.7685834      19144.623    
    703000   0.97492583     0.0023323615  -0.00025647459  20.24435       18.796585      1.4477649     -1.6231728      19435.231    
    704000   0.99120516     0.0023323615   0.0041670945   20.208921      18.736982      1.4719397     -1.7060901      19830.217    
    705000   1.1367229      0.0023323615  -0.00097311889  20.668283      18.980249      1.6880335     -1.5219238      19804.732    
    706000   0.93907471     0.0023323615   0.00026542869  20.43217       19.037644      1.3945259     -1.5548086      19387.465    
    707000   1.0453003      0.0023323615  -0.00028765359  20.472004      18.919733      1.5522709     -1.7204002      19385.07     
    708000   0.89335069     0.0023323615   8.6489208e-05  20.272617      18.945991      1.3266258     -1.4835105      19563.714    
    709000   0.92521403     0.0023323615  -0.0024348188   20.552234      19.178291      1.3739428     -1.4333405      19797.469    
    710000   1.0099514      0.0023323615   0.0027100355   20.382807      18.883029      1.4997778     -1.611573       19614.805    
    711000   0.98144892     0.0023323615   0.0023991975   20.158539      18.701087      1.4574516     -1.7392072      19451.513    
    712000   0.96492298     0.0023323615  -0.0032636527   20.363957      18.931046      1.4329106     -1.6433798      19367.823    
    713000   1.0051786      0.0023323615  -0.0034303338   20.264234      18.771544      1.4926902     -1.7868356      19325.34     
    714000   1.0884319      0.0023323615   0.00090863468  20.536009      18.919688      1.6163214     -1.6159784      19228.91     
    715000   0.91647142     0.0023323615   0.0039352164   20.207772      18.846812      1.3609601     -1.6296058      19489.544    
    716000   1.0504052      0.0023323615   0.0023020468   20.320332      18.76048       1.5598517     -1.7989835      19371.285    
    717000   0.95705412     0.0023323615   0.00056231806  20.22142       18.800195      1.4212254     -1.6907446      19309.948    
    718000   1.0392547      0.0023323615   0.0052637757   20.479859      18.936566      1.5432932     -1.6760642      19361.05     
    719000   0.99077704     0.0023323615  -0.0011079303   20.43604       18.964736      1.4713039     -1.5685207      19275.964    
    720000   0.9110873      0.0023323615  -0.0036366933   20.180857      18.827893      1.3529646     -1.7580966      19282.775    
    721000   0.96316142     0.0023323615   0.0020623894   20.116618      18.686323      1.4302947     -1.8796884      19078.498    
    722000   0.9407571      0.0023323615  -0.00066136944  20.339784      18.94276       1.3970243     -1.7323761      19294.397    
    723000   0.95438579     0.0023323615   0.00065557084  20.006103      18.58884       1.4172629     -1.8036104      19303.685    
    724000   0.95721238     0.0023323615   0.001430641    20.094441      18.672981      1.4214604     -1.8103515      19387.717    
    725000   1.0555318      0.0023323615  -0.0040199541   20.301246      18.733782      1.5674647     -1.8288443      19349.407    
    726000   0.93027643     0.0023323615   0.0006550025   19.976807      18.595347      1.3814605     -1.976115       19337.816    
    727000   1.1095989      0.0023323615  -0.0025904481   20.609706      18.961952      1.6477544     -1.6192374      19292.011    
    728000   1.0302825      0.0023323615  -0.0054263856   20.264035      18.734065      1.5299696     -1.9298766      18849.825    
    729000   1.1360177      0.0023323615   0.0016148774   20.540489      18.853503      1.6869863     -1.7123376      19450.22     
    730000   0.89782263     0.0023323615  -0.00082515738  19.997668      18.664401      1.3332666     -1.9065599      19231.085    
    731000   0.92642526     0.0023323615   0.0017154124   20.192675      18.816933      1.3757415     -1.6339402      19309.481    
    732000   1.1295933      0.0023323615   0.00019161427  20.554583      18.877137      1.6774461     -1.749876       19367.74     
    733000   1.0846832      0.0023323615   0.00028712193  20.437952      18.827198      1.6107546     -1.6604129      19489.251    
    734000   0.97731391     0.0023323615  -0.0024572382   20.440172      18.98886       1.4513112     -1.513288       19555.975    
    735000   0.99123059     0.0023323615   0.0023006019   20.404424      18.932446      1.4719774     -1.4784762      19598.64     
    736000   1.0004208      0.0023323615  -0.00011378976  20.411859      18.926234      1.4856249     -1.7172166      19343.748    
    737000   0.87787344     0.0023323615  -0.0027879045   20.100966      18.797324      1.3036421     -1.6751489      19195.177    
    738000   1.0025758      0.0023323615  -0.0028763643   20.515767      19.026942      1.488825      -1.3821568      19582.299    
    739000   1.0694574      0.0023323615  -0.0013744328   20.355464      18.76732       1.5881443     -1.6848896      19484.735    
    740000   1.0458681      0.0023323615   0.001573224    20.483355      18.930241      1.5531141     -1.5491542      18669.824    
    741000   1.1396864      0.0023323615   0.00038992958  20.395368      18.702934      1.6924344     -1.7869051      18082.103    
    742000   1.1487173      0.0023323615  -0.0016054976   20.611971      18.906126      1.7058452     -1.5576213      18060.054    
    743000   0.91417247     0.0023323615   0.00054947664  20.374072      19.016526      1.3575461     -1.5697682      17843.617    
    744000   1.0863383      0.0023323615   0.0021154953   20.512542      18.89933       1.6132124     -1.5553643      19349.171    
    745000   1.0136861      0.0023323615  -0.0043184547   20.664022      19.158698      1.5053239     -1.4798181      19225.632    
    746000   0.93191021     0.0023323615   0.0044286069   20.164695      18.780809      1.3838867     -1.6669383      19347.427    
    747000   1.0063871      0.0023323615  -0.001073177    20.334706      18.840221      1.4944848     -1.6116981      19456.169    
    748000   1.0295472      0.0023323615   0.0018189152   20.315067      18.78619       1.5288775     -1.6473603      19334.238    
    749000   0.82191726     0.0023323615  -0.00050012112  20.330393      19.109846      1.2205471     -1.5081691      19573.631    
    750000   0.87107432     0.0023323615  -0.0031998121   20.266801      18.973256      1.2935454     -1.5801877      19574.195    
    751000   0.910032       0.0023323615  -0.00070526248  20.381823      19.030425      1.3513975     -1.5306909      19478.134    
    752000   0.9426606      0.0023323615  -5.0909929e-05  20.078518      18.678667      1.399851      -1.8607046      19307.218    
    753000   0.93938672     0.0023323615  -0.0010170998   20.417561      19.022571      1.3949893     -1.5935286      19463.249    
    754000   0.9508812      0.0023323615  -0.00077002911  20.011182      18.599123      1.4120586     -1.8573574      19138.368    
    755000   0.93890974     0.0023323615   0.0011821248   19.946614      18.552333      1.394281      -1.9474207      19149.118    
    756000   0.97978293     0.0023323615  -0.0057863054   20.171292      18.716315      1.4549777     -1.8185014      19310.953    
    757000   1.0148041      0.0023323615  -0.0074429824   20.569237      19.062253      1.5069841     -1.5546973      19101.46     
    758000   1.0560519      0.0023323615  -0.00042901992  20.543139      18.974902      1.5682371     -1.6347938      19434.224    
    759000   0.95388959     0.0023323615  -0.0032908753   20.657558      19.241032      1.416526      -1.3508175      19816.084    
    760000   0.93363685     0.0023323615  -0.00023535184  20.369894      18.983443      1.3864507     -1.544954       19633.093    
    761000   0.95781559     0.0023323615  -0.0024491795   20.449034      19.026677      1.4223562     -1.4414375      19467.948    
    762000   1.0558302      0.0023323615   0.00055016272  20.142741      18.574833      1.5679079     -1.928549       19150.912    
    763000   1.0804334      0.0023323615  -0.0035596293   20.415577      18.811134      1.6044436     -1.7485082      19334.156    
    764000   0.94391832     0.0023323615   0.0024110085   20.278962      18.877244      1.4017187     -1.6596631      19110.691    
    765000   0.982965       0.0023323615  -0.0010418667   20.231796      18.772093      1.459703      -1.7510041      19188.004    
    766000   1.0081056      0.0023323615   0.0025496008   20.377686      18.880649      1.4970368     -1.6942694      19143.856    
    767000   1.0032938      0.0023323615  -0.0016015065   20.219079      18.729188      1.4898912     -1.7371026      19187.424    
    768000   0.94942427     0.0023323615  -0.0029780107   20.309695      18.8998        1.409895      -1.5458693      19257.648    
    769000   1.0155913      0.0023323615  -0.00097709601  20.692881      19.184728      1.5081531     -1.417921       19351.879    
    770000   0.8874984      0.0023323615   0.00083532106  20.241059      18.923123      1.3179351     -1.530093       19621.437    
    771000   1.093196       0.0023323615   0.0024224503   20.590228      18.966832      1.623396      -1.6299378      19481.745    
    772000   1.0599605      0.0023323615   0.0018015463   20.463596      18.889555      1.5740413     -1.5865875      19742.631    
    773000   1.0986192      0.0023323615   0.0029616838   20.188397      18.556947      1.6314495     -1.8227359      19537.819    
    774000   0.87703038     0.0023323615   0.00025757243  20.286041      18.983651      1.3023901     -1.4640926      19492.589    
    775000   1.0233919      0.0023323615   0.0030534526   19.980056      18.460319      1.519737      -1.9796708      19282.444    
    776000   1.0116359      0.0023323615  -0.0033850639   20.304745      18.802465      1.5022794     -1.7933643      19347.292    
    777000   0.98106214     0.0023323615   0.0003143321   20.032707      18.57583       1.4568773     -2.0113348      19457.861    
    778000   0.90983065     0.0023323615  -6.012517e-05   20.297769      18.94667       1.3510985     -1.6723006      19421.204    
    779000   0.85428618     0.0023323615  -0.00069929577  19.822044      18.553429      1.268615      -1.8699144      19604.98     
    780000   0.79104702     0.0023323615   0.0023262294   19.614661      18.439956      1.1747048     -1.9716827      19653.295    
    781000   1.0373616      0.0023323615   0.0017856417   20.283536      18.743054      1.540482      -1.7710302      19442.859    
    782000   1.062393       0.0023323615   0.0049739115   20.414527      18.836873      1.5776536     -1.5923478      19354.604    
    783000   1.0382412      0.0023323615   0.0046542344   20.437933      18.896145      1.5417883     -1.5567272      19258.112    
    784000   0.9348017      0.0023323615  -0.0049539236   20.160178      18.771997      1.3881805     -1.6481859      19453.318    
    785000   0.96254524     0.0023323615  -0.00026352818  20.31459       18.885211      1.4293797     -1.5615871      19488.033    
    786000   0.97252414     0.0023323615   0.0018997708   20.587114      19.142916      1.4441984     -1.389922       19668.915    
    787000   1.0319452      0.0023323615  -0.00076295973  20.70738       19.174942      1.5324387     -1.4300757      19727.717    
    788000   0.90410722     0.0023323615   0.00087587512  19.913335      18.570736      1.3425992     -1.9835433      19503.482    
    789000   1.0232282      0.0023323615   0.0013242034   20.197276      18.677782      1.5194939     -1.9486603      19163.74     
    790000   1.0660693      0.0023323615   0.003380055    20.263053      18.67994       1.5831129     -1.9057189      19431.398    
    791000   0.96492429     0.0023323615   0.0052257312   20.362929      18.930016      1.4329126     -1.758604       19358.74     
    792000   1.077155       0.0023323615   0.00039049167  20.385852      18.786277      1.5995752     -1.603551       19625.252    
    793000   0.91335939     0.0023323615   0.0027081506   20.168707      18.812368      1.3563387     -1.6067178      19607.792    
    794000   1.0552132      0.0023323615   0.0060600742   20.483175      18.916184      1.5669916     -1.4874864      19621.707    
    795000   0.9240008      0.0023323615  -0.0020428073   20.130381      18.75824       1.3721412     -1.808904       19625.569    
    796000   0.9802303      0.0023323615  -0.00044864661  19.879354      18.423712      1.455642      -1.9965343      19522.564    
    797000   1.0266811      0.0023323615   0.0011476413   20.202988      18.678366      1.5246215     -1.7967112      19651.117    
    798000   1.0200803      0.0023323615  -0.00013257576  20.226417      18.711597      1.5148193     -1.6941546      19610.669    
    799000   0.92801887     0.0023323615   0.0014976363   20.330748      18.95264       1.378108      -1.6359272      19551.735    
    800000   0.99752863     0.0023323615   0.0043226042   20.236725      18.755395      1.48133       -1.845113       19501.458    
    801000   1.239688       0.0023323615  -0.0013210212   20.369614      18.528678      1.8409367     -1.9398164      18266.002    
    802000   0.99343314     0.0023323615  -0.00081687167  20.358291      18.883043      1.4752482     -1.7369561      17884.33     
    803000   0.98333377     0.0023323615  -0.00014116607  20.392119      18.931868      1.4602507     -1.6937555      17978.002    
    804000   0.98010182     0.0023323615  -0.0015839346   20.228383      18.772932      1.4554512     -1.7436154      17940.343    
    805000   0.98467075     0.0023323615   0.0010276223   20.1811        18.718864      1.4622361     -1.7394633      17958.965    
    806000   0.94170737     0.0023323615  -7.4908035e-05  19.940277      18.541841      1.3984354     -1.8807787      17860.492    
    807000   0.98845048     0.0023323615   0.0020212491   19.987879      18.52003       1.467849      -1.9573603      17901.908    
    808000   0.95045516     0.0023323615  -0.0021672254   20.069627      18.658201      1.4114259     -1.7940621      17767.999    
    809000   0.99133213     0.0023323615  -1.7834008e-05  20.058893      18.586765      1.4721282     -1.813616       17726.516    
    810000   0.99949183     0.0023323615  -0.0010761092   20.339641      18.855395      1.4842454     -1.7147521      17567.186    
    811000   1.1377936      0.0023323615  -5.0265062e-05  20.251026      18.561402      1.6896235     -1.8723458      17636.325    
    812000   1.0425657      0.0023323615   0.0017510605   20.291437      18.743227      1.5482101     -1.8067441      17959.405    
    813000   1.0377782      0.0023323615   0.0023372869   20.539178      18.998078      1.5411006     -1.6054594      18167.077    
    814000   0.99999299     0.0023323615   0.0011573456   20.232723      18.747733      1.4849896     -1.7326638      18155.756    
    815000   1.1026877      0.0023323615   0.0021924411   20.258157      18.620666      1.6374913     -1.7535385      18192.262    
    816000   0.95800808     0.0023323615   0.0013713079   20.291498      18.868856      1.422642      -1.6090472      17905.437    
    817000   1.0240918      0.0023323615  -0.0029279645   20.495543      18.974767      1.5207763     -1.6098744      17843.314    
    818000   1.2186267      0.0023323615   0.00065191539  20.557077      18.747416      1.8096607     -1.860587       17897.433    
    819000   0.99870157     0.0023323615  -0.0014989763   20.185788      18.702716      1.4830718     -1.7607294      17852.726    
    820000   0.97373381     0.0023323615   0.0047107056   20.209825      18.76383       1.4459947     -1.687861       17804.511    
    821000   0.93382302     0.0023323615  -0.0012113561   20.080038      18.693311      1.3867272     -1.7158211      17992.092    
    822000   0.91628833     0.0023323615   0.0027036306   20.152586      18.791897      1.3606882     -1.7161359      18083.115    
    823000   1.1034689      0.0023323615   0.0037694632   20.715887      19.077235      1.6386513     -1.4830572      17917.96     
    824000   1.0522684      0.0023323615  -0.0028258266   20.360422      18.797803      1.5626185     -1.7259051      17899.183    
    825000   1.0491558      0.0023323615   0.0012956528   20.371165      18.813168      1.5579964     -1.7684287      17955.422    
    826000   1.1379909      0.0023323615   0.0012835261   20.547141      18.857225      1.6899165     -1.6905784      17737.271    
    827000   1.0067687      0.0023323615  -0.0055158283   20.636192      19.141141      1.4950515     -1.4571773      18054.938    
    828000   0.90906421     0.0023323615  -0.0030017664   20.098734      18.748774      1.3499603     -1.8158261      17934.679    
    829000   1.1343265      0.0023323615   0.0059521771   20.410082      18.725607      1.6844749     -1.7446151      17829.201    
    830000   1.0822544      0.0023323615  -0.0039473504   20.491771      18.884623      1.6071478     -1.6708852      17953.2      
    831000   0.7953921      0.0023323615  -0.0049652033   19.967727      18.78657       1.1811573     -1.7065844      17870.437    
    832000   1.1617317      0.0023323615   0.0027439507   20.427896      18.702725      1.7251715     -1.7373563      17726.928    
    833000   1.0750628      0.0023323615   0.0031194958   20.319111      18.722643      1.5964683     -1.7148897      18022.012    
    834000   1.0372015      0.0023323615  -0.0056399098   20.464589      18.924345      1.5402442     -1.5847676      17884.67     
    835000   0.95830911     0.0023323615  -0.002546653    20.281765      18.858676      1.423089      -1.5954261      17864.938    
    836000   0.99501259     0.0023323615   0.005139883    20.503402      19.025808      1.4775937     -1.4723983      18027.992    
    837000   1.0939712      0.0023323615   0.00049767786  20.406688      18.78214       1.6245472     -1.7475131      17895.72     
    838000   0.98717196     0.0023323615  -0.0004425153   20.347499      18.881548      1.4659504     -1.6302311      17854.607    
    839000   1.2054946      0.0023323615   0.00076695151  20.600268      18.810108      1.7901595     -1.682963       18061.953    
    840000   0.93411688     0.0023323615   0.0005461267   20.234424      18.847261      1.3871636     -1.7349407      19150.328    
    841000   0.94073493     0.0023323615   0.0012197693   20.110972      18.713981      1.3969914     -1.7897246      19295.129    
    842000   1.0113039      0.0023323615   0.00041284887  20.583936      19.082149      1.5017863     -1.5585957      19208.032    
    843000   1.0498222      0.0023323615   0.00055828878  20.264567      18.705581      1.558986      -1.653141       19267.342    
    844000   0.97132642     0.0023323615  -0.0028508981   20.119237      18.676817      1.4424197     -1.8252         19315.049    
    845000   1.0470902      0.0023323615   0.0020321372   20.231588      18.676659      1.5549289     -1.8766704      19381.43     
    846000   1.1389381      0.0023323615   0.00018930618  20.416242      18.724919      1.6913231     -1.7683393      19159.558    
    847000   0.97823221     0.0023323615   0.0010259401   20.081173      18.628498      1.4526748     -1.8845551      19082.051    
    848000   0.98584799     0.0023323615  -0.0012741462   20.160956      18.696971      1.4639843     -1.756199       19088.718    
    849000   1.102765       0.0023323615   0.0007953448   20.616538      18.978932      1.637606      -1.529325       19159.267    
    850000   1.0009919      0.0023323615  -4.4326093e-05  20.317468      18.830995      1.486473      -1.8034754      19146.562    
    851000   1.0825353      0.0023323615   0.0027141289   20.250776      18.643211      1.607565      -1.822983       19203.25     
    852000   0.96978638     0.0023323615  -0.00024989216  20.024537      18.584405      1.4401328     -1.8046521      19261.62     
    853000   1.048377       0.0023323615  -0.0027856012   20.51427       18.95743       1.5568398     -1.6020492      19244.047    
    854000   1.097802       0.0023323615  -0.0060756345   20.310792      18.680556      1.6302359     -1.8472312      19146.985    
    855000   1.0728437      0.0023323615  -0.00085163302  20.401087      18.807914      1.5931728     -1.7151171      19183.408    
    856000   1.0255155      0.0023323615   0.00046984128  20.409269      18.886378      1.5228905     -1.6541276      19385.702    
    857000   1.1847833      0.0023323615   0.0033253358   20.444954      18.685551      1.7594032     -1.8215647      19332.089    
    858000   0.95633029     0.0023323615  -0.00036363042  20.236369      18.816219      1.4201505     -1.6105975      19270.103    
    859000   1.0796573      0.0023323615   0.0034260274   20.552103      18.948811      1.6032911     -1.5686087      19231.181    
    860000   0.94044614     0.0023323615  -0.00046803693  20.094348      18.697786      1.3965625     -1.7115901      19309.249    
    861000   1.0573422      0.0023323615  -0.00011700944  20.262296      18.692143      1.5701532     -1.8381371      19431.519    
    862000   0.89525717     0.0023323615  -0.0061636622   20.155892      18.826435      1.3294569     -1.6991108      19419.508    
    863000   1.0006488      0.0023323615  -0.0013688026   20.563049      19.077085      1.4859635     -1.510649       19430.414    
    864000   0.95939847     0.0023323615  -0.0039455054   20.101307      18.6766        1.4247067     -1.8281384      19334.661    
    865000   1.0572561      0.0023323615   0.0041705308   20.406837      18.836812      1.5700254     -1.7568236      19548.92     
    866000   1.0869148      0.0023323615   0.00020264589  20.130197      18.516129      1.6140685     -1.9903816      19318.181    
    867000   0.99551972     0.0023323615  -0.00015798047  20.342261      18.863914      1.4783468     -1.6854978      19301.375    
    868000   1.0007385      0.0023323615  -0.0062865085   20.447578      18.961481      1.4860967     -1.7398821      19215.305    
    869000   0.91284305     0.0023323615  -0.0032437525   20.066491      18.710919      1.3555719     -1.7694127      19197.193    
    870000   0.97047194     0.0023323615   0.00027325662  20.356942      18.915791      1.4411508     -1.7041884      19191.435    
    871000   0.97078669     0.0023323615  -0.00051979281  20.380952      18.939334      1.4416182     -1.6386747      19178.326    
    872000   0.92563653     0.0023323615  -0.00096594464  20.117178      18.742608      1.3745702     -1.7346434      19235.903    
    873000   0.88072772     0.0023323615   0.0016732888   20.053419      18.745538      1.3078807     -1.7134469      19434.549    
    874000   0.98128946     0.0023323615  -0.0078262504   20.502411      19.045196      1.4572148     -1.5294858      19409.105    
    875000   1.009494       0.0023323615  -0.0007652872   20.430177      18.931078      1.4990985     -1.539069       19383.037    
    876000   0.89954045     0.0023323615   0.0013145214   20.068748      18.732931      1.3358176     -1.7604838      19453.515    
    877000   1.0201903      0.0023323615  -0.0015633206   20.447565      18.932582      1.5149827     -1.6282256      19263.197    
    878000   0.81095969     0.0023323615  -0.0023327585   20.089117      18.884842      1.2042751     -1.5161614      19320.9      
    879000   1.1362712      0.0023323615   0.0070019169   20.656549      18.969186      1.6873627     -1.5290116      19463.848    
    880000   1.1940561      0.0023323615   0.00036200217  20.714921      18.941748      1.7731733     -1.5872566      19098.646    
    881000   1.1060406      0.0023323615  -0.0004500078   20.506231      18.86376       1.6424703     -1.6372117      19320.025    
    882000   0.93541448     0.0023323615  -0.00058744114  20.161592      18.772502      1.3890905     -1.6483866      19569.003    
    883000   0.87529065     0.0023323615   0.003362225    20.151718      18.851912      1.2998066     -1.6303673      19387.141    
    884000   1.0108181      0.0023323615  -0.0019772578   20.180296      18.679231      1.5010649     -1.9334023      19291.742    
    885000   1.102357       0.0023323615   0.00010362567  20.615216      18.978215      1.6370002     -1.626667       19487.706    
    886000   0.94153452     0.0023323615  -0.0031663133   20.064392      18.666213      1.3981788     -1.8330243      19318.383    
    887000   1.0195031      0.0023323615   0.00079114808  20.273598      18.759636      1.5139621     -1.6813914      19351.594    
    888000   1.0755872      0.0023323615   0.0010432704   20.448172      18.850925      1.597247      -1.7152985      19586.914    
    889000   1.0320965      0.0023323615  -0.001347267    20.340799      18.808136      1.5326633     -1.6772862      19398.946    
    890000   1.0473758      0.0023323615  -0.0019416058   20.548818      18.993465      1.5553531     -1.5381643      19463.795    
    891000   0.87524303     0.0023323615   0.0010871793   20.016266      18.71653       1.2997359     -1.7679733      19541.059    
    892000   1.0502659      0.0023323615  -0.0022605277   20.182874      18.623229      1.5596449     -1.9580728      19193.948    
    893000   1.0372922      0.0023323615  -5.0935488e-05  20.458951      18.918572      1.5403789     -1.6498951      19363.807    
    894000   0.8943682      0.0023323615  -7.9981576e-05  20.05498       18.726843      1.3281368     -1.6821283      19515.464    
    895000   1.0565736      0.0023323615  -0.00060213147  20.423828      18.854817      1.5690119     -1.7297193      19258.361    
    896000   0.89485475     0.0023323615  -0.0023013237   20.069865      18.741005      1.3288593     -1.8970613      19275.171    
    897000   1.0467021      0.0023323615   6.2369572e-05  20.313271      18.758918      1.5543527     -1.6422285      19383.989    
    898000   1.1252641      0.0023323615   0.0011377997   20.635313      18.964296      1.6710172     -1.4951836      19391.913    
    899000   0.94329835     0.0023323615  -0.0011248752   20.434233      19.033435      1.4007981     -1.4550098      19120.543    
    900000   0.97994065     0.0023323615   0.00054331986  20.583014      19.127802      1.4552119     -1.4709472      19234.205    
    901000   0.94533671     0.0023323615  -0.00092320238  20.150814      18.746989      1.403825      -1.8699019      19266.911    
    902000   0.96462821     0.0023323615  -0.0016701651   20.308501      18.876028      1.4324729     -1.6452832      19330.397    
    903000   0.89685085     0.0023323615   0.0033546192   20.17093       18.839107      1.3318235     -1.6096155      19144.021    
    904000   1.0387032      0.0023323615   0.0011573865   20.218112      18.675638      1.5424742     -1.7768262      19254.029    
    905000   1.0502925      0.0023323615  -0.0027508033   20.245854      18.68617       1.5596843     -1.7540766      19110.523    
    906000   0.99586253     0.0023323615  -0.0036265466   20.329454      18.850598      1.4788559     -1.6165374      19394.743    
    907000   0.97733456     0.0023323615  -0.0019142486   20.390137      18.938795      1.4513418     -1.6187998      19431.628    
    908000   1.1386676      0.0023323615  -5.5346478e-05  20.206969      18.516048      1.6909214     -1.862401       19449.228    
    909000   0.98645957     0.0023323615  -7.1640143e-05  20.327666      18.862774      1.4648925     -1.7442866      19307.684    
    910000   0.86395489     0.0023323615   0.00020533744  20.198931      18.915958      1.282973      -1.6170896      19409.697    
    911000   0.99459413     0.0023323615   0.0051036504   20.166499      18.689526      1.4769723     -1.8611046      19299.516    
    912000   1.0661563      0.0023323615   0.0082898717   20.488475      18.905233      1.5832421     -1.7314315      19160.547    
    913000   1.0411212      0.0023323615   0.00056504576  20.508954      18.962889      1.546065      -1.6001216      19378.849    
    914000   1.0488079      0.0023323615  -0.0015420111   20.660416      19.102937      1.5574798     -1.5178013      19187.624    
    915000   1.0254696      0.0023323615   0.0012175907   20.724129      19.201307      1.5228223     -1.4464288      19364.314    
    916000   0.95479197     0.0023323615   0.00098515501  20.310907      18.893041      1.4178661     -1.6068693      19148.869    
    917000   0.98631503     0.0023323615  -0.0024873817   20.418788      18.95411       1.4646778     -1.5571667      19134.633    
    918000   0.89162328     0.0023323615   0.0012030185   20.116229      18.792169      1.3240606     -1.7584399      19268.488    
    919000   1.0155369      0.0023323615  -0.00062103549  20.262083      18.75401       1.5080723     -1.7327144      19158.734    
    920000   0.99690561     0.0023323615   0.00046359787  20.333416      18.853011      1.4804048     -1.6539142      19399.998    
    921000   1.0074584      0.0023323615  -0.0012054688   20.401509      18.905434      1.4960757     -1.5540072      19090.321    
    922000   1.0245315      0.0023323615  -0.0021094308   20.40209       18.88066       1.5214293     -1.6780289      18797.329    
    923000   0.93992433     0.0023323615   0.0055727492   20.522283      19.126495      1.3957876     -1.3646604      18083.272    
    924000   0.869336       0.0023323615   0.002376701    20.178079      18.887115      1.290964      -1.6256355      17940.347    
    925000   1.0283914      0.0023323615  -0.0012125496   20.246449      18.719288      1.5271612     -1.6678173      19214.987    
    926000   0.92252045     0.0023323615   0.0029081949   20.128336      18.758393      1.3699429     -1.7916232      19379.906    
    927000   1.0522376      0.0023323615  -0.0017208157   20.297303      18.734731      1.5625728     -1.6000883      19401.193    
    928000   0.8258357      0.0023323615  -0.0030511179   20.011627      18.785261      1.226366      -1.7003732      19220.86     
    929000   1.101008       0.0023323615   0.00025494127  20.383021      18.748024      1.6349969     -1.7334331      19257.967    
    930000   1.0780083      0.0023323615   0.0054544631   20.349398      18.748556      1.6008423     -1.757383       19302.416    
    931000   1.0977641      0.0023323615  -0.0032946184   20.416586      18.786407      1.6301797     -1.7086256      19326.882    
    932000   1.0339053      0.0023323615  -0.0036478287   20.247765      18.712416      1.5353493     -1.8379762      19389.457    
    933000   1.1014269      0.0023323615  -0.00034500981  20.520297      18.884678      1.6356189     -1.7009558      19397.901    
    934000   0.92707243     0.0023323615  -0.001008646    19.918352      18.541649      1.3767026     -1.9802362      19463.336    
    935000   1.0280835      0.0023323615   0.0026280264   20.079231      18.552527      1.526704      -1.8922159      19270.028    
    936000   0.92465299     0.0023323615  -0.0029022394   20.425959      19.052849      1.3731097     -1.4526056      19394.592    
    937000   0.95682481     0.0023323615   0.0020368032   20.116057      18.695172      1.4208848     -1.7779442      19464.813    
    938000   0.91833952     0.0023323615  -0.00039594178  20.40627       19.042536      1.3637342     -1.4888861      19336.126    
    939000   0.97208802     0.0023323615   0.0021643851   20.556092      19.112541      1.4435507     -1.4069704      19412.324    
    940000   1.0724179      0.0023323615  -0.0031840989   20.543255      18.950715      1.5925406     -1.5087877      19651.194    
    941000   0.97527593     0.0023323615   0.00022164848  20.673155      19.22487       1.4482848     -1.4039409      19800.497    
    942000   0.85580678     0.0023323615  -0.0001940138   20.018802      18.747929      1.2708731     -1.8480785      19621.302    
    943000   0.859211       0.0023323615  -0.002434153    20.086994      18.811066      1.2759283     -1.7896953      19373.819    
    944000   0.92789487     0.0023323615  -0.00082332934  20.385392      19.007468      1.3779239     -1.6116794      19657.309    
    945000   1.0760289      0.0023323615   0.0041122545   20.443026      18.845123      1.5979029     -1.7047053      19402.532    
    946000   0.92029884     0.0023323615   0.0035902478   20.3225        18.955856      1.3666438     -1.5682606      19493.175    
    947000   0.98286661     0.0023323615  -0.0017176244   20.664701      19.205144      1.4595569     -1.2530129      19644.612    
    948000   1.1229128      0.0023323615   0.0019093293   20.381103      18.713577      1.6675255     -1.7529953      19660.643    
    949000   0.93548549     0.0023323615  -0.00079750654  20.256714      18.867518      1.389196      -1.7075951      19558.635    
    950000   0.96883609     0.0023323615  -0.00030600383  20.461536      19.022814      1.4387216     -1.5947343      19363.765    
    951000   0.9455911      0.0023323615   0.0053525285   20.168651      18.764448      1.4042028     -1.7504723      19275.357    
    952000   1.0835968      0.0023323615  -0.00087454265  20.231273      18.622132      1.6091413     -1.8315087      19370.578    
    953000   1.0119117      0.0023323615   0.0038855696   20.177758      18.675069      1.5026889     -1.8454757      19340.289    
    954000   0.88231287     0.0023323615  -0.0012392588   20.184902      18.874667      1.3102346     -1.8872586      19233.089    
    955000   1.0910898      0.0023323615   0.00082470115  20.484973      18.864705      1.6202684     -1.641645       19192.915    
    956000   0.96205336     0.0023323615   0.0010708821   20.22334       18.794691      1.4286492     -1.7078463      19225.625    
    957000   0.97344507     0.0023323615   0.0011997782   20.580551      19.134985      1.4455659     -1.3947188      19422.331    
    958000   1.0097924      0.0023323615  -0.0025893141   20.259556      18.760015      1.4995417     -1.7411712      19237.642    
    959000   1.0297887      0.0023323615   0.0038389443   20.374768      18.845532      1.5292363     -1.653361       19112.323    
    960000   0.98607999     0.0023323615  -0.0021981157   20.136793      18.672464      1.4643288     -1.8720904      19198.5      
    961000   0.87882655     0.0023323615   0.00035256255  19.976518      18.671461      1.3050574     -1.87995        19232.541    
    962000   0.87461147     0.0023323615  -0.0024106084   20.214946      18.916148      1.298798      -1.6020757      17710.286    
    963000   0.99624417     0.0023323615   0.0015212167   20.021922      18.5425        1.4794226     -2.0081777      18177.168    
    964000   0.97684306     0.0023323615  -0.0039029431   20.222188      18.771577      1.4506119     -1.678873       19205.323    
    965000   1.0920011      0.0023323615  -0.004820207    20.592987      18.971366      1.6216217     -1.57565        19171.393    
    966000   1.0204224      0.0023323615   0.00088869786  20.465089      18.949761      1.5153273     -1.5382943      19450.058    
    967000   0.95329768     0.0023323615   0.0051898754   20.488671      19.073024      1.4156471     -1.4392379      18788.971    
    968000   1.0273263      0.0023323615  -0.0065400264   20.679904      19.154325      1.5255795     -1.4123158      19099.373    
    969000   0.92017159     0.0023323615  -0.0021681973   20.318704      18.952249      1.3664548     -1.5824855      18322.148    
    970000   0.88128313     0.0023323615  -0.00086996002  20.100979      18.792274      1.3087054     -1.7533146      17930.54     
    971000   0.99587847     0.0023323615   0.0016588856   20.318534      18.839654      1.4788795     -1.6349509      17828.888    
    972000   0.8869872      0.0023323615  -0.00054988005  20.135144      18.817968      1.317176      -1.6159141      18695.6      
    973000   1.0298507      0.0023323615   0.001628991    20.041349      18.512021      1.5293283     -1.9629596      19153.047    
    974000   0.96867243     0.0023323615  -0.00088376844  20.298187      18.859709      1.4384786     -1.5859245      19485.61     
    975000   0.91554317     0.0023323615   0.0020431742   20.272381      18.912799      1.3595816     -1.559134       19459.989    
    976000   1.0222322      0.0023323615   0.0011736787   20.118515      18.6005        1.5180148     -1.8667072      19382.781    
    977000   0.92811952     0.0023323615  -0.0010365099   20.239673      18.861416      1.3782575     -1.6249052      19064.811    
    978000   0.92639785     0.0023323615  -0.0026604801   20.341181      18.96548       1.3757008     -1.6812465      18216.493    
    979000   1.0004023      0.0023323615   0.00066832899  20.407486      18.921889      1.4855974     -1.5983748      18232.888    
    980000   1.0050015      0.0023323615   0.0026349943   20.402507      18.91008       1.4924272     -1.6816097      18087.44     
    981000   0.90061426     0.0023323615   0.0019444112   20.482816      19.145403      1.3374122     -1.5286034      17705.37     
    982000   0.85452295     0.0023323615  -0.00077627638  20.115848      18.846881      1.2689666     -1.6166837      17806.303    
    983000   1.0112225      0.0023323615  -0.0015094883   20.469924      18.968259      1.5016654     -1.5570245      17701.065    
    984000   0.90578871     0.0023323615   0.004251094    20.012234      18.667138      1.3450962     -1.7903021      18473.619    
    985000   0.95974266     0.0023323615   0.0027082029   20.047234      18.622016      1.4252179     -1.823841       19365.448    
    986000   0.8778533      0.0023323615  -0.0014563993   20.191423      18.887811      1.3036121     -1.6344762      19265.405    
    987000   1.0472479      0.0023323615   0.0023799866   20.400869      18.845706      1.5551632     -1.6915938      19282.231    
    988000   0.96580948     0.0023323615   0.0049019794   20.055372      18.621145      1.4342271     -1.9181002      19285.711    
    989000   1.0925855      0.0023323615  -0.0038495539   20.552791      18.930301      1.6224895     -1.6539785      19289.938    
    990000   1.1033058      0.0023323615   0.00025265889  20.186098      18.547689      1.6384092     -1.9256301      19413.748    
    991000   1.0175908      0.0023323615   0.0041374968   20.338341      18.827219      1.5111223     -1.8050325      19121.301    
    992000   0.97864356     0.0023323615   0.0031064689   20.529182      19.075896      1.4532857     -1.5415057      19298.647    
    993000   0.91821918     0.0023323615  -0.0025103961   20.102382      18.738827      1.3635555     -1.7540827      18538.885    
    994000   1.0143005      0.0023323615   0.00032763136  20.784873      19.278637      1.5062363     -1.4361793      18659.81     
    995000   1.0097217      0.0023323615  -0.0050376423   20.517973      19.018536      1.4994367     -1.5658886      18135.02     
    996000   1.1375847      0.0023323615  -0.00021793295  20.627775      18.938462      1.6893132     -1.5798308      18186.372    
    997000   0.98579435     0.0023323615  -0.0023188107   20.330965      18.86706       1.4639046     -1.5770908      19342.069    
    998000   0.96315644     0.0023323615  -0.0024287472   20.301579      18.871291      1.4302873     -1.7529984      18130.201    
    999000   1.1479711      0.0023323615   0.00057166269  20.631729      18.926992      1.7047371     -1.6152965      18299.738    
   1000000   0.89557541     0.0023323615  -0.0046020936   19.957987      18.628057      1.3299295     -1.8389592      18569.709    
Loop time of 54.351 on 1 procs for 1000000 steps with 100 atoms

Performance: 7948334.722 tau/day, 18398.923 timesteps/s
99.4% CPU use with 1 MPI tasks x 1 OpenMP threads

MPI task timing breakdown:
Section |  min time  |  avg time  |  max time  |%varavg| %total
---------------------------------------------------------------
Pair    | 45.563     | 45.563     | 45.563     |   0.0 | 83.83
Bond    | 1.2334     | 1.2334     | 1.2334     |   0.0 |  2.27
Neigh   | 3.6968     | 3.6968     | 3.6968     |   0.0 |  6.80
Comm    | 1.337      | 1.337      | 1.337      |   0.0 |  2.46
Output  | 0.26718    | 0.26718    | 0.26718    |   0.0 |  0.49
Modify  | 1.905      | 1.905      | 1.905      |   0.0 |  3.50
Other   |            | 0.3488     |            |       |  0.64

Nlocal:            100 ave         100 max         100 min
Histogram: 1 0 0 0 0 0 0 0 0 0
Nghost:            316 ave         316 max         316 min
Histogram: 1 0 0 0 0 0 0 0 0 0
Neighs:           4851 ave        4851 max        4851 min
Histogram: 1 0 0 0 0 0 0 0 0 0

Total # of neighbors = 4851
Ave neighs/atom = 48.51
Ave special neighs/atom = 1.98
Neighbor list builds = 97856
Dangerous builds = 79763

write_data      ${outputfile_assembled} nofix nocoeff
write_data      7_assembled.data nofix nocoeff
System init for write_data ...
Generated 0 of 6 mixed pair_coeff terms from geometric mixing rule

Total wall time: 0:00:55
