LAMMPS (23 Jun 2022 - Update 1)
OMP_NUM_THREADS environment is not set. Defaulting to 1 thread. (src/comm.cpp:98)
  using 1 OpenMP thread(s) per MPI task


variable        runtime equal 1000000
variable		subsample_rate equal 1000

variable		outputfile_created string '3_created.data'
variable		outputfile_relaxed string '5_relaxed.data'
variable		outputfile_selfasb string '6_a_self_assemble.lammpstrj'
variable		outputfile_trajlin string '6_b_trajlin.data'
variable		outputfile_assembled string '7_assembled.data'

units           lj
atom_style      full
dimension       3
boundary        p p p
timestep        0.005

read_data       ${outputfile_created}
read_data       3_created.data
Reading data file ...
  orthogonal box = (0 0 0) to (35 35 35)
  1 by 1 by 1 MPI processor grid
  reading atoms ...
  100 atoms
  reading velocities ...
  100 velocities
  scanning bonds ...
  1 = max bonds/atom
  reading bonds ...
  99 bonds
Finding 1-2 1-3 1-4 neighbors ...
  special bond factors lj:    0        0        0       
  special bond factors coul:  0        0        0       
     2 = max # of 1-2 neighbors
     2 = max # of 1-3 neighbors
     4 = max # of 1-4 neighbors
     6 = max # of special neighbors
  special bonds CPU = 0.000 seconds
  read_data CPU = 0.007 seconds

bond_style      fene
bond_coeff      * 30.0 1.5 1.0 1.0
special_bonds   fene
Finding 1-2 1-3 1-4 neighbors ...
  special bond factors lj:    0        1        1       
  special bond factors coul:  0        1        1       
     2 = max # of 1-2 neighbors
     6 = max # of special neighbors
  special bonds CPU = 0.000 seconds

variable        Temp equal 1.0
variable        velSeed equal 926458

velocity        all create ${Temp} ${velSeed}
velocity        all create 1 ${velSeed}
velocity        all create 1 926458

### Output
thermo_style    custom step temp density press etotal pe ke epair spcpu
thermo          1000

###########################################################################
# Soft relaxation (to remove overlaps of particles)
######################################################################

pair_style      soft 1.0
pair_coeff      * * 0.0
variable        prefactor equal ramp(0,300)
fix             rampSoft all adapt 1 pair soft a * * v_prefactor

minimize        0.0 1.0e-8 1000 100000
WARNING: Using 'neigh_modify every 1 delay 0 check yes' setting during minimization (src/min.cpp:187)
Generated 0 of 6 mixed pair_coeff terms from geometric mixing rule
Neighbor list info ...
  update every 1 steps, delay 0 steps, check yes
  max neighbors/atom: 2000, page size: 100000
  master list distance cutoff = 1.3
  ghost atom cutoff = 1.3
  binsize = 0.65, bins = 54 54 54
  1 neighbor lists, perpetual/occasional/extra = 1 0 0
  (1) pair soft, perpetual
      attributes: half, newton on
      pair build: half/bin/newton
      stencil: half/bin/3d
      bin: standard
WARNING: Communication cutoff 1.3 is shorter than a bond length based estimate of 1.7550000000000001. This may lead to errors. (src/comm.cpp:727)
Per MPI rank memory allocation (min/avg/max) = 8.346 | 8.346 | 8.346 Mbytes
   Step          Temp         Density         Press          TotEng         PotEng         KinEng         E_pair         S/CPU     
         0   1              0.0023323615  -0.0039617958   21.524174      20.039174      1.485          0              0            
       362   1              0.0023323615   0.0023090379   21.485548      20.000548      1.485          0              56686.342    
Loop time of 0.00638992 on 1 procs for 362 steps with 100 atoms

97.1% CPU use with 1 MPI tasks x 1 OpenMP threads

Minimization stats:
  Stopping criterion = force tolerance
  Energy initial, next-to-last, final = 
      20.0391741078675   20.0005480767337   20.0005480767337
  Force two-norm initial, final = 11.878422 7.9509778e-09
  Force max component initial, final = 6.6117807 1.3572772e-09
  Final line search alpha, max atom move = 1 1.3572772e-09
  Iterations, force evaluations = 362 738

MPI task timing breakdown:
Section |  min time  |  avg time  |  max time  |%varavg| %total
---------------------------------------------------------------
Pair    | 0.00023278 | 0.00023278 | 0.00023278 |   0.0 |  3.64
Bond    | 0.0025368  | 0.0025368  | 0.0025368  |   0.0 | 39.70
Neigh   | 0.0023068  | 0.0023068  | 0.0023068  |   0.0 | 36.10
Comm    | 0.00020892 | 0.00020892 | 0.00020892 |   0.0 |  3.27
Output  | 0          | 0          | 0          |   0.0 |  0.00
Modify  | 0          | 0          | 0          |   0.0 |  0.00
Other   |            | 0.001105   |            |       | 17.29

Nlocal:            100 ave         100 max         100 min
Histogram: 1 0 0 0 0 0 0 0 0 0
Nghost:             20 ave          20 max          20 min
Histogram: 1 0 0 0 0 0 0 0 0 0
Neighs:              0 ave           0 max           0 min
Histogram: 1 0 0 0 0 0 0 0 0 0

Total # of neighbors = 0
Ave neighs/atom = 0
Ave special neighs/atom = 1.98
Neighbor list builds = 17
Dangerous builds = 0

fix             nvtSoft all nvt temp ${Temp} ${Temp} 0.5
fix             nvtSoft all nvt temp 1 ${Temp} 0.5
fix             nvtSoft all nvt temp 1 1 0.5
run             100000
Generated 0 of 6 mixed pair_coeff terms from geometric mixing rule
WARNING: Communication cutoff 1.3 is shorter than a bond length based estimate of 1.7550000000000001. This may lead to errors. (src/comm.cpp:727)
Per MPI rank memory allocation (min/avg/max) = 7.221 | 7.221 | 7.221 Mbytes
   Step          Temp         Density         Press          TotEng         PotEng         KinEng         E_pair         S/CPU     
       362   1              0.0023323615   0.0023090379   21.485548      20.000548      1.485          0              0            
      1000   0.90989032     0.0023323615  -0.0021940042   21.776974      20.425787      1.3511871      0.00036425437  67516.807    
      2000   0.86546688     0.0023323615   0.0034714157   21.677128      20.39191       1.2852183      0.0025814786   68746.59     
      3000   0.98199538     0.0023323615   0.0028144228   21.866132      20.407869      1.4582631      0.0011756043   66640.681    
      4000   1.004495       0.0023323615  -0.0014058211   21.945624      20.453949      1.4916751      0.011986179    65256.955    
      5000   1.1222705      0.0023323615   0.0044495116   21.986385      20.319813      1.6665718      0.0050317639   65572.059    
      6000   1.0538243      0.0023323615   0.0023957538   21.985713      20.420784      1.564929       0.012100514    67640.221    
      7000   1.0210598      0.0023323615  -0.00038820026  21.904665      20.388391      1.5162738      0              67992.156    
      8000   0.94819751     0.0023323615   0.0024943091   21.747889      20.339816      1.4080733      0              63877.119    
      9000   0.92364502     0.0023323615   0.0020053029   21.724166      20.352554      1.3716129      1.7780894e-05  69875.66     
     10000   0.86685188     0.0023323615   0.00078277366  21.644879      20.357604      1.287275       0.0098636418   71075.317    
     11000   1.0057103      0.0023323615   0.00010113276  21.8558        20.362321      1.4934798      0.020705341    70715.782    
     12000   0.97901664     0.0023323615  -0.0026996968   21.871206      20.417366      1.4538397      0.0052928539   66601.238    
     13000   0.97718436     0.0023323615  -6.1641422e-06  21.963706      20.512587      1.4511188      0.025022446    67447.884    
     14000   1.0530014      0.0023323615  -0.0009993112   21.947994      20.384287      1.5637071      0.0020860456   67086.35     
     15000   0.99094527     0.0023323615   0.0011068478   21.895146      20.423592      1.4715537      0.0015091113   66995.974    
     16000   0.91285091     0.0023323615  -0.00025424173  21.87524       20.519657      1.3555836      0.0047853639   61556.091    
     17000   0.82806978     0.0023323615  -0.00054698156  21.701984      20.472301      1.2296836      0              64409.396    
     18000   1.043278       0.0023323615  -6.6143919e-05  22.003299      20.454031      1.5492679      0.0034319132   68439.388    
     19000   1.0879249      0.0023323615  -0.0017804642   21.998985      20.383416      1.6155685      0.015376175    67748.805    
     20000   1.1144506      0.0023323615   0.0025198298   22.190904      20.535944      1.6549592      0              71444.059    
     21000   1.0427751      0.0023323615   0.0011345349   22.099492      20.550971      1.548521       0.00040047813  71150.809    
     22000   1.0586695      0.0023323615   0.0017882747   22.05673       20.484606      1.5721242      0              70025.721    
     23000   1.0058426      0.0023323615  -0.0055245362   21.954628      20.460951      1.4936763      0.0027619031   68611.2      
     24000   0.98273442     0.0023323615   0.0015147357   21.862067      20.402707      1.4593606      0              68822.523    
     25000   0.95835343     0.0023323615   0.0017808774   21.937761      20.514606      1.4231548      0.00020839942  66863.58     
     26000   0.93993778     0.0023323615  -0.0021777292   21.884849      20.489042      1.3958076      0.0088889834   67206.234    
     27000   0.9308188      0.0023323615  -0.00011239942  21.842252      20.459986      1.3822659      0.021612409    67468.671    
     28000   1.0149581      0.0023323615   0.0041996387   21.906846      20.399633      1.5072129      0.0064059022   67901.173    
     29000   0.92841138     0.0023323615  -2.5398808e-05  21.987185      20.608494      1.3786909      0.0046112484   68884.419    
     30000   1.021043       0.0023323615   0.001589158    22.097958      20.581709      1.5162489      0.016799508    69470.39     
     31000   1.0465985      0.0023323615  -0.0021744286   22.037917      20.483718      1.5541987      0.0057879149   71280.735    
     32000   0.98907108     0.0023323615  -0.0015558606   22.044089      20.575318      1.4687705      0.009448173    70664.561    
     33000   1.0918536      0.0023323615  -0.0025643847   22.039275      20.417873      1.6214025      0              68215.532    
     34000   0.99801543     0.0023323615   0.0016279766   21.932339      20.450286      1.4820529      0.017384617    71976.41     
     35000   1.0352271      0.0023323615  -0.0052971711   22.076004      20.538692      1.5373122      0.00010473809  69581.97     
     36000   1.1141579      0.0023323615  -0.00093279925  22.222491      20.567966      1.6545245      0.00033678641  69329.877    
     37000   1.0369415      0.0023323615   0.00013065175  22.217841      20.677983      1.5398581      0.013788831    69567.521    
     38000   1.0515596      0.0023323615   0.0021717558   22.070766      20.5092        1.561566       0.0067894678   71318.323    
     39000   1.0238495      0.0023323615   0.00026414509  22.040141      20.519725      1.5204165      0.00044464649  64683.212    
     40000   1.0749111      0.0023323615  -0.0026849368   22.039327      20.443084      1.596243       0.012651334    60356.324    
     41000   0.99070886     0.0023323615  -0.0030385564   22.03241       20.561207      1.4712027      0.00092855646  67865.023    
     42000   0.95315224     0.0023323615   0.0019788197   21.965263      20.549832      1.4154311      0.020233689    68077.301    
     43000   1.0644183      0.0023323615  -0.0011168725   22.287172      20.706511      1.5806611      0.039694129    70320.842    
     44000   1.0253747      0.0023323615  -0.006676522    22.066233      20.543552      1.5226814      0              70120.764    
     45000   0.94179556     0.0023323615  -0.0047206018   21.970644      20.572077      1.3985664      0.019869988    68619.924    
     46000   1.0083495      0.0023323615  -0.0017646918   21.972114      20.474715      1.497399       0.00026040605  67212.657    
     47000   0.98767959     0.0023323615  -0.00080218158  22.091674      20.62497       1.4667042      0.024266258    65012.726    
     48000   1.1473449      0.0023323615  -0.0025885687   22.080512      20.376705      1.7038072      0.00065962995  67507.367    
     49000   1.0679312      0.0023323615   0.0017688272   21.970482      20.384604      1.5858779      0.014142422    68111.632    
     50000   0.9581935      0.0023323615   0.0014398836   21.955202      20.532284      1.4229173      0.0055011948   69259.152    
     51000   1.0215759      0.0023323615  -0.00093292688  21.934681      20.41764       1.5170402      0              67458.69     
     52000   0.98079591     0.0023323615   0.0040701936   21.977374      20.520892      1.4564819      0.0020862422   67611.584    
     53000   1.0090927      0.0023323615   0.0013324753   22.095438      20.596935      1.4985027      0              65551.045    
     54000   0.97519627     0.0023323615   0.0013260734   22.070151      20.621984      1.4481665      0.026885444    66017.734    
     55000   1.1805087      0.0023323615  -0.001586238    22.424088      20.671033      1.7530554      0.024690954    66785.465    
     56000   0.98387121     0.0023323615   0.0037155145   22.104425      20.643376      1.4610487      0.01435493     67433.984    
     57000   1.0723812      0.0023323615  -0.0037916262   22.122726      20.53024       1.592486       0.013635549    68010.176    
     58000   1.0152349      0.0023323615   0.00021908047  22.082827      20.575203      1.5076238      0.00077375639  68453.518    
     59000   1.1424502      0.0023323615  -0.0052108657   22.30072       20.604182      1.6965385      0.013308184    69557.05     
     60000   1.0359703      0.0023323615  -0.00097887545  22.188218      20.649802      1.538416       0.00011346294  65460.633    
     61000   1.1646839      0.0023323615  -0.002085017    22.239945      20.51039       1.7295556      0.012918477    68926.087    
     62000   1.101836       0.0023323615   0.0010338878   22.171386      20.53516       1.6362265      0.001396566    68192.273    
     63000   0.96616435     0.0023323615   0.00097550571  21.903821      20.469067      1.4347541      0.013027663    70969.495    
     64000   1.0068907      0.0023323615  -0.0020278726   22.061652      20.566419      1.4952327      0.013750276    68083.336    
     65000   0.98723233     0.0023323615   0.0022441476   22.031073      20.565033      1.46604        0.0066686189   68235.766    
     66000   1.0273881      0.0023323615  -0.0003515278   22.183579      20.657908      1.5256713      0              67759.841    
     67000   0.96528212     0.0023323615  -0.00014822656  21.9396        20.506156      1.4334439      0.010365557    68326.107    
     68000   1.069702       0.0023323615   9.4754668e-05  22.081119      20.492611      1.5885075      0.00049153926  62732.207    
     69000   1.1229502      0.0023323615   0.0011504079   22.200329      20.532748      1.6675811      0.0068454249   62891.231    
     70000   1.0062775      0.0023323615  -0.00085311964  22.094021      20.599699      1.4943221      0.013222355    67404.84     
     71000   1.0906935      0.0023323615   0.00015260357  22.145362      20.525682      1.6196798      0.018338513    70133.87     
     72000   1.010401       0.0023323615  -6.0487182e-06  22.154105      20.653659      1.5004455      0.0013793953   69007.24     
     73000   1.1177599      0.0023323615  -0.0034084797   22.254435      20.594562      1.6598735      0.00011231735  71865.245    
     74000   0.9768019      0.0023323615   0.00016143893  22.07312       20.622569      1.4505508      0.0084515956   68897.447    
     75000   1.1360996      0.0023323615   0.002159116    22.161595      20.474487      1.6871079      0.0089909162   70681.124    
     76000   0.97379329     0.0023323615  -0.00068458621  21.988928      20.542845      1.446083       0              68905.911    
     77000   0.94876793     0.0023323615  -0.0016073976   21.923496      20.514575      1.4089204      0.017745108    68153.764    
     78000   0.83947996     0.0023323615  -0.00062768559  21.726727      20.480099      1.2466277      0.0054510099   68519.169    
     79000   1.0090614      0.0023323615  -0.00080262643  22.068192      20.569736      1.4984562      0.00023011166  69386.454    
     80000   1.1217643      0.0023323615  -0.0038177864   22.367902      20.702082      1.66582        0.032902439    69805.387    
     81000   1.0240158      0.0023323615   0.00023547123  22.031597      20.510933      1.5206635      0.0068767308   67758.091    
     82000   1.003236       0.0023323615  -0.0022802982   21.894199      20.404393      1.4898055      0.019136282    68294.083    
     83000   1.0554159      0.0023323615   0.004011718    22.104562      20.537269      1.5672927      0.0080869707   67747.01     
     84000   0.83527346     0.0023323615  -0.0034122221   21.874648      20.634267      1.2403811      0.0030083664   68738.401    
     85000   1.036002       0.0023323615   0.0013573923   21.962923      20.42446       1.5384629      0.015709144    69178.367    
     86000   0.9432002      0.0023323615  -0.0032183248   21.913588      20.512936      1.4006523      0.013730309    69253.483    
     87000   0.95566008     0.0023323615  -0.00049614223  21.91653       20.497375      1.4191552      0.0035862035   69613.712    
     88000   0.93373351     0.0023323615  -0.00097093893  21.870485      20.483891      1.3865943      0.0018212145   69162.023    
     89000   0.9684944      0.0023323615  -0.00047342045  21.973429      20.535215      1.4382142      0.00087524744  73913.064    
     90000   0.98293324     0.0023323615  -0.0032204602   22.050919      20.591263      1.4596559      0.015353933    76357.829    
     91000   1.0832827      0.0023323615   0.0048517083   22.11977       20.511095      1.6086749      0.0052867789   72936.497    
     92000   0.85899662     0.0023323615  -0.0013049519   21.765697      20.490087      1.27561        0.0024124001   67267.061    
     93000   0.96176266     0.0023323615  -4.4223672e-05  21.874222      20.446004      1.4282176      0.0045653365   64639.227    
     94000   0.96019503     0.0023323615   0.00024459347  21.944954      20.519064      1.4258896      3.8053462e-05  65361.613    
     95000   0.94702149     0.0023323615  -0.0033658915   21.86315       20.456823      1.4063269      0              64014.114    
     96000   0.91119348     0.0023323615  -0.0013197298   21.825018      20.471896      1.3531223      0.00043282989  65615.554    
     97000   1.0016687      0.0023323615  -0.0019514304   22.013024      20.525546      1.487478       0.0048369955   68256.297    
     98000   1.02143        0.0023323615  -0.0057874974   22.177965      20.661142      1.5168235      0              67710.106    
     99000   1.032786       0.0023323615   0.0018228259   21.975336      20.441649      1.5336871      7.1595851e-05  70567.686    
    100000   1.0594928      0.0023323615   0.0036169719   22.011024      20.437677      1.5733468      0.00032948157  70068.585    
    100362   1.1904942      0.0023323615  -0.00089755607  22.316856      20.548972      1.7678839      0.00063845255  70037.062    
Loop time of 1.46803 on 1 procs for 100000 steps with 100 atoms

Performance: 29427271.022 tau/day, 68118.683 timesteps/s
98.7% CPU use with 1 MPI tasks x 1 OpenMP threads

MPI task timing breakdown:
Section |  min time  |  avg time  |  max time  |%varavg| %total
---------------------------------------------------------------
Pair    | 0.051906   | 0.051906   | 0.051906   |   0.0 |  3.54
Bond    | 0.13304    | 0.13304    | 0.13304    |   0.0 |  9.06
Neigh   | 0.92446    | 0.92446    | 0.92446    |   0.0 | 62.97
Comm    | 0.05992    | 0.05992    | 0.05992    |   0.0 |  4.08
Output  | 0.0027118  | 0.0027118  | 0.0027118  |   0.0 |  0.18
Modify  | 0.25878    | 0.25878    | 0.25878    |   0.0 | 17.63
Other   |            | 0.0372     |            |       |  2.53

Nlocal:            100 ave         100 max         100 min
Histogram: 1 0 0 0 0 0 0 0 0 0
Nghost:             60 ave          60 max          60 min
Histogram: 1 0 0 0 0 0 0 0 0 0
Neighs:             36 ave          36 max          36 min
Histogram: 1 0 0 0 0 0 0 0 0 0

Total # of neighbors = 36
Ave neighs/atom = 0.36
Ave special neighs/atom = 1.98
Neighbor list builds = 9821
Dangerous builds = 8265
unfix           nvtSoft
unfix           rampSoft
reset_timestep  0

write_data      ${outputfile_relaxed}
write_data      5_relaxed.data
System init for write_data ...
Generated 0 of 6 mixed pair_coeff terms from geometric mixing rule
WARNING: Communication cutoff 1.3 is shorter than a bond length based estimate of 1.7550000000000001. This may lead to errors. (src/comm.cpp:727)
WARNING: Not all mixed pair coeffs generated from mixing. Use write_data with 'pair ij' option to store all pair coeffs. (src/write_data.cpp:309)

###########################################################################
# Full LJ with Coulomb
######################################################################

# Cutoffs and parameters:
# - Values: Marcel Verkade's Bachelor Thesis
# - Mapping to atom groups: Patrick Onck's paper
# - 1: aliphatic, 2: aromatic, 3: anion, 4: cation
# pair_style	lj/cut/coul/cut <lj_cut_global> <coul_cut_global>
# pair_coeff	<type_1>  <type_2>  <eps>  <sigma>  <r_cut_lj>  <r_cut_coul>

# Problem: Onck's model is much more complex, and Marcel has no sigma reported
# Using sigma=1 randomly

variable		glob_ljeps equal 1.0
variable		glob_ljsig 	equal 1.0
variable		glob_coulcut equal 10.0
variable		att_ljcut equal 2.50
variable		rep_ljcut equal 1.12

pair_style		lj/cut/coul/cut 						${att_ljcut} 	${glob_coulcut}
pair_style		lj/cut/coul/cut 						2.5 	${glob_coulcut}
pair_style		lj/cut/coul/cut 						2.5 	10
pair_coeff		1 1 	${glob_ljeps} 	${glob_ljsig}	${att_ljcut} 	${glob_coulcut}
pair_coeff		1 1 	1 	${glob_ljsig}	${att_ljcut} 	${glob_coulcut}
pair_coeff		1 1 	1 	1	${att_ljcut} 	${glob_coulcut}
pair_coeff		1 1 	1 	1	2.5 	${glob_coulcut}
pair_coeff		1 1 	1 	1	2.5 	10
pair_coeff		1 2 	${glob_ljeps} 	${glob_ljsig}	${att_ljcut} 	${glob_coulcut}
pair_coeff		1 2 	1 	${glob_ljsig}	${att_ljcut} 	${glob_coulcut}
pair_coeff		1 2 	1 	1	${att_ljcut} 	${glob_coulcut}
pair_coeff		1 2 	1 	1	2.5 	${glob_coulcut}
pair_coeff		1 2 	1 	1	2.5 	10
pair_coeff		1 3 	${glob_ljeps} 	${glob_ljsig}	${rep_ljcut} 	${glob_coulcut}
pair_coeff		1 3 	1 	${glob_ljsig}	${rep_ljcut} 	${glob_coulcut}
pair_coeff		1 3 	1 	1	${rep_ljcut} 	${glob_coulcut}
pair_coeff		1 3 	1 	1	1.12 	${glob_coulcut}
pair_coeff		1 3 	1 	1	1.12 	10
pair_coeff		1 4 	${glob_ljeps} 	${glob_ljsig}	${rep_ljcut} 	${glob_coulcut}
pair_coeff		1 4 	1 	${glob_ljsig}	${rep_ljcut} 	${glob_coulcut}
pair_coeff		1 4 	1 	1	${rep_ljcut} 	${glob_coulcut}
pair_coeff		1 4 	1 	1	1.12 	${glob_coulcut}
pair_coeff		1 4 	1 	1	1.12 	10
pair_coeff		2 2 	${glob_ljeps} 	${glob_ljsig}	${att_ljcut} 	${glob_coulcut}
pair_coeff		2 2 	1 	${glob_ljsig}	${att_ljcut} 	${glob_coulcut}
pair_coeff		2 2 	1 	1	${att_ljcut} 	${glob_coulcut}
pair_coeff		2 2 	1 	1	2.5 	${glob_coulcut}
pair_coeff		2 2 	1 	1	2.5 	10
pair_coeff		2 3 	${glob_ljeps} 	${glob_ljsig}	${rep_ljcut} 	${glob_coulcut}
pair_coeff		2 3 	1 	${glob_ljsig}	${rep_ljcut} 	${glob_coulcut}
pair_coeff		2 3 	1 	1	${rep_ljcut} 	${glob_coulcut}
pair_coeff		2 3 	1 	1	1.12 	${glob_coulcut}
pair_coeff		2 3 	1 	1	1.12 	10
pair_coeff		2 4 	${glob_ljeps} 	${glob_ljsig}	${att_ljcut} 	${glob_coulcut}
pair_coeff		2 4 	1 	${glob_ljsig}	${att_ljcut} 	${glob_coulcut}
pair_coeff		2 4 	1 	1	${att_ljcut} 	${glob_coulcut}
pair_coeff		2 4 	1 	1	2.5 	${glob_coulcut}
pair_coeff		2 4 	1 	1	2.5 	10
pair_coeff		3 3 	${glob_ljeps} 	${glob_ljsig}	${rep_ljcut} 	${glob_coulcut}
pair_coeff		3 3 	1 	${glob_ljsig}	${rep_ljcut} 	${glob_coulcut}
pair_coeff		3 3 	1 	1	${rep_ljcut} 	${glob_coulcut}
pair_coeff		3 3 	1 	1	1.12 	${glob_coulcut}
pair_coeff		3 3 	1 	1	1.12 	10
pair_coeff		3 4 	${glob_ljeps} 	${glob_ljsig}	${att_ljcut} 	${glob_coulcut}
pair_coeff		3 4 	1 	${glob_ljsig}	${att_ljcut} 	${glob_coulcut}
pair_coeff		3 4 	1 	1	${att_ljcut} 	${glob_coulcut}
pair_coeff		3 4 	1 	1	2.5 	${glob_coulcut}
pair_coeff		3 4 	1 	1	2.5 	10
pair_coeff		4 4 	${glob_ljeps} 	${glob_ljsig}	${rep_ljcut} 	${glob_coulcut}
pair_coeff		4 4 	1 	${glob_ljsig}	${rep_ljcut} 	${glob_coulcut}
pair_coeff		4 4 	1 	1	${rep_ljcut} 	${glob_coulcut}
pair_coeff		4 4 	1 	1	1.12 	${glob_coulcut}
pair_coeff		4 4 	1 	1	1.12 	10


fix             noDriftRot 	all momentum 10 linear 1 1 1 angular
fix             nvt1 		all nvt temp ${Temp} ${Temp} 0.5
fix             nvt1 		all nvt temp 1 ${Temp} 0.5
fix             nvt1 		all nvt temp 1 1 0.5

# dump          assemble 	all custom 1000 				${outputfile_selfasb} id type xu yu zu vx vy vz
dump            lindump 	all custom ${subsample_rate} 	${outputfile_trajlin} id type xu yu zu vx vy vz
dump            lindump 	all custom 1000 	${outputfile_trajlin} id type xu yu zu vx vy vz
dump            lindump 	all custom 1000 	6_b_trajlin.data id type xu yu zu vx vy vz

run             ${runtime}
run             1000000
Generated 0 of 6 mixed pair_coeff terms from geometric mixing rule
Neighbor list info ...
  update every 1 steps, delay 10 steps, check yes
  max neighbors/atom: 2000, page size: 100000
  master list distance cutoff = 10.3
  ghost atom cutoff = 10.3
  binsize = 5.15, bins = 7 7 7
  1 neighbor lists, perpetual/occasional/extra = 1 0 0
  (1) pair lj/cut/coul/cut, perpetual
      attributes: half, newton on
      pair build: half/bin/newton
      stencil: half/bin/3d
      bin: standard
Per MPI rank memory allocation (min/avg/max) = 7.712 | 7.712 | 7.712 Mbytes
   Step          Temp         Density         Press          TotEng         PotEng         KinEng         E_pair         S/CPU     
         0   1.1904942      0.0023323615  -0.0015367813   22.00566       20.237776      1.7678839     -0.31055783     0            
      1000   0.98846695     0.0023323615  -0.0018182647   21.134504      19.66663       1.4678734     -0.75839982     32982.633    
      2000   1.0494292      0.0023323615   0.0053594922   21.090466      19.532063      1.5584024     -1.0538917      30128.344    
      3000   1.0380663      0.0023323615  -0.0061274006   21.190398      19.64887       1.5415284     -1.0035453      24817.584    
      4000   0.89465395     0.0023323615  -0.00094661384  20.037659      18.709098      1.3285611     -1.7082716      19234.266    
      5000   1.0400198      0.0023323615   0.0018686645   20.617659      19.07323       1.5444295     -1.4132843      17682.051    
      6000   1.0065         0.0023323615   0.0012224686   19.93821       18.443558      1.4946526     -1.976316       17802.414    
      7000   1.0385308      0.0023323615  -0.0013852779   20.326504      18.784285      1.5422182     -1.7368519      17505.73     
      8000   0.91317558     0.0023323615   0.00052216316  20.008365      18.652299      1.3560657     -1.9099211      17520.292    
      9000   1.1830733      0.0023323615  -0.0041120893   20.428395      18.671531      1.7568639     -1.7594252      17510.459    
     10000   1.0538278      0.0023323615   0.0052627616   20.205515      18.640581      1.5649342     -1.8797332      17730.281    
     11000   0.85280625     0.0023323615   0.0028341203   20.15859       18.892173      1.2664173     -1.6136539      17756.685    
     12000   0.96389893     0.0023323615  -0.0024455659   20.13927       18.70788       1.4313899     -1.8812022      17891.661    
     13000   0.85259593     0.0023323615  -0.00071960707  20.042084      18.775979      1.266105      -1.6794608      17137.259    
     14000   1.1308134      0.0023323615   0.0039146297   20.117135      18.437878      1.6792579     -1.9936438      16937.568    
     15000   0.98624235     0.0023323615  -0.00081201564  20.225304      18.760734      1.4645699     -1.7315762      17090.482    
     16000   0.98440743     0.0023323615  -0.0059420411   20.296967      18.835122      1.461845      -1.7459625      17052.093    
     17000   1.0953514      0.0023323615   1.5807408e-05  20.45618       18.829584      1.6265969     -1.6118871      17064.55     
     18000   0.80375885     0.0023323615   0.0042020839   19.805065      18.611483      1.1935819     -1.796938       17237.774    
     19000   0.95231082     0.0023323615  -0.0011748736   20.075451      18.661269      1.4141816     -1.7891844      17065.528    
     20000   0.80440262     0.0023323615  -0.0058535012   20.066167      18.871629      1.1945379     -1.6657128      16827.505    
     21000   0.91189791     0.0023323615  -0.0014343948   19.84815       18.493982      1.3541684     -2.0377324      16988.275    
     22000   1.0928941      0.0023323615  -0.0019143945   20.293804      18.670856      1.6229478     -1.8379803      17117.705    
     23000   0.97528051     0.0023323615   0.00022336243  19.780927      18.332636      1.4482916     -2.0578812      17153.937    
     24000   1.0022187      0.0023323615  -0.00094819898  20.135491      18.647197      1.4882948     -1.8940645      17188.323    
     25000   1.1190469      0.0023323615  -0.00043932143  20.246254      18.58447       1.6617846     -1.8968327      18184.271    
     26000   1.1359137      0.0023323615   0.00082527516  20.147655      18.460824      1.6868319     -2.0986445      17301.829    
     27000   0.97251572     0.0023323615  -0.00014253029  20.208933      18.764748      1.4441858     -1.6752792      17054.415    
     28000   0.94848439     0.0023323615   0.00029617114  20.219649      18.81115       1.4084993     -1.7191915      17195.447    
     29000   1.0600759      0.0023323615   0.0013893037   20.016698      18.442485      1.5742127     -2.0390937      17266.55     
     30000   1.0100216      0.0023323615   0.0020764275   20.232553      18.732671      1.4998821     -1.8077712      17150.548    
     31000   0.87077759     0.0023323615  -0.0020820461   20.117397      18.824292      1.2931047     -1.7429248      17671.091    
     32000   0.96134006     0.0023323615  -0.0037176431   20.103425      18.675835      1.42759       -1.8182061      17485.462    
     33000   0.91204658     0.0023323615   0.003129251    20.319169      18.96478       1.3543892     -1.4774791      17361.707    
     34000   0.91853599     0.0023323615   0.0048005802   20.143636      18.77961       1.3640259     -1.699119       16947.844    
     35000   1.0317723      0.0023323615  -0.0001479469   20.289661      18.757479      1.5321819     -1.7198446      16865.142    
     36000   1.0839312      0.0023323615   0.0027982015   20.251977      18.642339      1.6096379     -1.8366626      16770.644    
     37000   0.94948693     0.0023323615  -0.0021734423   20.203776      18.793788      1.4099881     -1.710084       16977.996    
     38000   0.98158759     0.0023323615   0.0013642975   20.289304      18.831646      1.4576576     -1.7923831      17688.575    
     39000   1.0003749      0.0023323615   0.002004598    20.064738      18.579181      1.4855568     -1.8326319      17665.737    
     40000   1.0572089      0.0023323615   0.00079738412  20.42848       18.858524      1.5699552     -1.7181882      16965.197    
     41000   0.98939395     0.0023323615   0.0017952402   20.024987      18.555737      1.46925       -2.0392999      16997.049    
     42000   1.1937944      0.0023323615   0.0036388141   20.371818      18.599034      1.7727847     -1.8975546      17126.441    
     43000   0.93886347     0.0023323615  -0.0039577914   20.092676      18.698464      1.3942122     -1.8185875      17443.929    
     44000   1.0242513      0.0023323615  -0.0008658761   20.213618      18.692605      1.5210132     -1.8454409      18087.164    
     45000   0.97847814     0.0023323615  -0.0065928805   20.219078      18.766037      1.45304       -1.7814428      17780.969    
     46000   1.0258502      0.0023323615  -0.0014526406   20.248785      18.725397      1.5233875     -1.7892838      17656.396    
     47000   1.0295556      0.0023323615   0.0022282975   20.100223      18.571333      1.5288901     -1.8563825      17570.608    
     48000   0.85906174     0.0023323615  -8.5383479e-06  19.704138      18.428431      1.2757067     -2.024788       17521.033    
     49000   1.0537803      0.0023323615  -0.00058538477  20.168423      18.60356       1.5648638     -1.8612719      17938.192    
     50000   1.003475       0.0023323615   0.0069482118   20.413159      18.922999      1.4901604     -1.5897352      17993.201    
     51000   1.064634       0.0023323615  -0.0027203166   20.356928      18.775947      1.5809815     -1.6894711      17972.171    
     52000   1.2102509      0.0023323615   0.0011697221   20.416374      18.619152      1.7972225     -1.9284308      17702.31     
     53000   0.99670509     0.0023323615   0.0025852937   20.052509      18.572402      1.4801071     -2.0444722      17512.917    
     54000   1.084785       0.0023323615   0.0016802067   20.04191       18.431004      1.6109057     -1.9535053      17622.875    
     55000   1.079518       0.0023323615  -0.00012809809  20.220549      18.617465      1.6030842     -1.9072351      17624.179    
     56000   1.0589796      0.0023323615  -0.0024029025   19.982809      18.410225      1.5725847     -1.8998452      17629.651    
     57000   1.0026326      0.0023323615  -0.0014719297   20.121391      18.632481      1.4889094     -1.909177       17511.153    
     58000   0.99838231     0.0023323615   0.0023923943   20.293541      18.810944      1.4825977     -1.7106868      17354.188    
     59000   0.84605091     0.0023323615  -0.0006992831   19.823453      18.567067      1.2563856     -2.0488914      16841.091    
     60000   0.9880625      0.0023323615  -0.0008786942   20.000196      18.532923      1.4672728     -1.8713116      16915.088    
     61000   0.92665873     0.0023323615  -0.0029513101   20.234205      18.858117      1.3760882     -1.6536988      16812.14     
     62000   1.0027481      0.0023323615   0.0015353744   19.97462       18.485539      1.4890809     -2.0185488      16985.086    
     63000   1.0775017      0.0023323615   0.0029465012   20.175109      18.575019      1.60009       -1.941354       17084.202    
     64000   1.0603645      0.0023323615  -0.002590998    20.060566      18.485925      1.5746412     -2.0579338      16768.505    
     65000   0.88467912     0.0023323615   0.0018151989   19.881353      18.567605      1.3137485     -1.9637463      16727.731    
     66000   1.027604       0.0023323615   0.0017929585   20.271503      18.745511      1.525992      -1.8806814      16666.691    
     67000   1.0424669      0.0023323615   0.0029909919   19.928424      18.380361      1.5480633     -2.057867       16714.719    
     68000   1.0585196      0.0023323615  -0.0014816875   20.312456      18.740555      1.5719016     -1.8611426      16828.603    
     69000   0.97343681     0.0023323615   0.0030401661   19.993583      18.54803       1.4455537     -1.9928893      16872.209    
     70000   1.0488925      0.0023323615  -0.0037453878   20.186242      18.628637      1.5576053     -1.9661925      17612.749    
     71000   0.8912058      0.0023323615  -0.00038902973  20.103429      18.779988      1.3234406     -1.7702317      17231.748    
     72000   0.96212563     0.0023323615   0.0026885767   19.798488      18.369731      1.4287566     -2.196173       16795.276    
     73000   1.034643       0.0023323615  -0.0029608992   20.405294      18.868849      1.5364449     -1.7281212      16852.613    
     74000   1.0202686      0.0023323615  -0.0025222128   20.071488      18.556389      1.5150989     -1.9001533      16663.719    
     75000   0.95187654     0.0023323615   0.00087832429  20.031552      18.618016      1.4135367     -1.9014465      16954.088    
     76000   0.98279175     0.0023323615  -0.0039529828   20.338438      18.878992      1.4594457     -1.7043395      17403.673    
     77000   1.0277262      0.0023323615  -0.00017537083  20.096906      18.570733      1.5261734     -1.8947493      17030.223    
     78000   1.1141785      0.0023323615   0.0013681383   20.351164      18.696609      1.654555      -1.8464435      16928.718    
     79000   1.0148485      0.0023323615   0.0042011732   20.063855      18.556805      1.50705       -1.9576283      16928.672    
     80000   0.98622162     0.0023323615   0.00088423641  20.146088      18.681549      1.4645391     -1.8387435      17040.524    
     81000   0.96345643     0.0023323615  -0.0020003702   19.929318      18.498585      1.4307328     -1.9423917      16942.839    
     82000   0.95367562     0.0023323615   0.0015758164   19.9139        18.497691      1.4162083     -1.994225       16970.133    
     83000   0.99258075     0.0023323615   0.0025437004   20.054762      18.58078       1.4739824     -1.8918329      17692.09     
     84000   1.0094452      0.0023323615   0.0033983754   20.329462      18.830436      1.4990261     -1.7252078      17433.427    
     85000   1.1179672      0.0023323615  -0.0049768017   20.303103      18.642922      1.6601813     -1.9042448      17176        
     86000   1.0436304      0.0023323615  -0.00046491144  20.172749      18.622958      1.5497912     -1.9543255      17323.516    
     87000   0.92485111     0.0023323615   0.0047048656   20.013052      18.639648      1.3734039     -1.9119323      17308.024    
     88000   0.9626252      0.0023323615   0.0015372143   19.749245      18.319747      1.4294984     -2.2190965      17517.109    
     89000   0.97630845     0.0023323615  -0.001140463    19.911866      18.462048      1.449818      -1.9813449      17976.767    
     90000   0.98390883     0.0023323615  -0.0014659313   20.24401       18.782906      1.4611046     -1.8783436      17557.252    
     91000   1.0408615      0.0023323615   0.0012229703   20.650947      19.105268      1.5456793     -1.6336872      17456.377    
     92000   1.1070263      0.0023323615   0.0015985494   20.312226      18.668292      1.643934      -1.8359061      17389.483    
     93000   1.1492283      0.0023323615   0.0028773211   20.328627      18.622023      1.7066041     -1.7517736      17506.433    
     94000   0.92632093     0.0023323615  -0.0033601897   20.295522      18.919935      1.3755866     -1.5713813      17629.181    
     95000   0.97929805     0.0023323615   0.0055669451   20.162623      18.708366      1.4542576     -1.8411469      17538.123    
     96000   1.0324798      0.0023323615  -0.0035452097   20.261258      18.728026      1.5332325     -1.730387       17203.636    
     97000   0.90028435     0.0023323615  -0.0031672765   20.297005      18.960082      1.3369223     -1.5782504      17186.254    
     98000   1.0085947      0.0023323615   0.0019521759   20.236163      18.7384        1.4977632     -1.9058793      17163.763    
     99000   0.96700541     0.0023323615   0.0010228839   20.083576      18.647573      1.436003      -1.9278021      17469.447    
    100000   1.0325028      0.0023323615   0.0015069328   20.161018      18.627751      1.5332667     -1.937016       17714.343    
    101000   1.1021029      0.0023323615  -7.1580892e-05  20.290698      18.654076      1.6366227     -1.7786162      17493.187    
    102000   0.92079424     0.0023323615  -0.00090778316  20.007472      18.640093      1.3673794     -1.8750402      17384.559    
    103000   0.99380705     0.0023323615  -0.0054625916   19.916819      18.441016      1.4758035     -2.0265761      17176.819    
    104000   1.277326       0.0023323615   0.0028987034   20.440515      18.543686      1.8968291     -1.9707853      16907.303    
    105000   1.1228378      0.0023323615  -0.0022176548   20.252634      18.58522       1.6674142     -1.9229782      16988.095    
    106000   1.1492998      0.0023323615  -0.00092688593  20.140011      18.4333        1.7067102     -2.0753683      17062.543    
    107000   0.95072856     0.0023323615   0.00047743695  19.969679      18.557848      1.4118319     -1.9156021      17086.425    
    108000   1.2343595      0.0023323615   0.00087151317  20.494959      18.661936      1.8330238     -1.9012172      17098.944    
    109000   0.88095469     0.0023323615  -0.0018381557   20.027586      18.719369      1.3082177     -1.6893129      16841.295    
    110000   0.86233538     0.0023323615  -0.0013112007   19.930946      18.650378      1.280568      -1.7694111      16760.592    
    111000   1.1584399      0.0023323615   0.00019124683  20.074018      18.353735      1.7202832     -2.1128007      16714.587    
    112000   0.9991563      0.0023323615  -7.9939478e-07  20.003601      18.519854      1.4837471     -1.9205266      16830.184    
    113000   0.85768851     0.0023323615   0.0033349576   19.905241      18.631574      1.2736674     -1.8162907      16830.621    
    114000   1.2798313      0.0023323615   7.1781454e-05  20.644734      18.744185      1.9005495     -1.7183463      16773.96     
    115000   1.0061398      0.0023323615   0.0033513023   19.961478      18.46736       1.4941176     -1.8871725      17597.152    
    116000   0.99132961     0.0023323615   0.00077617821  19.858666      18.386542      1.4721245     -2.0939644      17203.274    
    117000   1.0065932      0.0023323615   0.00035926215  19.959868      18.465077      1.4947909     -2.1330562      16715.567    
    118000   1.0008818      0.0023323615  -0.0058019715   20.286998      18.800689      1.4863094     -1.784608       16570.646    
    119000   1.0073732      0.0023323615   0.0016443421   20.311609      18.81566       1.4959492     -1.8908884      16437.357    
    120000   0.92065298     0.0023323615  -0.0025416258   20.187593      18.820423      1.3671697     -1.675461       17193.773    
    121000   1.0738061      0.0023323615  -0.0025114271   20.095072      18.50047       1.594602      -1.9587825      17251.551    
    122000   1.0222575      0.0023323615   0.0016646169   19.88232       18.364267      1.5180523     -2.129598       16697        
    123000   0.96309258     0.0023323615   0.0016393899   20.036513      18.606321      1.4301925     -1.9609203      16651.69     
    124000   0.8680206      0.0023323615  -0.00078094283  19.827865      18.538854      1.2890106     -1.8953542      16671.816    
    125000   1.0263643      0.0023323615   0.0044620735   20.009337      18.485186      1.5241509     -1.838082       16862.586    
    126000   1.0747139      0.0023323615   0.0010657617   20.266597      18.670647      1.5959501     -1.8816709      16941.772    
    127000   1.0834949      0.0023323615  -0.0016594598   20.411672      18.802682      1.6089899     -1.7223127      17323.958    
    128000   0.94834824     0.0023323615  -0.0015294675   19.946549      18.538251      1.4082971     -1.9625633      17901.091    
    129000   0.94973889     0.0023323615   0.0034172487   19.992407      18.582045      1.4103623     -2.0132767      17097.725    
    130000   0.83191969     0.0023323615   0.0020719      19.831806      18.596406      1.2354007     -1.9820958      17042.069    
    131000   1.0241442      0.0023323615  -0.0020336423   20.069507      18.548653      1.5208541     -1.9736493      17237.146    
    132000   0.98642493     0.0023323615  -0.0036837865   20.12332       18.658479      1.464841      -1.9189543      17176.591    
    133000   0.96765066     0.0023323615   0.00087934826  19.981534      18.544573      1.4369612     -1.8955944      17933.928    
    134000   1.052674       0.0023323615  -0.0028484733   20.133515      18.570295      1.5632208     -1.9214286      17866.085    
    135000   1.110966       0.0023323615   0.001366322    20.137192      18.487407      1.6497846     -1.9432133      17584.72     
    136000   1.0940791      0.0023323615   0.0025684614   20.11062       18.485912      1.6247075     -2.0709375      17373.983    
    137000   0.99848833     0.0023323615   0.00024969752  19.947926      18.465171      1.4827552     -1.9413959      16973.552    
    138000   0.99504793     0.0023323615   0.00085456811  20.429685      18.952039      1.4776462     -1.6624645      17381.54     
    139000   1.1468345      0.0023323615  -0.00010582349  20.326297      18.623248      1.7030492     -2.0513652      17943.822    
    140000   0.97539159     0.0023323615   0.0013928959   19.923131      18.474675      1.4484565     -2.0249541      16666.349    
    141000   1.0474991      0.0023323615   0.0020750658   20.060919      18.505383      1.5555362     -1.9535886      17476.755    
    142000   0.9354172      0.0023323615  -0.002076987    19.823425      18.434331      1.3890945     -2.021015       17536.221    
    143000   0.97272013     0.0023323615  -0.0042154378   20.20233       18.75784       1.4444894     -1.7241584      17408.506    
    144000   1.0204503      0.0023323615   0.0040928368   19.996119      18.480751      1.5153688     -2.0610366      17461.342    
    145000   0.87385527     0.0023323615   0.0015101347   19.688933      18.391258      1.2976751     -2.1286435      17430.294    
    146000   1.0322102      0.0023323615  -0.0052631984   20.111862      18.57903       1.5328321     -1.9306972      17520.741    
    147000   1.0438833      0.0023323615   0.0050873634   20.430325      18.880159      1.5501667     -1.7025842      17513.627    
    148000   1.1072105      0.0023323615   0.0020458608   20.198834      18.554627      1.6442076     -1.9705358      17185.898    
    149000   1.0109172      0.0023323615  -0.0012193354   20.091915      18.590703      1.5012121     -1.9931489      17116.599    
    150000   0.87589223     0.0023323615   0.001090681    19.785755      18.485055      1.3007        -2.0476601      16923.812    
    151000   1.1516197      0.0023323615   0.0023904417   20.21662       18.506465      1.7101552     -1.9937743      16620.424    
    152000   1.0592427      0.0023323615   0.00081986673  20.107852      18.534876      1.5729754     -1.9319901      17088.659    
    153000   0.89626157     0.0023323615   0.0017300444   19.672148      18.3412        1.3309484     -2.1152607      16613.597    
    154000   1.0232273      0.0023323615  -0.0029421847   20.169786      18.650293      1.5194926     -1.842912       16696.388    
    155000   0.95709552     0.0023323615   0.0043525164   20.121596      18.70031       1.4212868     -1.9089299      16739.272    
    156000   1.0602945      0.0023323615  -0.002968882    20.181552      18.607014      1.5745373     -1.8979008      16720.56     
    157000   0.98174318     0.0023323615   0.00030203268  20.131171      18.673283      1.4578886     -1.8486444      16669.795    
    158000   0.86800628     0.0023323615   0.0040948086   19.780742      18.491752      1.2889893     -2.0111361      16606.285    
    159000   0.90142227     0.0023323615  -0.0031303001   19.952607      18.613995      1.3386121     -2.0231216      17182.931    
    160000   0.86684228     0.0023323615  -0.0013709489   20.049105      18.761845      1.2872608     -1.8613303      17469.471    
    161000   0.93666567     0.0023323615   0.00090084998  20.040539      18.64959       1.3909485     -1.9193236      16735.36     
    162000   1.0524798      0.0023323615   0.00084702212  20.250101      18.687169      1.5629325     -1.8171578      16799.816    
    163000   1.0997985      0.0023323615  -0.00014291711  20.441297      18.808096      1.6332007     -1.7275886      16649.984    
    164000   1.1256995      0.0023323615   0.0014736292   20.144381      18.472717      1.6716638     -1.9517328      16653.602    
    165000   1.0776825      0.0023323615  -0.0030818775   20.224278      18.62392       1.6003585     -1.9943322      17309.672    
    166000   0.8879957      0.0023323615  -0.003121798    20.096283      18.77761       1.3186736     -1.723449       17112.57     
    167000   0.97581879     0.0023323615  -0.0012028333   20.02606       18.576969      1.4490909     -1.8108442      16872.962    
    168000   0.99694369     0.0023323615  -0.0042097193   20.312966      18.832504      1.4804614     -1.7601524      16841.87     
    169000   1.0929134      0.0023323615   0.0049508849   20.025393      18.402417      1.6229765     -2.0843779      16771.159    
    170000   0.91891442     0.0023323615   0.0020589223   20.251018      18.88643       1.3645879     -1.6012032      16837.872    
    171000   1.1446234      0.0023323615  -0.00028633455  20.466911      18.767145      1.6997657     -1.7321133      16847.768    
    172000   0.96037023     0.0023323615  -0.0015767671   20.020612      18.594462      1.4261498     -1.8567891      17484.601    
    173000   1.0115956      0.0023323615  -0.00055329173  20.460543      18.958323      1.5022195     -1.508647       17489.439    
    174000   0.97399518     0.0023323615   0.0038102212   19.999919      18.553536      1.4463828     -1.9388959      16910.276    
    175000   1.1053797      0.0023323615   0.002518562    20.182298      18.540809      1.6414889     -1.9195553      16686.351    
    176000   0.96621878     0.0023323615  -0.0048387342   19.908547      18.473712      1.4348349     -2.0107033      17112.546    
    177000   1.1222468      0.0023323615   0.0022771731   20.496719      18.830183      1.6665365     -1.7103738      17216.197    
    178000   1.1388348      0.0023323615  -0.0031270656   20.489441      18.798271      1.6911697     -1.7397861      17825.028    
    179000   0.97735051     0.0023323615  -0.0028178438   20.199205      18.747839      1.4513655     -1.8032215      17865.883    
    180000   1.1380947      0.0023323615   0.0034220979   20.285539      18.595468      1.6900706     -1.9219332      17695.136    
    181000   1.0463453      0.0023323615  -0.0035818365   20.036664      18.482841      1.5538227     -1.9391124      17482.684    
    182000   0.97869317     0.0023323615   0.0020612156   20.134565      18.681206      1.4533594     -1.8247299      17670.306    
    183000   1.0261156      0.0023323615  -0.0024875033   20.32801       18.804229      1.5237817     -1.7674171      17772.247    
    184000   1.1616107      0.0023323615   0.0023759897   20.371887      18.646895      1.7249918     -1.8081123      17620.286    
    185000   0.99963623     0.0023323615   0.0008344912   20.153505      18.669045      1.4844598     -1.8928073      17516.605    
    186000   1.0706378      0.0023323615  -0.00051106474  20.157282      18.567385      1.5898972     -1.8840514      17335.885    
    187000   1.0990546      0.0023323615  -0.0012398304   20.469684      18.837588      1.632096      -1.7288859      17334.84     
    188000   1.0148726      0.0023323615   0.00095761101  20.029177      18.522092      1.5070858     -1.9567031      17557.453    
    189000   0.893172       0.0023323615  -0.0015337409   19.774978      18.448617      1.3263604     -2.0391754      17531.035    
    190000   0.95729251     0.0023323615  -0.00053135923  19.910581      18.489002      1.4215794     -2.0394748      17648.632    
    191000   0.99446651     0.0023323615  -0.0017888214   20.575128      19.098346      1.4767828     -1.5778174      17417.322    
    192000   1.0841728      0.0023323615   0.0012492223   20.26801       18.658013      1.6099967     -1.8905986      17724.717    
    193000   0.95024441     0.0023323615   0.00084994659  20.022091      18.610978      1.4111129     -1.8897288      16985.724    
    194000   0.91284585     0.0023323615  -0.00076575365  20.146452      18.790876      1.3555761     -1.762347       17002.217    
    195000   1.1334372      0.0023323615  -0.0031539491   20.386502      18.703347      1.6831542     -1.8283589      17004.659    
    196000   0.93927158     0.0023323615   0.003807518    20.516832      19.122014      1.3948183     -1.5173876      17105.587    
    197000   1.0350813      0.0023323615  -5.9803368e-05  20.096898      18.559802      1.5370958     -1.9537837      17156.282    
    198000   1.0309455      0.0023323615  -0.003243732    20.182289      18.651335      1.530954      -1.961696       16776.501    
    199000   0.97572587     0.0023323615  -0.0030389145   19.944588      18.495636      1.4489529     -2.081665       16788.338    
    200000   0.95352963     0.0023323615  -0.00068805188  19.884001      18.46801       1.4159915     -1.9489991      16740.51     
    201000   0.8983266      0.0023323615  -0.0043242012   19.737613      18.403598      1.334015      -2.1097902      16694.475    
    202000   0.89580063     0.0023323615   0.0012849829   19.731762      18.401498      1.3302639     -2.1611429      16663.719    
    203000   1.0368889      0.0023323615   0.0029515304   20.111039      18.571259      1.53978       -1.8964413      16706.868    
    204000   0.9962355      0.0023323615  -9.966674e-05   19.935994      18.456584      1.4794097     -2.063257       17372.223    
    205000   1.0279142      0.0023323615   0.0030880988   20.124207      18.597755      1.5264526     -1.9851672      17291.773    
    206000   0.92808473     0.0023323615  -0.0073824991   20.186948      18.808743      1.3782058     -1.817542       16687.646    
    207000   1.0028909      0.0023323615   0.0024657125   20.010038      18.520745      1.489293      -2.0695794      16710.127    
    208000   0.84178868     0.0023323615  -0.0022603539   19.952885      18.702829      1.2500562     -1.9576783      16771.692    
    209000   1.0688819      0.0023323615   0.0015108282   20.482881      18.895591      1.5872897     -1.8736204      16712.992    
    210000   0.97043819     0.0023323615   0.0021386154   20.216384      18.775283      1.4411007     -1.7797173      17267.832    
    211000   1.1027651      0.0023323615   0.0012146294   20.234136      18.59653       1.6376061     -1.8772817      16961.08     
    212000   0.924994       0.0023323615   0.0041593842   19.978726      18.60511       1.3736161     -1.8550807      16953.34     
    213000   1.0350232      0.0023323615  -0.0023364295   20.310996      18.773987      1.5370095     -1.8013757      16905.696    
    214000   0.94165915     0.0023323615  -0.0049516674   20.014505      18.616141      1.3983638     -1.8272527      16781.668    
    215000   0.95241357     0.0023323615  -0.0027809887   20.145792      18.731457      1.4143341     -1.8188295      16793.29     
    216000   1.0080293      0.0023323615  -0.0017660954   20.191174      18.69425       1.4969235     -1.8259861      16925.474    
    217000   1.0737375      0.0023323615  -0.0027418078   20.152525      18.558025      1.5945002     -1.9440475      17578.368    
    218000   0.95364367     0.0023323615  -0.0033147516   20.112488      18.696327      1.4161609     -1.9107736      17433.844    
    219000   0.85279703     0.0023323615  -0.0011348158   19.73262       18.466217      1.2664036     -2.0863522      17156.585    
    220000   0.94978147     0.0023323615  -0.0016982771   20.028337      18.617911      1.4104255     -2.0138082      17076.237    
    221000   0.91499545     0.0023323615   0.0033519936   20.066372      18.707604      1.3587682     -1.988891       17098.469    
    222000   1.0597772      0.0023323615  -0.0032409959   19.812459      18.23869       1.5737691     -2.2533039      17556.91     
    223000   1.0209096      0.0023323615   0.0013382076   20.154399      18.638348      1.5160508     -1.8768262      17931.079    
    224000   0.86693477     0.0023323615  -0.00068599692  19.871107      18.583709      1.2873981     -2.0376203      17717.21     
    225000   1.0838684      0.0023323615   7.3871971e-05  20.132915      18.52337       1.6095445     -2.0317424      17533.267    
    226000   0.98539112     0.0023323615  -0.0010276056   20.054903      18.591598      1.4633058     -1.9616232      17415.687    
    227000   1.0841851      0.0023323615   0.001665168    20.12946       18.519445      1.6100148     -1.9053948      17625.156    
    228000   0.9547584      0.0023323615   0.00042982789  20.373308      18.955492      1.4178162     -1.5500492      18035.702    
    229000   0.97472066     0.0023323615  -0.0024945588   20.443139      18.995679      1.4474602     -1.5661475      18437.716    
    230000   1.0219814      0.0023323615   0.001795586    20.495543      18.977901      1.5176423     -1.6006384      17430.875    
    231000   1.0407778      0.0023323615   0.0018709274   20.314704      18.769149      1.5455551     -1.7784837      17522.152    
    232000   1.0481471      0.0023323615  -0.00027450469  20.541536      18.985038      1.5564984     -1.4196607      17527.248    
    233000   0.96764852     0.0023323615   0.0003612092   19.981127      18.544169      1.4369581     -1.8675161      17724.163    
    234000   1.0756925      0.0023323615   0.0030804709   20.217381      18.619978      1.5974034     -1.9175657      17532.775    
    235000   0.87205016     0.0023323615   0.00064708004  19.931517      18.636522      1.2949945     -1.8683619      17351.349    
    236000   0.99283214     0.0023323615  -0.00044823054  19.821728      18.347372      1.4743557     -2.1098606      17647.571    
    237000   1.0415803      0.0023323615  -0.0016008835   20.121646      18.574899      1.5467467     -1.9504723      17436.887    
    238000   0.94250825     0.0023323615  -0.00042454665  19.869858      18.470233      1.3996247     -2.0386572      17120.615    
    239000   1.1168109      0.0023323615  -0.00082710567  20.340911      18.682447      1.6584642     -1.8438294      16994.539    
    240000   1.0573392      0.0023323615  -0.0023221602   20.301156      18.731008      1.5701487     -1.8562053      16979.648    
    241000   0.89696301     0.0023323615  -0.00048989238  19.931453      18.599462      1.3319901     -1.8904126      17021.782    
    242000   0.89250821     0.0023323615   0.0035211842   19.990286      18.664912      1.3253747     -1.8632807      17149.611    
    243000   1.031256       0.0023323615  -0.0015881433   20.124226      18.592811      1.5314151     -1.890387       16941.372    
    244000   0.96924898     0.0023323615  -0.0044566318   20.05554       18.616205      1.4393347     -1.9480788      16793.671    
    245000   1.0431166      0.0023323615   0.0022957927   20.068157      18.519128      1.5490282     -1.958158       16828.609    
    246000   0.96959144     0.0023323615   0.0069107199   20.222746      18.782903      1.4398433     -1.8016985      16887.133    
    247000   1.0182671      0.0023323615   0.00013742932  20.082529      18.570403      1.5121266     -1.8503515      16959.496    
    248000   1.0107726      0.0023323615  -0.00022055958  20.048419      18.547422      1.5009973     -2.0080937      16965.335    
    249000   0.98101279     0.0023323615  -0.0013695563   19.760094      18.30329       1.456804      -2.243388       17723.651    
    250000   0.90883645     0.0023323615  -0.0069679618   19.99611       18.646488      1.3496221     -1.944549       17886.063    
    251000   0.88071881     0.0023323615   0.00058795255  20.125938      18.81807       1.3078674     -1.617721       17185.538    
    252000   1.038626       0.0023323615  -0.0012482301   20.098592      18.556232      1.5423597     -1.8853286      17062.249    
    253000   0.85622549     0.0023323615  -0.001148919    20.08808       18.816585      1.2714949     -1.6418168      16912.173    
    254000   0.95871749     0.0023323615   0.00071026449  20.00772       18.584024      1.4236955     -1.781315       16972.617    
    255000   1.0920243      0.0023323615   0.00022263295  19.909857      18.288201      1.6216561     -2.1506177      17158.5      
    256000   0.96609198     0.0023323615  -0.0018487569   20.194516      18.75987       1.4346466     -1.7964106      16851.224    
    257000   0.89817736     0.0023323615  -0.0017630012   20.087637      18.753844      1.3337934     -1.80552        16875.73     
    258000   1.0213439      0.0023323615   0.0020403816   20.017617      18.500922      1.5166956     -1.9564489      16830.757    
    259000   1.0899534      0.0023323615   0.00255161     20.126397      18.507816      1.6185808     -1.9051057      16746.147    
    260000   0.8260642      0.0023323615  -0.0014863412   19.916914      18.690209      1.2267053     -1.8183257      16769.581    
    261000   1.0399284      0.0023323615  -0.00096319552  20.089107      18.544813      1.5442937     -2.0129411      16824.827    
    262000   0.99603644     0.0023323615  -0.0010311475   19.970907      18.491793      1.4791141     -2.0347821      17240.525    
    263000   0.97665217     0.0023323615  -0.0028082579   20.129994      18.679665      1.4503285     -1.8549188      17869.015    
    264000   0.97020497     0.0023323615   0.0041350037   19.990114      18.54936       1.4407544     -2.0377526      17230.353    
    265000   0.9347551      0.0023323615  -0.0020179836   20.188678      18.800566      1.3881113     -1.6708695      17102.623    
    266000   0.93690917     0.0023323615   0.0003157487   20.164969      18.773659      1.3913101     -1.7082354      17324.683    
    267000   1.0122019      0.0023323615   0.0038957353   20.030582      18.527462      1.5031199     -1.8837664      17961.369    
    268000   1.0349013      0.0023323615  -0.0010251075   20.254102      18.717274      1.5368285     -1.7823327      17913.994    
    269000   0.99826149     0.0023323615  -0.0007260754   20.151449      18.669031      1.4824183     -1.8155063      17971.191    
    270000   0.89238939     0.0023323615   0.0011224558   20.337727      19.012528      1.3251982     -1.4430426      17777.276    
    271000   0.97817511     0.0023323615   0.0029510466   20.203367      18.750777      1.45259       -1.713753       17493.28     
    272000   1.1239035      0.0023323615   0.0021745014   20.77475       19.105753      1.6689967     -1.4322307      17749.807    
    273000   0.98736433     0.0023323615  -0.00077644675  20.075979      18.609743      1.466236      -1.8804228      17971.686    
    274000   0.89495693     0.0023323615   0.00033514438  19.904678      18.575667      1.329011      -1.896776       17776.637    
    275000   0.79111746     0.0023323615   0.00042699388  19.755072      18.580262      1.1748094     -1.874011       17587.974    
    276000   0.91013154     0.0023323615  -0.00047709024  20.133736      18.782191      1.3515453     -1.7904482      17411.3      
    277000   1.0437385      0.0023323615  -0.0010097888   20.055684      18.505733      1.5499517     -1.9598272      17484.218    
    278000   0.90099154     0.0023323615   0.0013666152   19.971183      18.63321       1.3379724     -1.9079755      17664.318    
    279000   1.0157356      0.0023323615  -0.0055041575   20.248797      18.740429      1.5083674     -1.8547838      17355.358    
    280000   1.0943255      0.0023323615  -0.00053482137  20.155733      18.53066       1.6250734     -1.9286017      17290.158    
    281000   0.9327722      0.0023323615  -0.00018492154  19.695112      18.309945      1.3851667     -2.1803005      17412.102    
    282000   0.79604822     0.0023323615  -0.0018432671   19.833895      18.651763      1.1821316     -1.8494984      17485.287    
    283000   0.97498758     0.0023323615  -0.00077845008  19.997818      18.549961      1.4478566     -1.8874212      17096.202    
    284000   0.89530955     0.0023323615   0.0055233129   20.051205      18.72167       1.3295347     -1.8452382      16911.717    
    285000   0.8423549      0.0023323615   0.00081477519  19.770206      18.519309      1.250897      -2.0385808      16654.63     
    286000   1.1019892      0.0023323615   0.00061336019  20.139286      18.502832      1.636454      -1.9145616      17090.228    
    287000   0.93576291     0.0023323615  -0.00016215549  20.089735      18.700127      1.3896079     -1.8592835      16766.229    
    288000   1.0248399      0.0023323615  -0.0022592239   20.125516      18.603629      1.5218872     -1.8677903      16872.364    
    289000   1.0007286      0.0023323615   0.0033024966   20.198646      18.712564      1.4860819     -1.8267495      16751.428    
    290000   1.0059841      0.0023323615  -0.0016723607   20.047915      18.554028      1.4938864     -1.8927332      16760.973    
    291000   0.83436127     0.0023323615  -0.0028815925   19.696535      18.457508      1.2390265     -1.9425121      16762.211    
    292000   1.0358367      0.0023323615   0.0019769317   20.084244      18.546026      1.5382175     -2.0197384      16734.689    
    293000   0.9779943      0.0023323615  -2.0799758e-05  19.783203      18.330881      1.4523215     -2.1325953      16866.154    
    294000   0.92275731     0.0023323615  -0.0038903908   19.678922      18.308627      1.3702946     -2.2057575      17239.146    
    295000   0.91882293     0.0023323615   0.0037870302   20.032682      18.66823       1.3644521     -1.9914379      17514.183    
    296000   0.99480016     0.0023323615  -0.002570594    20.143461      18.666183      1.4772782     -1.8546807      16817.856    
    297000   1.0119813      0.0023323615   0.00072354249  20.414729      18.911937      1.5027922     -1.4748433      17050.418    
    298000   1.0185385      0.0023323615  -0.0011038095   20.211162      18.698632      1.5125297     -1.9378496      16976.566    
    299000   0.96799143     0.0023323615   0.0023146832   19.749141      18.311674      1.4374673     -2.2071137      17389.393    
    300000   0.89109726     0.0023323615  -0.0039460991   20.108657      18.785378      1.3232794     -1.7247929      17106.452    
    301000   0.97459482     0.0023323615   0.001106193    20.269863      18.822589      1.4472733     -1.7051426      17010.504    
    302000   0.8725529      0.0023323615   0.00057501427  19.808545      18.512804      1.2957411     -2.0107947      16974.505    
    303000   0.98387357     0.0023323615  -0.0034660874   19.880681      18.419629      1.4610523     -1.9937943      16990.547    
    304000   1.0775841      0.0023323615   0.00124742     20.222681      18.622468      1.6002124     -2.0128263      17008.831    
    305000   1.0538095      0.0023323615   0.00056773526  20.096307      18.531399      1.5649072     -1.8890036      16939.785    
    306000   1.0076872      0.0023323615  -0.0027515349   20.006141      18.509725      1.4964155     -2.0099707      16839.301    
    307000   1.0810518      0.0023323615  -0.0011318283   20.011588      18.406227      1.6053619     -2.1160146      17591.328    
    308000   1.0264536      0.0023323615  -0.0016302359   20.17027       18.645986      1.5242836     -1.8700224      17747.993    
    309000   0.98176214     0.0023323615  -0.001496458    20.035448      18.577531      1.4579168     -2.0005082      17151.624    
    310000   1.0337142      0.0023323615  -0.0012184752   20.119556      18.58449       1.5350656     -1.9067268      17089.16     
    311000   0.96109151     0.0023323615  -0.0019497899   20.240321      18.8131        1.4272209     -1.8571151      17486.032    
    312000   1.0886973      0.0023323615   0.0012414856   20.318368      18.701652      1.6167156     -1.7706881      17840.7      
    313000   0.93797618     0.0023323615   0.0023630825   20.04906       18.656165      1.3928946     -1.8714842      18033.678    
    314000   0.98927897     0.0023323615   0.0031028772   19.81172       18.342641      1.4690793     -2.0493112      17887.149    
    315000   1.0137616      0.0023323615   0.0018863146   19.816586      18.31115       1.505436      -2.0525942      17308.592    
    316000   0.94819101     0.0023323615   0.0023932422   19.969354      18.56129       1.4080637     -1.8944585      17579.443    
    317000   0.90555951     0.0023323615  -0.00069036427  20.253609      18.908853      1.3447559     -1.6622079      17675.031    
    318000   1.0173089      0.0023323615   1.3696242e-05  20.251615      18.740911      1.5107037     -1.7580485      17866.207    
    319000   0.98690917     0.0023323615   0.00052793126  20.059182      18.593621      1.4655601     -1.8882028      17415.14     
    320000   1.0303436      0.0023323615  -0.0027855507   19.998807      18.468746      1.5300602     -1.9958256      17416.036    
    321000   0.98859976     0.0023323615   0.0013441367   20.112176      18.644105      1.4680706     -1.8522863      17512.413    
    322000   0.92843769     0.0023323615   0.00050028687  19.783165      18.404435      1.37873       -1.9785831      17475.139    
    323000   1.0171485      0.0023323615   0.001665208    19.888286      18.377821      1.5104655     -2.0883139      17098.484    
    324000   0.95522697     0.0023323615   0.00027737754  20.051328      18.632816      1.418512      -1.8945519      17237        
    325000   1.0031538      0.0023323615   0.0033262127   20.183504      18.69382       1.4896835     -1.8568072      17317.847    
    326000   1.0983594      0.0023323615   0.003072788    20.037714      18.406651      1.6310637     -2.0243852      17496.374    
    327000   1.1374683      0.0023323615  -0.00074101897  20.074879      18.385738      1.6891404     -2.1942259      17349.11     
    328000   1.0005113      0.0023323615   0.0050465943   20.062013      18.576254      1.4857593     -2.0419857      16817.29     
    329000   1.1270582      0.0023323615   0.00061034341  19.975847      18.302166      1.6736814     -2.1520492      16945.491    
    330000   1.1071438      0.0023323615  -0.0019395959   20.350983      18.706874      1.6441085     -1.8374599      16985.149    
    331000   0.88046708     0.0023323615   0.0013190062   19.977055      18.669561      1.3074936     -1.9369061      17031.574    
    332000   0.96608688     0.0023323615   0.0035643313   20.168983      18.734344      1.434639      -1.7481178      16465.345    
    333000   0.99960788     0.0023323615  -0.0009187459   20.078441      18.594024      1.4844177     -1.8980122      16861.7      
    334000   0.89960401     0.0023323615  -0.0010885458   20.103007      18.767095      1.335912      -1.7962087      16795.856    
    335000   1.0433209      0.0023323615   0.00056467423  20.057772      18.50844       1.5493316     -1.9114191      16791.089    
    336000   1.009241       0.0023323615   8.5730125e-06  20.147013      18.64829       1.4987229     -1.8154438      16765.165    
    337000   1.079686       0.0023323615   0.0062443866   20.089865      18.486531      1.6033337     -1.9146744      16878.906    
    338000   1.083578       0.0023323615   0.0027160852   20.197446      18.588332      1.6091133     -1.811634       16892.892    
    339000   0.90805184     0.0023323615  -0.0061639463   20.070819      18.722362      1.348457      -1.7334486      17569.37     
    340000   1.060954       0.0023323615  -0.0018592168   20.37064       18.795124      1.5755166     -1.7924069      17450.08     
    341000   1.1195696      0.0023323615   0.0040340604   20.398656      18.736095      1.6625608     -1.7806972      16914.208    
    342000   0.99640377     0.0023323615   0.0021437697   20.179097      18.699437      1.4796596     -1.8604031      16903.466    
    343000   0.9162637      0.0023323615  -0.00086850647  19.947549      18.586897      1.3606516     -1.9721065      17103.139    
    344000   1.0323386      0.0023323615   0.0015729131   20.121861      18.588838      1.5330228     -1.8815505      17249.407    
    345000   1.0668427      0.0023323615   0.0058485676   20.445528      18.861267      1.5842614     -1.6577826      16960.876    
    346000   0.96583391     0.0023323615   0.00053028282  20.168337      18.734074      1.4342634     -1.9008118      17002.101    
    347000   0.96075831     0.0023323615   0.00054708515  19.911173      18.484447      1.4267261     -2.0077144      16997.662    
    348000   1.0245747      0.0023323615   0.0018008344   20.102191      18.580698      1.5214934     -1.9254238      16931.061    
    349000   0.94272019     0.0023323615  -0.00068455828  19.925289      18.525349      1.3999395     -2.1031812      16977.805    
    350000   0.95861118     0.0023323615  -0.0024500107   20.3035        18.879962      1.4235376     -1.6181497      17117.147    
    351000   1.001305       0.0023323615  -0.0031365229   20.214139      18.727201      1.486938      -1.735354       17035.967    
    352000   0.91719967     0.0023323615  -0.0024700152   19.878447      18.516405      1.3620415     -1.9171626      17748.333    
    353000   1.0359048      0.0023323615  -0.0021584039   20.486732      18.948413      1.5383187     -1.5958384      17348.348    
    354000   0.92572857     0.0023323615   0.00022552098  20.051122      18.676415      1.3747069     -1.9124722      17141.023    
    355000   0.96599953     0.0023323615   0.00074836897  19.799584      18.365075      1.4345093     -2.0490489      17235.836    
    356000   0.95150304     0.0023323615   0.005406535    20.205415      18.792433      1.412982      -1.8307137      17852.115    
    357000   0.974383       0.0023323615   0.00076739209  20.226408      18.779449      1.4469588     -1.8181596      17812.069    
    358000   1.1818323      0.0023323615   0.0033560719   20.455158      18.700137      1.755021      -1.9176578      17939.217    
    359000   1.0816347      0.0023323615  -0.00019327428  20.066217      18.459989      1.6062275     -2.0887237      17838.124    
    360000   1.1692844      0.0023323615  -0.0028584417   20.313876      18.577489      1.7363873     -1.872452       17732.782    
    361000   0.90229038     0.0023323615  -0.0022256429   19.991308      18.651407      1.3399012     -1.9238969      17695.374    
    362000   0.90415858     0.0023323615  -0.0011184393   20.047453      18.704778      1.3426755     -1.8121531      17855.372    
    363000   1.1009162      0.0023323615  -0.00094079173  20.432585      18.797725      1.6348605     -1.7301691      17922.084    
    364000   0.99733387     0.0023323615  -0.0011098796   20.366855      18.885814      1.4810408     -1.7492081      17664.53     
    365000   1.0691158      0.0023323615   0.0050113971   20.139698      18.552061      1.587637      -1.9030563      17599.762    
    366000   0.95068928     0.0023323615  -0.0016049069   20.417241      19.005467      1.4117736     -1.7166013      17757.048    
    367000   0.89274529     0.0023323615   0.0031756924   19.853968      18.528241      1.3257268     -2.0077629      17877.596    
    368000   0.96259361     0.0023323615   0.00084839789  19.904373      18.474921      1.4294515     -2.0065003      17708.798    
    369000   0.98733569     0.0023323615   0.00096176846  19.96253       18.496336      1.4661935     -2.0191172      17677.564    
    370000   1.0013316      0.0023323615   0.0013478222   20.27612       18.789142      1.4869774     -1.7998883      17689.24     
    371000   0.95581556     0.0023323615  -0.0026639246   20.379663      18.960277      1.4193861     -1.7102217      17591.173    
    372000   1.0628517      0.0023323615   0.0030549097   20.206977      18.628642      1.5783348     -1.8540903      17187.097    
    373000   0.87919284     0.0023323615  -0.0051678508   19.881444      18.575843      1.3056014     -1.9627565      16880.019    
    374000   1.0716305      0.0023323615  -0.0014645354   20.046852      18.455481      1.5913712     -2.0839157      16989.151    
    375000   0.92278955     0.0023323615   0.0026478759   19.823027      18.452685      1.3703425     -1.8862706      17196.804    
    376000   1.0246188      0.0023323615  -0.0025153012   20.062576      18.541017      1.521559      -2.052689       16961.415    
    377000   1.0339485      0.0023323615   0.0041669483   20.212885      18.677471      1.5354135     -1.7755317      16707.221    
    378000   0.98771173     0.0023323615   0.0061867531   20.042559      18.575807      1.4667519     -1.9653775      16871.314    
    379000   1.0058141      0.0023323615   0.0031370657   20.27148       18.777846      1.4936339     -1.8135471      16856.017    
    380000   0.94737106     0.0023323615   0.00060411986  20.00298       18.596134      1.406846      -1.8526986      16877.907    
    381000   0.96031232     0.0023323615  -0.00077891465  19.864078      18.438014      1.4260638     -2.0134657      16839.131    
    382000   1.0000581      0.0023323615   0.0027895062   19.993898      18.508811      1.4850863     -2.0168968      16833.672    
    383000   1.0536189      0.0023323615  -0.0012957969   20.026889      18.462265      1.564624      -2.102819       16770.939    
    384000   0.90449651     0.0023323615  -0.0011288071   19.79105       18.447872      1.3431773     -2.1360226      17846.433    
    385000   1.0806206      0.0023323615   0.0014935008   20.485549      18.880827      1.6047215     -1.684958       17368.154    
    386000   1.0101957      0.0023323615   0.0033351947   20.385751      18.885611      1.5001407     -1.7251535      17057.977    
    387000   0.8681557      0.0023323615   0.0032898632   19.817568      18.528357      1.2892112     -2.0065452      17000.352    
    388000   1.0249203      0.0023323615  -0.0042869324   20.093899      18.571893      1.5220066     -1.9622825      17318.619    
    389000   0.95261644     0.0023323615  -0.0014107222   19.807043      18.392407      1.4146354     -1.9790169      17085.269    
    390000   0.87081141     0.0023323615   0.0020119452   19.998216      18.705061      1.2931549     -1.8625346      16968.139    
    391000   0.97673889     0.0023323615  -0.0047774037   20.245265      18.794808      1.4504573     -1.7119833      16908.133    
    392000   1.0025897      0.0023323615   0.0011291438   20.234257      18.745411      1.4888456     -1.7941457      16970.609    
    393000   0.92090331     0.0023323615  -0.0013081074   19.977912      18.610371      1.3675414     -1.89763        16900.375    
    394000   1.0219727      0.0023323615   0.0008952796   19.951358      18.433728      1.5176295     -2.0098174      16942.013    
    395000   0.86157687     0.0023323615   0.0042036357   20.048624      18.769182      1.2794417     -1.8062012      17066.467    
    396000   1.1137889      0.0023323615   0.0035084705   20.142114      18.488137      1.6539765     -1.983804       17150.183    
    397000   1.1142875      0.0023323615   0.0022999228   20.132262      18.477545      1.6547169     -2.0179504      17967.926    
    398000   1.0271876      0.0023323615  -0.0047390623   20.138465      18.613092      1.5253736     -1.9831894      17738.303    
    399000   1.163251       0.0023323615  -0.0027538243   20.301228      18.5738        1.7274278     -1.861182       17200.683    
    400000   1.0312515      0.0023323615  -0.0035687807   20.02037       18.488961      1.5314085     -1.9937648      17312.804    
    401000   1.0235582      0.0023323615   0.0025156209   20.068681      18.548697      1.519984      -2.0940277      18030.841    
    402000   0.92598805     0.0023323615  -0.0012496953   19.752306      18.377214      1.3750923     -2.082486       17893.127    
    403000   1.2371191      0.0023323615  -0.0020894605   20.580827      18.743706      1.8371218     -1.8275982      17846.959    
    404000   1.0458123      0.0023323615  -0.0018791189   20.339286      18.786255      1.5530313     -1.7823796      17909.301    
    405000   0.95373973     0.0023323615   0.0040810186   19.874491      18.458188      1.4163035     -1.9689706      17719.148    
    406000   0.92644329     0.0023323615   0.00065967216  19.85014       18.474371      1.3757683     -1.9687571      17770.029    
    407000   1.1106108      0.0023323615   0.00097168682  20.366973      18.717716      1.649257      -1.8567318      18147.024    
    408000   1.0112955      0.0023323615   0.0036217233   20.128844      18.62707       1.5017738     -1.8830064      18033.424    
    409000   1.1535693      0.0023323615   0.00019672409  20.317942      18.604892      1.7130504     -1.8605453      17602.052    
    410000   1.0202348      0.0023323615  -0.0035749869   20.206775      18.691726      1.5150487     -1.8208001      17525.918    
    411000   1.1351918      0.0023323615  -0.00079384557  20.364352      18.678592      1.6857598     -1.7106805      17926.32     
    412000   0.83302689     0.0023323615  -2.6979909e-05  20.247212      19.010167      1.2370449     -1.5324145      18082.033    
    413000   0.97878065     0.0023323615  -0.00068994821  20.125826      18.672337      1.4534893     -1.8960135      17728.807    
    414000   1.0667363      0.0023323615  -0.0012209271   20.207114      18.62301       1.5841034     -1.8610993      17674.089    
    415000   1.0622706      0.0023323615   0.00050047215  20.249896      18.672424      1.5774718     -1.8515716      17567.345    
    416000   1.0598649      0.0023323615  -0.0010973917   20.288792      18.714892      1.5738993     -1.7466074      17655.063    
    417000   1.047587       0.0023323615   0.0016936589   20.176493      18.620826      1.5556667     -1.8893247      17269.639    
    418000   0.95065898     0.0023323615  -0.0028005781   20.051836      18.640108      1.4117286     -1.9012128      16917.963    
    419000   0.97708062     0.0023323615   0.0041903519   20.036575      18.58561       1.4509647     -1.8443119      16907.787    
    420000   0.89015036     0.0023323615  -0.001334269    20.008068      18.686195      1.3218733     -1.8189294      16966.175    
    421000   0.95400639     0.0023323615  -0.0029232667   19.854276      18.437576      1.4166995     -2.0553301      17140.614    
    422000   0.98293925     0.0023323615  -0.0020283726   20.448674      18.98901       1.4596648     -1.6876188      16930.337    
    423000   1.0183076      0.0023323615   0.0021734693   19.819932      18.307746      1.5121868     -2.1096664      16926.166    
    424000   0.95445546     0.0023323615   0.0010022037   20.171964      18.754598      1.4173664     -1.7527085      16862.717    
    425000   0.99631685     0.0023323615   0.0032298979   20.187614      18.708084      1.4795305     -1.8481752      16964.076    
    426000   0.89311361     0.0023323615  -0.0053538251   19.901903      18.575629      1.3262737     -1.93601        16798.047    
    427000   0.95573304     0.0023323615   0.0022565782   19.861759      18.442496      1.4192636     -2.0648834      16797.357    
    428000   1.1223615      0.0023323615   0.00052909508  20.308364      18.641657      1.6667068     -1.8551576      16946.299    
    429000   0.81365527     0.0023323615   0.0037528299   19.603019      18.394741      1.2082781     -2.0851763      17958.519    
    430000   0.99068488     0.0023323615  -0.0036416571   20.121574      18.650407      1.471167      -1.824816       17372.876    
    431000   0.8480481      0.0023323615  -0.0013093597   19.777994      18.518642      1.2593514     -1.9479262      16967.086    
    432000   0.8883654      0.0023323615  -0.00057344478  20.018447      18.699224      1.3192226     -1.9024249      17029.883    
    433000   1.1409148      0.0023323615  -0.0020045382   20.264197      18.569939      1.6942585     -1.8931582      17216.966    
    434000   0.95694655     0.0023323615   0.00025206017  19.926073      18.505008      1.4210656     -1.8516847      17380.351    
    435000   0.93116508     0.0023323615  -0.0029333736   20.246737      18.863957      1.3827801     -1.6720691      17079.106    
    436000   1.1326356      0.0023323615  -0.0019753658   20.123025      18.441062      1.6819638     -2.0425439      16911.723    
    437000   1.1605699      0.0023323615   0.0033956934   20.320365      18.596918      1.7234463     -1.8559037      16947.108    
    438000   1.0579603      0.0023323615   0.0030876606   20.168199      18.597128      1.571071      -2.0349018      16947.206    
    439000   0.99936327     0.0023323615  -0.00038836401  20.093353      18.609298      1.4840545     -1.9100827      16965.624    
    440000   0.87430411     0.0023323615   0.0001171668   19.904044      18.605702      1.2983416     -1.7839424      16975.908    
    441000   0.91332487     0.0023323615   0.0029541107   19.728188      18.3719        1.3562874     -1.9956279      17023.217    
    442000   1.0214763      0.0023323615  -0.0033515779   20.006949      18.490057      1.5168923     -1.9193094      17895.856    
    443000   1.0065085      0.0023323615   0.0019791457   19.921829      18.427164      1.4946652     -2.1303793      17547.761    
    444000   0.94438483     0.0023323615  -0.0017891735   20.134785      18.732373      1.4024115     -1.7142815      17295.054    
    445000   1.0569584      0.0023323615  -0.0013039235   20.156769      18.587186      1.5695832     -1.9367761      17367.069    
    446000   1.0934291      0.0023323615   0.0017115163   20.341942      18.7182        1.6237422     -1.8803156      17875.912    
    447000   0.88455606     0.0023323615  -0.0053691279   19.866021      18.552456      1.3135657     -1.903415       17889.281    
    448000   0.93059989     0.0023323615   0.0019408051   20.051499      18.669558      1.3819408     -1.9047992      18178.568    
    449000   0.93341387     0.0023323615  -0.00097715449  19.974272      18.588152      1.3861196     -1.8700697      18099.854    
    450000   1.1431523      0.0023323615  -0.00034671766  20.389475      18.691894      1.6975811     -1.8494142      17823.077    
    451000   0.91833559     0.0023323615  -0.0033863118   20.163391      18.799662      1.3637284     -1.7529927      17657.468    
    452000   1.0573093      0.0023323615  -0.00070333339  20.380572      18.810468      1.5701043     -1.7516005      17999.771    
    453000   0.88242406     0.0023323615  -0.0028459825   20.03882       18.72842       1.3103997     -1.7283712      17756.141    
    454000   1.0447003      0.0023323615   0.0015316025   20.253611      18.702231      1.5513799     -1.8222536      17771.902    
    455000   1.0206023      0.0023323615  -0.0028410704   20.033966      18.518371      1.5155944     -1.8976691      17672.415    
    456000   0.93311498     0.0023323615  -0.0024658932   20.14929       18.763615      1.3856757     -1.7709255      17709.876    
    457000   0.9724037      0.0023323615   3.3637777e-05  19.942547      18.498527      1.4440195     -1.9725742      17814.437    
    458000   0.95452784     0.0023323615  -0.0018313815   20.211601      18.794127      1.4174738     -1.9085288      17702.837    
    459000   0.92636232     0.0023323615   0.00053578778  19.958844      18.583196      1.375648      -1.8699431      17565.233    
    460000   0.89861811     0.0023323615   0.00032482066  19.809079      18.474631      1.3344479     -1.9947318      17492.17     
    461000   1.0231451      0.0023323615  -0.0017189199   20.198888      18.679517      1.5193705     -1.7895126      17670.697    
    462000   1.0541542      0.0023323615  -0.0013628393   19.852245      18.286826      1.565419      -2.1004725      17709.901    
    463000   0.86056915     0.0023323615  -0.00030553001  20.036697      18.758752      1.2779452     -1.8063274      16869.332    
    464000   0.9510007      0.0023323615  -0.0025930057   20.276647      18.864411      1.412236      -1.6379037      17003.929    
    465000   0.96699739     0.0023323615  -0.0016929006   20.362405      18.926413      1.4359911     -1.6915226      17151.55     
    466000   1.0120058      0.0023323615  -0.00036366255  20.172779      18.669951      1.5028286     -1.9189802      16975.9      
    467000   0.98727886     0.0023323615   0.00046114214  19.936205      18.470096      1.4661091     -2.0936865      16838.085    
    468000   0.94399111     0.0023323615   0.0027781178   20.248333      18.846506      1.4018268     -1.842264       16792.46     
    469000   0.94678802     0.0023323615  -0.0014202539   20.089949      18.683969      1.4059802     -1.8116804      16834.152    
    470000   0.92444802     0.0023323615  -0.0014713898   19.624692      18.251887      1.3728053     -2.1996035      16786.455    
    471000   0.93085467     0.0023323615   0.0012481849   20.024752      18.642433      1.3823192     -1.9218164      16498.939    
    472000   0.86345518     0.0023323615  -0.0019022026   19.555708      18.273477      1.2822309     -2.1460262      16584.551    
    473000   0.94728045     0.0023323615   0.0019420234   19.988101      18.581389      1.4067115     -2.0052276      16780.498    
    474000   1.1515572      0.0023323615   0.00083509475  20.105997      18.395935      1.7100625     -2.178249       17326.042    
    475000   0.82307539     0.0023323615  -0.002526463    19.999578      18.777311      1.222267      -1.8578271      17903.933    
    476000   1.0043576      0.0023323615  -0.0041365029   20.026122      18.534651      1.4914711     -1.9434876      17010.391    
    477000   1.0802826      0.0023323615   0.00070840497  20.452146      18.847926      1.6042196     -1.71054        16884.165    
    478000   1.0674295      0.0023323615   0.0015131802   20.200855      18.615722      1.5851329     -1.9799687      17311.179    
    479000   0.96240064     0.0023323615  -0.00046565456  20.034117      18.604952      1.429165      -1.9285902      17100.956    
    480000   1.0435346      0.0023323615  -0.0011255068   20.076474      18.526825      1.5496489     -1.9312317      16913.847    
    481000   0.93269274     0.0023323615  -0.0019831553   20.259749      18.874701      1.3850487     -1.8018238      16734.927    
    482000   1.0412686      0.0023323615   0.000318042    20.543976      18.997693      1.5462838     -1.5133356      16877.136    
    483000   1.0895074      0.0023323615  -0.0019541803   20.217813      18.599894      1.6179184     -1.803331       16982.416    
    484000   1.1022791      0.0023323615   0.0019075452   20.162301      18.525417      1.6368844     -1.8813776      16897.368    
    485000   0.99373198     0.0023323615   0.004472363    20.209262      18.73357       1.475692      -1.8388028      16915.532    
    486000   1.002344       0.0023323615   0.0010961458   20.084162      18.595681      1.4884808     -1.8590846      16950.567    
    487000   0.96939779     0.0023323615   0.0024692132   20.030534      18.590978      1.4395557     -1.8683691      17426.569    
    488000   1.0139954      0.0023323615   0.0033714938   19.86511       18.359327      1.5057831     -2.0803843      17736.614    
    489000   0.92045899     0.0023323615   0.003641597    19.925225      18.558343      1.3668816     -1.9535579      17230.611    
    490000   0.80786727     0.0023323615  -0.0039612841   19.766666      18.566983      1.1996829     -1.9033683      17283.535    
    491000   1.0431413      0.0023323615  -0.00036992342  20.25829       18.709225      1.5490649     -1.8504912      17891.92     
    492000   1.0219331      0.0023323615  -0.0012871398   20.231574      18.714004      1.5175706     -1.6969234      17636.859    
    493000   0.88917466     0.0023323615  -0.0003132374   20.143356      18.822932      1.3204244     -1.7327837      17920.678    
    494000   0.90046076     0.0023323615  -0.0013479209   19.91134       18.574156      1.3371842     -1.8899777      17763.169    
    495000   0.98017351     0.0023323615   0.0013014243   20.088692      18.633134      1.4555577     -1.9484201      17714.491    
    496000   1.0344836      0.0023323615   7.3640948e-05  20.47693       18.940722      1.5362081     -1.5946071      17738.663    
    497000   1.0436637      0.0023323615   0.004522654    20.16488       18.615039      1.5498406     -1.9216493      17891.606    
    498000   0.89406157     0.0023323615   4.9680607e-05  19.740454      18.412772      1.3276814     -2.0101807      17700.577    
    499000   1.0111881      0.0023323615   0.0052129137   19.903061      18.401447      1.5016143     -2.1604562      17476.776    
    500000   0.97334987     0.0023323615   0.00018513512  20.258205      18.81278       1.4454246     -1.703932       17633.681    
    501000   1.0177432      0.0023323615  -0.0029878519   20.279567      18.768218      1.5113486     -1.8098136      17768.631    
    502000   0.99067804     0.0023323615   0.0028714087   20.378315      18.907158      1.4711569     -1.7151168      17746.172    
    503000   0.84565562     0.0023323615  -0.0043302551   20.032216      18.776418      1.2557986     -1.8151465      17498.165    
    504000   1.0511947      0.0023323615   0.0037167642   20.452659      18.891635      1.5610241     -1.7343808      17527.248    
    505000   1.0139102      0.0023323615   0.0010714712   20.061567      18.55591       1.5056566     -1.8895208      17646.07     
    506000   0.89549138     0.0023323615  -0.0018898162   19.774057      18.444252      1.3298047     -2.0051762      17662.714    
    507000   1.0175997      0.0023323615   0.0022343471   20.00281       18.491675      1.5111355     -2.020371       17308.718    
    508000   0.84654566     0.0023323615   0.0031968592   19.925517      18.668396      1.2571203     -2.0745603      16831.549    
    509000   1.0709588      0.0023323615  -0.00059880046  20.171335      18.580961      1.5903739     -1.8503359      16934.158    
    510000   0.85975554     0.0023323615   0.0008789947   19.540787      18.26405       1.276737      -2.1969687      16950.374    
    511000   0.92394512     0.0023323615  -0.0024878716   20.197414      18.825356      1.3720585     -1.7662197      16757.41     
    512000   1.129993       0.0023323615   0.0026028265   20.390685      18.712646      1.6780396     -1.8714734      16991.481    
    513000   0.95768745     0.0023323615  -0.0002878488   19.968406      18.54624       1.4221659     -1.9983973      16869.076    
    514000   0.98351603     0.0023323615   0.0014438273   20.035987      18.575465      1.4605213     -2.0068341      16774.685    
    515000   1.0516513      0.0023323615   0.00085558532  19.827565      18.265863      1.5617022     -2.1768749      16746.529    
    516000   0.94963319     0.0023323615   0.00055336029  19.999633      18.589428      1.4102053     -1.8781975      16651.946    
    517000   1.3268982      0.0023323615  -0.0030720973   20.828446      18.858002      1.9704438     -1.6891592      16874.765    
    518000   1.0584311      0.0023323615  -0.0014306013   20.304065      18.732295      1.5717702     -1.8136631      16958.017    
    519000   0.89709898     0.0023323615  -0.005193715    20.298112      18.96592       1.332192      -1.5972446      17763.584    
    520000   0.83566575     0.0023323615  -0.0013165074   19.664057      18.423094      1.2409636     -1.990354       18066.866    
    521000   1.0459333      0.0023323615   0.0016859818   20.073146      18.519935      1.5532109     -1.9509511      17129.888    
    522000   1.0482832      0.0023323615  -0.00097627263  20.246867      18.690167      1.5567006     -1.8469434      16979.145    
    523000   0.97120712     0.0023323615  -0.0013000235   20.163256      18.721013      1.4422426     -1.8399874      17146.912    
    524000   0.9442252      0.0023323615   0.0008859052   19.937168      18.534994      1.4021744     -1.997196       16920.295    
    525000   0.8840418      0.0023323615   0.005125581    19.950421      18.637619      1.3128021     -1.9608044      16831.81     
    526000   1.0470538      0.0023323615  -0.0033163986   20.202493      18.647618      1.5548749     -2.0229216      16930.447    
    527000   0.92999403     0.0023323615  -0.00083657022  19.913542      18.532501      1.3810411     -2.1085372      16879.131    
    528000   1.0321081      0.0023323615   0.0021238721   20.160854      18.628173      1.5326806     -1.9320936      17039.328    
    529000   1.1209604      0.0023323615  -0.0025611588   20.392507      18.72788       1.6646262     -1.7568846      17057.618    
    530000   1.0913634      0.0023323615  -0.0034129297   20.031226      18.410551      1.6206746     -2.1124999      16919.911    
    531000   0.89352632     0.0023323615  -0.00078727351  19.735751      18.408865      1.3268866     -2.0748864      16806.368    
    532000   1.0822154      0.0023323615  -0.002368398    20.254869      18.64778       1.6070899     -1.8525896      17280.513    
    533000   0.95541012     0.0023323615   0.00040723081  19.78565       18.366866      1.418784      -2.0900306      17854.123    
    534000   1.0006982      0.0023323615  -0.0035622708   19.84952       18.363484      1.4860368     -2.0560964      17132.687    
    535000   0.99545471     0.0023323615  -0.0014704597   20.163082      18.684832      1.4782502     -1.7616963      17380.16     
    536000   0.98180107     0.0023323615   0.00058195871  19.869373      18.411399      1.4579746     -1.966067       17648.997    
    537000   1.0668281      0.0023323615   0.0011076741   20.021799      18.437559      1.5842397     -1.9911535      17278.901    
    538000   1.1503346      0.0023323615   0.0011732632   20.665559      18.957312      1.7082469     -1.6202487      17695.086    
    539000   0.96870392     0.0023323615   0.0033940565   19.875834      18.437309      1.4385253     -2.0608559      17770.709    
    540000   0.9181991      0.0023323615   0.0017058738   19.719478      18.355952      1.3635257     -2.0076908      17500.779    
    541000   0.91230674     0.0023323615  -0.00019508584  20.162625      18.807849      1.3547755     -1.663246       17745.61     
    542000   0.90128259     0.0023323615  -0.004027419    19.855605      18.517201      1.3384046     -1.9065005      17623.559    
    543000   1.0367506      0.0023323615  -0.00097317077  20.302636      18.763062      1.5395746     -1.7891761      17455.723    
    544000   1.070597       0.0023323615  -0.00047998605  20.213435      18.623599      1.5898366     -1.8415955      17413.584    
    545000   1.0297102      0.0023323615   0.0014411086   20.216468      18.687349      1.5291197     -1.7934843      17667.319    
    546000   0.92682053     0.0023323615   0.0011448259   19.641386      18.265057      1.3763285     -2.15515        17578.669    
    547000   0.86042042     0.0023323615   0.00063449042  19.887122      18.609398      1.2777243     -1.959668       17298.635    
    548000   0.99188098     0.0023323615   0.0029703706   19.935585      18.462642      1.4729433     -2.0530151      17285.709    
    549000   0.98599096     0.0023323615  -0.0016040342   19.993086      18.528889      1.4641966     -1.9227797      17313.63     
    550000   1.0361294      0.0023323615   0.0011509975   19.868201      18.329549      1.5386522     -2.1090287      17338.593    
    551000   0.95524789     0.0023323615  -0.0030625217   20.12019       18.701647      1.4185431     -1.8526021      17412.451    
    552000   0.89973256     0.0023323615  -0.0040446751   20.166772      18.83067       1.3361029     -1.8818806      17533.637    
    553000   0.85490519     0.0023323615   0.0022232569   19.93848       18.668946      1.2695342     -1.7841958      16748.457    
    554000   1.0768643      0.0023323615   0.00066122537  20.583527      18.984383      1.5991435     -1.5281078      16942.686    
    555000   0.99474312     0.0023323615  -0.00071564991  20.461439      18.984245      1.4771935     -1.6404466      17016.194    
    556000   1.0157698      0.0023323615  -0.0042179486   20.150204      18.641786      1.5084182     -1.8744243      16855.897    
    557000   1.1370824      0.0023323615   0.0022449913   20.395702      18.707135      1.6885673     -1.7948573      16863.871    
    558000   0.9042601      0.0023323615  -0.00032693155  20.026452      18.683625      1.3428263     -1.8498708      16847.404    
    559000   1.1188882      0.0023323615  -0.00089397722  20.079321      18.417772      1.661549      -1.9947363      16861.204    
    560000   1.0149172      0.0023323615   0.00088115215  20.033696      18.526544      1.507152      -1.9619714      16738.576    
    561000   0.97882487     0.0023323615  -0.0020259632   20.182781      18.729226      1.4535549     -1.6987073      16877.345    
    562000   0.87186428     0.0023323615   0.0025058747   19.722351      18.427633      1.2947185     -2.079887       16889.493    
    563000   0.95663421     0.0023323615  -0.00038289917  20.204922      18.78432       1.4206018     -1.8355181      16874.101    
    564000   1.0364743      0.0023323615  -0.0038064307   20.268431      18.729266      1.5391644     -1.9010382      17575.348    
    565000   1.0446474      0.0023323615  -0.0038891003   20.229224      18.677923      1.5513014     -1.8563543      17758.742    
    566000   1.0997942      0.0023323615   0.0022559035   20.078219      18.445024      1.6331944     -2.0089863      17114.453    
    567000   1.0018955      0.0023323615  -0.0029213222   20.121436      18.633622      1.4878148     -1.9301348      17390.959    
    568000   0.9470801      0.0023323615  -0.0012327938   20.231038      18.824624      1.4064139     -1.7853491      17176.204    
    569000   0.89547624     0.0023323615  -0.00018884647  20.16689       18.837107      1.3297822     -1.792236       16947.758    
    570000   0.92629708     0.0023323615  -0.002337143    19.856045      18.480494      1.3755512     -1.9626613      16966.648    
    571000   1.0165607      0.0023323615   0.002870352    20.472724      18.963131      1.5095926     -1.7513008      17053.591    
    572000   0.98701504     0.0023323615   1.876649e-05   20.181622      18.715904      1.4657173     -1.7306459      16948.034    
    573000   1.0102032      0.0023323615  -0.0019531427   20.129853      18.629701      1.5001517     -2.0226408      16953.576    
    574000   0.98717692     0.0023323615   0.001979927    20.068366      18.602408      1.4659577     -1.9879007      16932.707    
    575000   0.98512303     0.0023323615   0.0042709857   19.98319       18.520283      1.4629077     -1.9516248      16904.706    
    576000   1.1167311      0.0023323615   0.0031213609   20.233323      18.574977      1.6583457     -1.9697204      16872.389    
    577000   1.0817597      0.0023323615  -0.0010130507   20.295558      18.689145      1.6064131     -1.9229027      17409.982    
    578000   1.0199107      0.0023323615  -0.001246444    20.111873      18.597305      1.5145674     -1.9607582      17706.678    
    579000   1.0508615      0.0023323615   0.0022456337   20.271778      18.711249      1.5605293     -1.779167       17063.772    
    580000   1.0118107      0.0023323615  -0.0011310462   20.475063      18.972525      1.5025389     -1.5147092      17722.316    
    581000   0.98117917     0.0023323615   0.00072067649  20.152909      18.695858      1.4570511     -1.793711       17377.267    
    582000   1.00425        0.0023323615  -0.0034658929   20.118397      18.627086      1.4913112     -1.8687213      17309.546    
    583000   0.91914275     0.0023323615  -0.0031273206   20.185555      18.820628      1.364927      -1.7487442      17703.949    
    584000   1.0668601      0.0023323615   0.00011380055  20.410656      18.826369      1.5842873     -1.6794648      17712.912    
    585000   1.0754834      0.0023323615  -0.0001050894   20.233239      18.636146      1.5970929     -1.9110946      17673.629    
    586000   0.95825304     0.0023323615   0.00063728201  20.088742      18.665736      1.4230058     -1.8013329      17872.234    
    587000   1.0297289      0.0023323615  -0.00059557601  20.199762      18.670615      1.5291473     -1.9330486      17548.776    
    588000   1.0581034      0.0023323615   0.0013997767   20.122081      18.550797      1.5712836     -1.9557936      17317.694    
    589000   1.1167299      0.0023323615  -0.0035396806   20.70448       19.046136      1.658344      -1.6229027      17575.499    
    590000   0.99415752     0.0023323615  -0.001358528    20.369519      18.893195      1.4763239     -1.5751551      17791.406    
    591000   0.86423065     0.0023323615  -0.0036092032   19.985283      18.7019        1.2833825     -1.8339368      17626.354    
    592000   1.1190945      0.0023323615   0.0025653327   20.22347       18.561615      1.6618554     -1.9109977      17446.869    
    593000   1.0466184      0.0023323615   0.0018979231   20.056031      18.501802      1.5542283     -1.8737279      17537.287    
    594000   0.96873386     0.0023323615   0.00066539558  20.228684      18.790115      1.4385698     -1.6636908      17471.276    
    595000   0.9147127      0.0023323615   0.0017469784   19.808068      18.449719      1.3583484     -1.9251181      17549.248    
    596000   1.0408654      0.0023323615  -0.00017279838  20.205106      18.659421      1.5456851     -1.7239598      17761.039    
    597000   0.97336045     0.0023323615   0.00094935262  19.879425      18.433985      1.4454403     -2.0163896      17409.05     
    598000   0.85280983     0.0023323615  -0.0040911602   20.119386      18.852963      1.2664226     -1.7552901      16916.395    
    599000   1.0136909      0.0023323615   0.0013128488   20.053622      18.548291      1.505331      -1.983242       17036.382    
    600000   1.0385378      0.0023323615   0.00082591562  20.216995      18.674766      1.5422286     -1.7832346      16801.431    
    601000   1.0191872      0.0023323615  -0.0016511235   20.096113      18.58262       1.513493      -1.9392094      16884.188    
    602000   0.95501752     0.0023323615  -0.0027539684   20.051076      18.632875      1.418201      -1.9260494      16777.234    
    603000   0.94167534     0.0023323615   0.0015326662   20.274212      18.875824      1.3983879     -1.7341368      16864.267    
    604000   0.98850656     0.0023323615   0.00055386418  20.239998      18.772066      1.4679322     -1.7986876      16817.975    
    605000   0.99628692     0.0023323615   0.00074926811  20.004298      18.524812      1.4794861     -1.8913909      16843.671    
    606000   1.1868166      0.0023323615   0.0012879191   20.221826      18.459404      1.7624226     -2.0767761      16797.931    
    607000   0.88824084     0.0023323615  -0.0016696949   19.990019      18.670982      1.3190376     -1.7906303      16768.545    
    608000   0.88503026     0.0023323615   0.00033202117  19.793239      18.478969      1.3142699     -1.9301786      16829.534    
    609000   1.0124689      0.0023323615  -0.00032077696  20.24767       18.744153      1.5035163     -1.774334       17565.524    
    610000   0.93429405     0.0023323615   0.002145713    20.032833      18.645407      1.3874267     -1.8127569      17446        
    611000   0.95218068     0.0023323615  -0.0017070007   19.824309      18.41032       1.4139883     -2.0714918      16914.772    
    612000   0.92210385     0.0023323615  -0.0013764497   19.632604      18.26328       1.3693242     -2.2356158      17381.522    
    613000   1.0883939      0.0023323615   0.0030461893   19.934452      18.318187      1.616265      -2.170158       16713.11     
    614000   1.0503846      0.0023323615  -0.0029945224   20.432932      18.873111      1.5598211     -1.8415125      16816.012    
    615000   0.92187537     0.0023323615  -0.0011062412   20.127143      18.758158      1.3689849     -1.8377588      16891.123    
    616000   0.93609084     0.0023323615  -0.0038956197   19.954242      18.564147      1.3900949     -1.9109619      16536.264    
    617000   1.0132677      0.0023323615  -0.0039531709   20.162836      18.658133      1.5047026     -1.8163581      16869.184    
    618000   0.9209731      0.0023323615  -0.00030780412  19.94029       18.572644      1.3676451     -1.9058121      16725.068    
    619000   1.0722731      0.0023323615   0.003330479    20.190091      18.597766      1.5923255     -1.9874076      16875.989    
    620000   1.0658423      0.0023323615   0.0052179619   20.215747      18.632971      1.5827759     -1.9649269      16902.802    
    621000   1.1060051      0.0023323615  -0.00089388509  20.314285      18.671868      1.6424175     -1.8374245      16898.306    
    622000   1.0708656      0.0023323615   0.002023348    20.292983      18.702747      1.5902354     -1.8123626      17641.885    
    623000   0.99861315     0.0023323615  -0.0020941603   20.137689      18.654748      1.4829405     -1.9060372      17507.59     
    624000   0.93654757     0.0023323615  -0.00074109176  19.939644      18.548871      1.3907731     -1.9890013      17379.485    
    625000   1.1327326      0.0023323615  -0.00039296134  20.330544      18.648436      1.6821079     -1.977095       17380.55     
    626000   0.93756721     0.0023323615   0.0032012979   19.994255      18.601968      1.3922873     -1.7497722      17323.402    
    627000   0.96208715     0.0023323615  -0.0014078874   19.934613      18.505914      1.4286994     -1.9611893      17727.676    
    628000   1.1165269      0.0023323615  -0.0048407491   20.393729      18.735687      1.6580424     -1.6646294      17989.141    
    629000   0.97436232     0.0023323615   0.0014152332   20.022868      18.57594       1.446928      -1.9614992      17862.999    
    630000   0.89412218     0.0023323615  -0.0045590302   20.189144      18.861372      1.3277714     -1.6489916      17909.179    
    631000   0.98960879     0.0023323615   0.003335246    19.82452       18.354951      1.4695691     -2.1192522      18205.023    
    632000   0.97085743     0.0023323615  -0.0017495359   20.1223        18.680577      1.4417233     -2.0031161      17750.928    
    633000   1.1426546      0.0023323615  -0.0017737657   20.251977      18.555135      1.6968421     -1.9287217      17660.842    
    634000   0.95539242     0.0023323615  -0.0053550977   19.933549      18.514792      1.4187577     -1.9774231      17552.174    
    635000   1.0007056      0.0023323615   0.002831522    19.935953      18.449905      1.4860478     -2.0333935      17785.468    
    636000   0.98129327     0.0023323615  -0.0019328542   20.144742      18.687521      1.4572205     -1.9247776      17816.008    
    637000   0.97172998     0.0023323615   0.00021359896  20.071         18.627981      1.443019      -2.0469744      17640.865    
    638000   1.0995656      0.0023323615   0.0052812043   20.500704      18.867849      1.6328549     -1.7193884      17623.444    
    639000   1.1080264      0.0023323615   0.00039291416  20.073102      18.427683      1.6454192     -2.053199       17649.203    
    640000   0.94452731     0.0023323615  -0.0037244411   20.024315      18.621692      1.4026231     -1.9245561      17582.056    
    641000   1.050819       0.0023323615  -5.4262641e-05  19.927512      18.367045      1.5604662     -1.9679402      17645.484    
    642000   1.0676087      0.0023323615   0.00221982     20.29392       18.708521      1.5853989     -1.7586364      17207.501    
    643000   0.96962874     0.0023323615  -0.0035924628   20.111392      18.671494      1.4398987     -1.8992188      16995.405    
    644000   0.93399113     0.0023323615  -0.00030569687  19.995143      18.608166      1.3869768     -1.9905417      17102.955    
    645000   0.88409152     0.0023323615  -0.0020008854   19.996322      18.683446      1.3128759     -1.7362649      16862.076    
    646000   0.96622705     0.0023323615   0.00070104509  20.085725      18.650878      1.4348472     -1.9455485      16758.572    
    647000   1.020847       0.0023323615  -0.0016975345   19.995382      18.479425      1.5159578     -2.136437       16779.871    
    648000   1.0527287      0.0023323615  -0.00054852941  20.042999      18.479697      1.5633021     -2.0365048      16751.167    
    649000   1.0960493      0.0023323615  -0.002382791    20.175095      18.547462      1.6276333     -1.9811684      16815.689    
    650000   1.1470335      0.0023323615  -0.0013874734   20.167443      18.464098      1.7033448     -2.1220722      16667.061    
    651000   0.88177294     0.0023323615   0.0020042423   19.924742      18.615309      1.3094328     -1.8819296      16701.565    
    652000   0.94272686     0.0023323615   0.00077441963  20.238307      18.838358      1.3999494     -1.6724538      16804.141    
    653000   0.93983975     0.0023323615   0.0013844896   20.083478      18.687816      1.395662      -1.873276       17104.403    
    654000   0.97387799     0.0023323615  -0.00027425284  19.912614      18.466406      1.4462088     -2.0236551      18050.196    
    655000   1.0300342      0.0023323615   0.00043837864  20.229601      18.7           1.5296007     -1.8934663      17512.484    
    656000   1.0117198      0.0023323615  -0.0017575557   20.360576      18.858172      1.5024039     -1.7712459      17268.581    
    657000   1.0173056      0.0023323615   0.00057498105  20.462314      18.951615      1.5106988     -1.5028019      17817.802    
    658000   1.1189006      0.0023323615   0.0046498925   20.467714      18.806146      1.6615674     -1.7403896      17469.386    
    659000   0.98310693     0.0023323615   0.0022057719   20.058996      18.599082      1.4599138     -1.9331533      17430.994    
    660000   0.97040911     0.0023323615  -6.0459206e-05  20.098965      18.657907      1.4410575     -1.8211283      17209.554    
    661000   0.86590805     0.0023323615  -0.00096879028  19.819159      18.533285      1.2858735     -1.9519372      16996.157    
    662000   1.041307       0.0023323615  -0.0012303643   20.006451      18.46011       1.546341      -1.9586309      16905.811    
    663000   1.2101866      0.0023323615  -0.00091644353  20.449925      18.652798      1.797127      -1.8987442      16826.892    
    664000   1.0663986      0.0023323615   0.0039470436   20.365415      18.781814      1.583602      -1.7429878      16758.69     
    665000   0.96508671     0.0023323615  -0.0031335921   20.137892      18.704738      1.4331538     -1.7351445      16910.565    
    666000   1.1085536      0.0023323615   0.0010240487   20.116126      18.469924      1.6462021     -2.0663552      16998.505    
    667000   0.97227656     0.0023323615  -0.0030366097   19.863829      18.419999      1.4438307     -2.0917997      18010.207    
    668000   0.92721431     0.0023323615   8.4191428e-05  19.82517       18.448257      1.3769132     -1.9840716      17571.854    
    669000   0.97905088     0.0023323615  -0.003974806    20.45259       18.998699      1.4538906     -1.6577398      17351.683    
    670000   1.0056059      0.0023323615  -0.0043184256   20.208227      18.714902      1.4933248     -1.8219068      18001.213    
    671000   0.9785647      0.0023323615  -0.0016529624   20.015311      18.562143      1.4531686     -1.8885303      17705.013    
    672000   0.9851045      0.0023323615  -0.00080413922  20.245413      18.782533      1.4628802     -1.7512545      17637.084    
    673000   0.93740121     0.0023323615  -0.0024312284   19.882608      18.490568      1.3920408     -1.9560642      17900.093    
    674000   1.0049304      0.0023323615  -1.9515053e-06  19.900682      18.40836       1.4923216     -2.0905817      17978.542    
    675000   0.97691742     0.0023323615  -0.0010898308   19.857234      18.406512      1.4507224     -1.9746432      17770.845    
    676000   0.82164864     0.0023323615   0.0009688428   19.718386      18.498238      1.2201482     -2.0378255      17867.432    
    677000   0.93973243     0.0023323615  -0.00060081152  19.925087      18.529584      1.3955027     -1.9764808      17721.363    
    678000   1.0622406      0.0023323615   0.0025041362   20.303536      18.726109      1.5774273     -1.8273689      17580.898    
    679000   1.1069032      0.0023323615  -0.0027136863   20.040658      18.396907      1.6437512     -2.1452178      17758.761    
    680000   1.0711339      0.0023323615  -0.0013489031   20.36643       18.775796      1.5906338     -1.7062012      17662.217    
    681000   1.0046107      0.0023323615   0.0016733593   20.183979      18.692132      1.4918469     -1.9030608      17560.799    
    682000   1.1223807      0.0023323615   0.0016239606   20.513073      18.846338      1.6667354     -1.7571892      17432.172    
    683000   1.2253268      0.0023323615   0.0020792494   20.380961      18.561351      1.8196103     -1.9873365      17478.018    
    684000   1.0124084      0.0023323615  -0.0022358549   19.956955      18.453529      1.5034265     -2.0711408      17365.797    
    685000   1.2208868      0.0023323615   0.0013860541   20.224678      18.411661      1.8130169     -2.0219622      17558.605    
    686000   1.0982156      0.0023323615  -0.00032258616  20.112275      18.481425      1.6308502     -2.1024604      17500.598    
    687000   1.1112954      0.0023323615   0.001012441    20.162477      18.512203      1.6502737     -1.9985467      17410.426    
    688000   1.1584046      0.0023323615   0.0034925117   20.300214      18.579983      1.7202309     -1.9804855      16913.371    
    689000   1.1108152      0.0023323615   0.0002829034   20.202729      18.553168      1.6495606     -2.0094966      17159.172    
    690000   0.99282428     0.0023323615  -0.0022870745   20.272936      18.798592      1.474344      -1.8107127      16887.327    
    691000   1.0617238      0.0023323615  -0.0011755994   20.514149      18.93749       1.5766598     -1.6818008      16896.776    
    692000   1.0243242      0.0023323615   0.0018968888   19.980905      18.459784      1.5211214     -1.9817917      16770.595    
    693000   0.9633017      0.0023323615   0.0016684493   20.259392      18.828889      1.430503      -1.6638303      16786.15     
    694000   0.91276449     0.0023323615   0.0016150682   19.692661      18.337205      1.3554553     -2.0181115      16847.276    
    695000   0.98227381     0.0023323615  -0.0046350029   20.106522      18.647846      1.4586766     -1.8693569      16804.916    
    696000   1.0742468      0.0023323615   0.00014066967  20.064695      18.469438      1.5952564     -2.0716002      16838.426    
    697000   1.0897265      0.0023323615  -0.0027450602   20.279237      18.660993      1.6182439     -1.8378655      16979.31     
    698000   0.89319481     0.0023323615   0.003645794    19.835762      18.509368      1.3263943     -2.0835414      16883.4      
    699000   1.0195993      0.0023323615   0.0031191334   20.086321      18.572216      1.5141049     -1.8869969      17334.479    
    700000   1.0236411      0.0023323615  -0.0036437321   19.911691      18.391584      1.520107      -2.1404022      17786.565    
    701000   0.94151321     0.0023323615  -0.0014639001   19.882689      18.484542      1.3981471     -2.0030694      17104.57     
    702000   1.0059772      0.0023323615   0.0013950445   20.190217      18.696341      1.4938761     -1.8522853      17403.965    
    703000   0.87593033     0.0023323615   0.0011806083   19.992948      18.692191      1.3007565     -1.8850746      17208.883    
    704000   0.95692833     0.0023323615   0.0017643104   19.965822      18.544784      1.4210386     -1.8722792      17069.757    
    705000   1.0197322      0.0023323615   0.0019699698   20.218173      18.703871      1.5143024     -1.7975019      17045.617    
    706000   1.0078437      0.0023323615  -0.00059734108  20.160631      18.663983      1.4966479     -1.9142008      16977.28     
    707000   0.90625078     0.0023323615  -0.00042662969  19.724558      18.378776      1.3457824     -2.2355343      16973.662    
    708000   0.98348952     0.0023323615   0.0043942851   20.029117      18.568635      1.4604819     -1.9035186      16818.998    
    709000   0.92933442     0.0023323615  -0.0055050534   20.296018      18.915956      1.3800616     -1.6872604      16774.288    
    710000   1.0771208      0.0023323615   0.0030288584   20.116156      18.516632      1.5995243     -1.9770205      16928.583    
    711000   0.98311679     0.0023323615  -0.00024931872  19.841071      18.381142      1.4599284     -2.0496718      17057.645    
    712000   0.88991312     0.0023323615   0.00079302557  19.99992       18.678399      1.321521      -1.8042866      17430.483    
    713000   0.93235427     0.0023323615  -0.0050538675   20.106438      18.721892      1.3845461     -1.7141453      17825.537    
    714000   0.86730534     0.0023323615  -0.0024939734   20.000394      18.712446      1.2879484     -1.7869086      17777.46     
    715000   0.90404907     0.0023323615   0.0044323182   19.921455      18.578943      1.3425129     -1.8739047      17664.133    
    716000   0.91776183     0.0023323615   0.00091889192  19.817852      18.454976      1.3628763     -2.0028119      17242.535    
    717000   1.0686099      0.0023323615   0.005369868    19.992068      18.405182      1.5868857     -2.0101569      17262.835    
    718000   0.8267008      0.0023323615   0.0034812693   19.780057      18.552406      1.2276507     -2.1087627      17552.661    
    719000   1.0170871      0.0023323615  -4.0823475e-05  20.001377      18.491002      1.5103744     -2.1226299      17724.447    
    720000   1.0607545      0.0023323615  -0.0022120632   20.162889      18.587668      1.5752205     -1.8559923      17791.244    
    721000   0.85444499     0.0023323615   0.0071145965   19.732446      18.463595      1.2688508     -2.0162346      17952.53     
    722000   1.0431501      0.0023323615   0.00069216353  19.973278      18.4242        1.5490779     -2.0232955      17561.482    
    723000   0.95259135     0.0023323615  -0.0031111476   20.159179      18.744581      1.4145982     -1.7633031      17629.106    
    724000   0.95638614     0.0023323615   0.0015957432   19.936943      18.51671       1.4202334     -1.8991946      17710.184    
    725000   1.0856234      0.0023323615   0.0080559976   19.960717      18.348567      1.6121507     -2.0781141      17591.786    
    726000   0.91919946     0.0023323615  -0.0019430256   20.179388      18.814377      1.3650112     -1.6051651      17604.312    
    727000   1.0306159      0.0023323615   0.0027491819   20.115221      18.584757      1.5304646     -1.9439627      17540.724    
    728000   0.93989191     0.0023323615  -0.00051622262  20.002594      18.606855      1.3957395     -2.0058446      17682.067    
    729000   1.0756753      0.0023323615   0.00022537162  20.175514      18.578136      1.5973778     -1.8845778      17752.058    
    730000   1.003444       0.0023323615   0.001129704    20.100861      18.610747      1.4901143     -1.922859       17567.131    
    731000   0.92802435     0.0023323615  -0.00022623839  19.8754        18.497284      1.3781162     -1.9352129      17759.367    
    732000   0.95149699     0.0023323615  -0.0026146103   20.065029      18.652056      1.412973      -1.8331653      17571.275    
    733000   0.95511868     0.0023323615  -0.00012722821  20.15484       18.736489      1.4183512     -1.7809496      16776.509    
    734000   0.90342743     0.0023323615  -0.0022284737   19.780331      18.438742      1.3415897     -2.0533025      17017.067    
    735000   1.1202624      0.0023323615  -0.0007043243   20.260174      18.596585      1.6635897     -1.9015512      16933.074    
    736000   1.1153447      0.0023323615  -0.00065304605  20.00932       18.353033      1.6562868     -2.020587       16759.031    
    737000   1.0165312      0.0023323615  -0.0015454152   20.149806      18.640257      1.5095488     -1.8509763      16659.773    
    738000   0.95283087     0.0023323615   0.00025249925  20.050099      18.635145      1.4149538     -1.8878385      16551.406    
    739000   0.96553315     0.0023323615  -0.0014790466   20.263582      18.829765      1.4338167     -1.7917546      16569.048    
    740000   1.093399       0.0023323615   0.0016965157   20.345067      18.72137       1.6236975     -1.833851       16603.294    
    741000   0.9888161      0.0023323615  -0.0015751685   20.167018      18.698626      1.4683919     -1.877415       16600.041    
    742000   1.0407387      0.0023323615   0.0028830728   20.233674      18.688177      1.5454969     -1.8493071      16513.567    
    743000   1.0633407      0.0023323615  -0.0059282832   20.16812       18.589059      1.579061      -1.9655139      16663.28     
    744000   1.094993       0.0023323615  -0.0031183143   19.913657      18.287592      1.6260647     -2.1056634      17354.465    
    745000   0.99696129     0.0023323615   5.8923977e-06  19.796309      18.315822      1.4804875     -2.1166517      17572.269    
    746000   1.0576187      0.0023323615   0.00080839034  20.088865      18.518301      1.5705637     -1.9624076      17007.779    
    747000   1.051301       0.0023323615  -0.0015695425   20.095046      18.533864      1.561182      -1.9751607      17256.937    
    748000   0.96463509     0.0023323615  -0.0027435624   19.90711       18.474627      1.4324831     -1.9845413      16911.935    
    749000   0.98586777     0.0023323615   0.00027037961  20.013388      18.549375      1.4640136     -2.053533       16983.519    
    750000   1.1196581      0.0023323615   0.00037390543  20.049187      18.386495      1.6626924     -2.0506108      16804.059    
    751000   1.0034171      0.0023323615  -0.0053016546   19.906586      18.416511      1.4900744     -2.0885048      16829.698    
    752000   0.78383469     0.0023323615  -0.0035889584   19.818554      18.654559      1.1639945     -1.7079042      16860.054    
    753000   1.0928501      0.0023323615   0.0012754822   19.96686       18.343977      1.6228824     -2.173702       16785.399    
    754000   1.013371       0.0023323615   0.0046823165   19.814034      18.309178      1.5048559     -2.2084407      16806.82     
    755000   0.86332998     0.0023323615  -0.00056294164  19.690804      18.408759      1.282045      -2.1953617      16965.616    
    756000   0.91423394     0.0023323615   0.0013601479   19.818451      18.460814      1.3576374     -2.0100206      17000.772    
    757000   1.0608046      0.0023323615  -0.0036827867   20.129125      18.55383       1.5752949     -1.9533951      17656.921    
    758000   1.0177675      0.0023323615  -0.00120525     19.789062      18.277677      1.5113847     -2.1663754      17631.513    
    759000   0.93536114     0.0023323615   0.0018154407   19.957586      18.568575      1.3890113     -2.0136664      17399.117    
    760000   1.0440189      0.0023323615  -0.00067074134  20.370608      18.820239      1.5503681     -1.6842595      17808.945    
    761000   0.94888011     0.0023323615   0.00025689115  20.096763      18.687676      1.409087      -1.8322162      17408.549    
    762000   0.90329601     0.0023323615   0.001091294    20.145267      18.803873      1.3413946     -1.898916       17400.664    
    763000   0.97039988     0.0023323615  -0.0012624914   19.949434      18.508391      1.4410438     -1.8910461      17241.13     
    764000   0.97071413     0.0023323615   0.00020627365  19.878691      18.437181      1.4415105     -1.9607837      17620.893    
    765000   0.9729455      0.0023323615   0.0049482668   20.16663       18.721806      1.4448241     -1.8877998      17848.431    
    766000   0.79136077     0.0023323615  -0.0016181594   19.933709      18.758538      1.1751707     -1.7678152      17793.747    
    767000   0.96948918     0.0023323615  -0.0012473615   19.743339      18.303647      1.4396914     -2.1864559      17703.421    
    768000   0.9918648      0.0023323615  -0.003153916    20.101271      18.628352      1.4729192     -1.9138312      17835.44     
    769000   0.8539191      0.0023323615  -0.0052372002   19.996865      18.728795      1.2680699     -1.8781965      17623.874    
    770000   0.93406075     0.0023323615  -0.0012465293   20.446571      19.059491      1.3870802     -1.5509184      17686.306    
    771000   1.0070993      0.0023323615   0.00068967379  20.296864      18.801321      1.4955424     -1.7834992      17472.26     
    772000   1.0738036      0.0023323615   0.0040579741   20.176874      18.582276      1.5945983     -2.005246       16949.954    
    773000   1.1009895      0.0023323615  -0.00042499093  20.280262      18.645292      1.6349693     -1.8881004      17474.674    
    774000   0.97762966     0.0023323615  -0.0031018362   19.928332      18.476551      1.45178       -2.0249784      17440.991    
    775000   0.95497955     0.0023323615   0.00039705127  19.798059      18.379914      1.4181446     -2.105878       17412.023    
    776000   0.93541823     0.0023323615  -0.00088570107  20.304774      18.915678      1.3890961     -1.8013685      17464.294    
    777000   1.0539964      0.0023323615   0.002161436    19.835322      18.270137      1.5651847     -2.234718       17424.23     
    778000   1.0851093      0.0023323615   0.0021645602   20.215618      18.604231      1.6113873     -2.1406068      16948.475    
    779000   0.99352969     0.0023323615   0.0015277197   20.04964       18.574248      1.4753916     -1.9542624      16780.562    
    780000   1.0350646      0.0023323615   0.0016558314   20.05382       18.516749      1.5370709     -1.9997045      16621.645    
    781000   1.1490147      0.0023323615  -0.00017518599  20.409033      18.702746      1.7062868     -1.8469558      16740.491    
    782000   1.1160393      0.0023323615  -0.00028312513  20.208739      18.551421      1.6573184     -1.8507497      16719.762    
    783000   1.0611851      0.0023323615   0.0025362776   20.084527      18.508667      1.5758599     -2.0718513      16731.079    
    784000   0.98705423     0.0023323615   0.00060169663  20.001638      18.535862      1.4657755     -1.8963128      16904.313    
    785000   0.96770045     0.0023323615  -0.0046005628   20.148708      18.711673      1.4370352     -1.9092725      16747.268    
    786000   1.0408215      0.0023323615   0.0020311331   19.947914      18.402294      1.54562       -1.9872279      16826.929    
    787000   1.0246816      0.0023323615  -0.00089780568  20.00211       18.480458      1.5216522     -2.0052312      16773.882    
    788000   0.96992373     0.0023323615   0.004147603    20.223829      18.783492      1.4403367     -1.7577451      16821.864    
    789000   1.1829936      0.0023323615   0.0010800281   20.542155      18.785409      1.7567455     -1.807397       17226.124    
    790000   1.0206071      0.0023323615  -0.00022119778  20.169731      18.654129      1.5156016     -1.8176155      17847.448    
    791000   0.94336488     0.0023323615  -0.0019851793   20.104527      18.70363       1.4008968     -1.7886626      17822.593    
    792000   1.0225322      0.0023323615  -0.00037977392  19.871272      18.352812      1.5184603     -2.1144386      17125.723    
    793000   0.93515634     0.0023323615   0.00098684806  20.094075      18.705368      1.3887072     -1.7338958      16735.89     
    794000   0.91782764     0.0023323615  -0.0010726371   20.343473      18.980499      1.3629741     -1.4986579      16857.56     
    795000   0.99914027     0.0023323615  -0.0016900614   20.528566      19.044843      1.4837233     -1.572885       16985.086    
    796000   1.0355845      0.0023323615   0.002686152    20.215937      18.678094      1.537843      -1.7996541      16877.019    
    797000   0.93529525     0.0023323615  -0.0022620224   19.911238      18.522325      1.3889134     -1.9497618      16870.262    
    798000   0.9401192      0.0023323615  -0.00024176168  19.969461      18.573384      1.396077      -1.9726547      16728.465    
    799000   0.93278849     0.0023323615   0.0020749982   19.866264      18.481073      1.3851909     -2.1200023      16864.746    
    800000   1.0075542      0.0023323615  -7.2638921e-05  19.94256       18.446342      1.4962179     -1.9328446      16961.072    
    801000   1.0197549      0.0023323615  -0.0009725331   20.274483      18.760147      1.514336      -1.7635604      17070.691    
    802000   0.81543729     0.0023323615   0.0015727999   20.086135      18.875211      1.2109244     -1.7307507      16891.134    
    803000   1.0710463      0.0023323615   0.00051710324  20.510026      18.919522      1.5905038     -1.6780806      17866.827    
    804000   1.1138277      0.0023323615  -0.0030183646   20.228573      18.574539      1.6540342     -1.8680664      17999.665    
    805000   1.0950249      0.0023323615  -0.0019870098   20.378962      18.75285       1.626112      -1.8701719      17938.785    
    806000   0.95450234     0.0023323615  -0.00011028757  20.164593      18.747157      1.417436      -1.8181156      17431.777    
    807000   1.0418935      0.0023323615  -0.0015007445   20.113048      18.565836      1.5472118     -1.8881126      17719.028    
    808000   0.95214046     0.0023323615  -0.0021368437   20.335594      18.921666      1.4139286     -1.6898197      17857.8      
    809000   1.0749999      0.0023323615  -0.0020239394   20.582994      18.986619      1.5963748     -1.6257184      18065.561    
    810000   1.1274745      0.0023323615   0.0010286596   20.477185      18.802886      1.6742996     -1.7621934      17909.211    
    811000   1.1895668      0.0023323615  -0.0014200265   20.411952      18.645445      1.7665067     -1.8496553      17649.815    
    812000   0.92024253     0.0023323615  -0.0055105274   19.624478      18.257918      1.3665602     -2.2002905      17675.378    
    813000   1.2230307      0.0023323615   0.0016865946   20.353183      18.536983      1.8162007     -1.9387069      17780.671    
    814000   0.90153981     0.0023323615  -0.0027221156   19.832498      18.493712      1.3387866     -2.0660271      17624.574    
    815000   1.0466881      0.0023323615  -0.004686827    20.116892      18.56256       1.5543318     -1.9748704      17576.88     
    816000   0.99021401     0.0023323615  -0.00025339176  20.148317      18.677849      1.4704678     -1.8945411      17724.091    
    817000   1.1034495      0.0023323615  -0.0010054004   20.251758      18.613136      1.6386225     -1.9418985      17658.208    
    818000   0.98951739     0.0023323615  -0.0014151322   20.231502      18.762069      1.4694333     -1.6467216      17757.506    
    819000   1.0818523      0.0023323615   0.0054604361   20.226268      18.619718      1.6065507     -1.9403929      17512.189    
    820000   0.93973743     0.0023323615  -0.0025297454   19.957545      18.562035      1.3955101     -1.9209018      17664.349    
    821000   1.2735159      0.0023323615  -0.00096886511  20.826046      18.934875      1.8911712     -1.6830394      17681.252    
    822000   1.0426063      0.0023323615   0.0019507537   20.082193      18.533923      1.5482704     -1.8757412      17756.018    
    823000   1.0137453      0.0023323615   0.0029460326   20.051067      18.545656      1.5054118     -1.8001735      17352.941    
    824000   1.0010906      0.0023323615  -0.0012497999   20.130864      18.644245      1.4866196     -1.8841722      16880.824    
    825000   0.87824207     0.0023323615   9.0974349e-05  19.941413      18.637224      1.3041895     -1.9779956      16782.726    
    826000   0.98957458     0.0023323615   0.00099593427  20.216819      18.747301      1.4695183     -1.7598136      16897.008    
    827000   0.89089621     0.0023323615   1.6256551e-05  19.757286      18.434305      1.3229809     -2.0949818      16974.193    
    828000   1.0920815      0.0023323615   0.002209153    20.211273      18.589532      1.621741      -1.9908164      16903.878    
    829000   1.0403089      0.0023323615  -0.0026952236   20.023797      18.478938      1.5448588     -2.0502703      16943.443    
    830000   1.0062535      0.0023323615   0.0010746589   19.848326      18.354039      1.4942865     -2.1056512      16922.561    
    831000   0.83495265     0.0023323615  -0.0058272056   20.215176      18.975272      1.2399047     -1.6418709      16928.471    
    832000   0.92885703     0.0023323615  -0.0029852267   20.08057       18.701218      1.3793527     -1.7555617      16935.905    
    833000   1.1801905      0.0023323615   0.00033568886  20.421986      18.669403      1.7525829     -1.9315265      17051.379    
    834000   0.96901696     0.0023323615   0.0014166184   19.844652      18.405662      1.4389902     -2.0144485      17121.176    
    835000   1.1968822      0.0023323615   0.0004437395   20.329544      18.552174      1.7773701     -1.7971646      18007.234    
    836000   0.85801477     0.0023323615  -0.0017445053   19.730157      18.456005      1.2741519     -1.9822825      18016.377    
    837000   0.86963383     0.0023323615  -0.0038255805   20.059894      18.768487      1.2914062     -1.8034631      17328.241    
    838000   1.0745603      0.0023323615  -0.00016167511  20.336278      18.740556      1.595722      -1.7681497      17188.089    
    839000   1.0382486      0.0023323615   0.001586268    20.002631      18.460831      1.5417992     -2.0872676      17076.485    
    840000   1.0827549      0.0023323615   0.0003207127   20.401154      18.793263      1.607891      -1.7004881      17230.486    
    841000   0.95154282     0.0023323615  -0.0011878641   20.132582      18.719541      1.4130411     -1.8249164      17056.75     
    842000   1.1476855      0.0023323615  -0.0014054694   20.586087      18.881774      1.704313      -1.680004       17076.544    
    843000   0.95136102     0.0023323615   0.00071868202  20.147137      18.734366      1.4127711     -1.72175        17060.164    
    844000   0.89963176     0.0023323615   0.0015870348   20.245026      18.909073      1.3359532     -1.687091       16965.267    
    845000   1.0326449      0.0023323615   0.0049952499   19.727151      18.193673      1.5334776     -2.2711186      17018.895    
    846000   0.97956197     0.0023323615  -0.00022718558  20.140835      18.686185      1.4546495     -1.916394       16918.293    
    847000   1.0290475      0.0023323615   0.00077966273  20.181981      18.653845      1.5281356     -1.8039304      16905.728    
    848000   1.0821448      0.0023323615  -0.00066559962  20.014499      18.407514      1.606985      -1.9913245      17761.962    
    849000   0.94729265     0.0023323615  -0.002411494    20.26631       18.859581      1.4067296     -1.7885761      17951.074    
    850000   0.95345139     0.0023323615   0.0011334693   20.030742      18.614867      1.4158753     -2.0208606      17801.227    
    851000   0.93804077     0.0023323615   0.00046449478  20.128402      18.735411      1.3929905     -1.8026144      17436.32     
    852000   1.0735045      0.0023323615   0.001522653    20.360301      18.766147      1.5941542     -1.8382891      17154.734    
    853000   0.9212475      0.0023323615  -0.0053601952   20.132494      18.764441      1.3680525     -1.7726901      17492.219    
    854000   0.9290783      0.0023323615  -0.0016144745   20.092404      18.712723      1.3796813     -1.8077519      17922.264    
    855000   0.92721052     0.0023323615   0.0010975766   19.733581      18.356674      1.3769076     -2.0836368      17992.789    
    856000   0.93624332     0.0023323615  -0.0012798028   20.011895      18.621574      1.3903213     -1.9362659      17904.116    
    857000   0.99128777     0.0023323615   0.00048260387  20.249102      18.77704       1.4720623     -1.735458       17815.07     
    858000   0.94068115     0.0023323615  -0.0017889215   19.868293      18.471381      1.3969115     -1.950213       17663.111    
    859000   0.90676053     0.0023323615   0.0039563512   19.952186      18.605646      1.3465394     -1.906691       17590.531    
    860000   1.0987682      0.0023323615  -0.00038784948  20.232313      18.600642      1.6316708     -1.8496938      17794.096    
    861000   1.0942803      0.0023323615   0.0014910038   20.240513      18.615507      1.6250063     -1.8740335      17430.212    
    862000   0.96801976     0.0023323615  -0.0033420647   20.082763      18.645254      1.4375093     -1.930272       17616.371    
    863000   0.94157503     0.0023323615   0.0011125713   19.901515      18.503276      1.3982389     -1.9525554      17500.506    
    864000   1.0767479      0.0023323615  -0.00016776384  20.458427      18.859456      1.5989706     -1.6470124      17452.185    
    865000   1.0109482      0.0023323615  -0.0028384511   20.438706      18.937448      1.5012581     -1.6858337      17502.108    
    866000   0.94950165     0.0023323615   0.0028657119   20.199951      18.789941      1.41001       -1.7790689      17430.872    
    867000   1.0507706      0.0023323615   0.00039550362  20.299692      18.739297      1.5603944     -1.812234       17720.435    
    868000   1.1007214      0.0023323615  -0.0058578624   20.635063      19.000492      1.6345714     -1.5437828      17368.368    
    869000   1.0039293      0.0023323615   0.0013714948   20.090049      18.599214      1.490835      -1.8542497      16765.97     
    870000   0.90073019     0.0023323615  -0.0032726104   20.188187      18.850603      1.3375843     -1.7654123      16747.538    
    871000   0.91677251     0.0023323615  -0.00027332228  19.732103      18.370696      1.3614072     -1.9834964      16775.289    
    872000   0.98365489     0.0023323615  -0.002622891    20.117331      18.656604      1.4607275     -1.9926272      16795.562    
    873000   1.083247       0.0023323615  -0.00065233024  20.305594      18.696972      1.6086218     -1.8381859      16941.769    
    874000   1.0831746      0.0023323615   0.006433021    20.371092      18.762578      1.6085143     -1.800508       17026.501    
    875000   1.0243781      0.0023323615  -0.0028190773   20.194165      18.672963      1.5212015     -1.7664985      17075.486    
    876000   1.1343334      0.0023323615  -0.0016462999   20.376136      18.691651      1.6844852     -1.8334698      16896.227    
    877000   0.88875723     0.0023323615   0.0010528443   19.802148      18.482343      1.3198045     -2.0112929      16709.414    
    878000   1.0551143      0.0023323615  -0.0014404339   20.507676      18.940831      1.5668448     -1.5987369      16859.168    
    879000   1.0821367      0.0023323615   0.0013254998   20.694811      19.087838      1.606973      -1.5361306      17126.247    
    880000   0.91532606     0.0023323615   0.00045015465  20.33748       18.978221      1.3592592     -1.5317125      17980.964    
    881000   0.92285949     0.0023323615  -0.0007119489   20.016384      18.645937      1.3704463     -1.776552       17930.226    
    882000   1.0836137      0.0023323615   0.0012605588   20.663156      19.05399       1.6091663     -1.4992035      17136.497    
    883000   0.85993985     0.0023323615   0.0030108553   20.068898      18.791887      1.2770107     -1.7324728      16915.025    
    884000   0.8863675      0.0023323615   0.0025048439   19.907036      18.590781      1.3162557     -1.9316991      16941.812    
    885000   0.96617774     0.0023323615   0.0013299149   19.88395       18.449176      1.4347739     -1.9546907      16831.098    
    886000   1.1406294      0.0023323615   0.00061359207  20.37736       18.683526      1.6938346     -1.9814694      16792.762    
    887000   0.90579481     0.0023323615  -0.0013952316   20.171452      18.826346      1.3451053     -1.752524       16915.506    
    888000   1.1504748      0.0023323615   0.0015822353   20.437915      18.72946       1.708455      -1.7420567      16926.84     
    889000   1.2114291      0.0023323615   0.00021095391  20.370551      18.571578      1.7989723     -1.8314113      16936.114    
    890000   1.0626628      0.0023323615   0.0010838206   20.122716      18.544662      1.5780542     -2.0036417      16971.047    
    891000   0.91761832     0.0023323615   0.0027221549   20.320271      18.957608      1.3626632     -1.6976017      16964.174    
    892000   1.0076621      0.0023323615  -0.00073227442  20.259968      18.76359       1.4963781     -1.7840806      17052.012    
    893000   0.97646663     0.0023323615   0.00082479678  20.240384      18.790331      1.4500529     -1.690935       17974.734    
    894000   0.98967422     0.0023323615  -0.0010481518   20.250237      18.780571      1.4696662     -1.6445267      18080.336    
    895000   0.94122284     0.0023323615  -0.0047048653   20.154287      18.756571      1.3977159     -1.8415708      17802.767    
    896000   0.87538513     0.0023323615  -0.0021539593   20.101548      18.801601      1.2999469     -1.8504835      17378.962    
    897000   1.0372599      0.0023323615   0.0023682353   20.170849      18.630518      1.540331      -1.8946354      17425.821    
    898000   0.89442908     0.0023323615  -0.0019830806   19.754423      18.426196      1.3282272     -2.08603        17548.193    
    899000   0.92996223     0.0023323615  -0.0030521758   20.011463      18.630469      1.3809939     -1.886509       17943.909    
    900000   1.0169535      0.0023323615  -0.00084441845  20.047361      18.537186      1.5101759     -1.9406608      18063.318    
    901000   0.90939221     0.0023323615   0.001811216    19.962601      18.612154      1.3504474     -1.8502327      17816.714    
    902000   0.93599277     0.0023323615   0.0030627428   20.254358      18.864409      1.3899493     -1.8319523      17845.37     
    903000   1.0556295      0.0023323615   0.0016801964   20.36899       18.80138       1.5676099     -1.7576908      17710.439    
    904000   1.1156864      0.0023323615  -0.0018213187   20.282433      18.625639      1.6567943     -1.8358045      17699.387    
    905000   0.90696354     0.0023323615   0.0023059769   19.821639      18.474798      1.3468409     -1.9795103      17707.759    
    906000   0.9668947      0.0023323615  -0.0040283623   20.174382      18.738543      1.4358386     -1.7571754      17665.843    
    907000   0.84735198     0.0023323615   0.0018674157   19.912917      18.654599      1.2583177     -1.8322894      17367.996    
    908000   0.98360409     0.0023323615   0.00082333727  20.045433      18.584781      1.4606521     -1.8712265      17692.692    
    909000   0.93501291     0.0023323615   0.0023216512   20.091377      18.702883      1.3884942     -1.7617377      17553.816    
    910000   1.0552469      0.0023323615  -0.003908022    20.241152      18.67411       1.5670416     -1.8196001      17108.328    
    911000   0.91844472     0.0023323615  -0.0017414654   19.91774       18.553849      1.3638904     -1.913336       17253.283    
    912000   0.89632298     0.0023323615   0.0001212727   20.148857      18.817817      1.3310396     -1.6920927      17557.598    
    913000   0.8752796      0.0023323615   0.0029899751   19.871142      18.571352      1.2997902     -1.8842844      17420.179    
    914000   1.1166673      0.0023323615   0.0016625513   20.121705      18.463454      1.6582509     -2.0178189      16582.397    
    915000   0.93420638     0.0023323615   0.00096357984  20.068528      18.681232      1.3872965     -1.7842969      16838.025    
    916000   1.0831451      0.0023323615   9.1405496e-05  19.939653      18.331182      1.6084705     -2.0602547      16737.582    
    917000   1.0242404      0.0023323615  -0.0061034507   20.479737      18.95874       1.5209971     -1.7071821      16833.908    
    918000   0.9320868      0.0023323615  -0.0011143708   19.891862      18.507713      1.3841489     -2.0428852      16784.699    
    919000   0.90415303     0.0023323615  -0.0020137604   19.974562      18.631894      1.3426672     -1.85144        16630.92     
    920000   1.0450113      0.0023323615   0.0021260824   20.128167      18.576326      1.5518418     -1.9340632      16638.048    
    921000   0.95767974     0.0023323615  -0.0013157749   20.223098      18.800943      1.4221544     -1.6204657      16783.819    
    922000   0.95199765     0.0023323615   0.00068841683  20.304608      18.890892      1.4137165     -1.690335       16867.607    
    923000   1.1361197      0.0023323615   0.0012558825   20.243545      18.556407      1.6871377     -1.9366564      16872.266    
    924000   1.0473605      0.0023323615   0.0020500824   20.328362      18.773032      1.5553303     -1.7917853      16842.415    
    925000   0.77173789     0.0023323615   0.0053338942   19.782183      18.636153      1.1460308     -1.9306702      17719.862    
    926000   1.1420538      0.0023323615   4.3677109e-05  20.250711      18.554762      1.6959499     -2.0865489      17523.072    
    927000   1.0734494      0.0023323615   0.0054107173   20.505022      18.910949      1.5940724     -1.7818062      16614.332    
    928000   1.0119457      0.0023323615   0.0032727994   20.230533      18.727793      1.5027394     -1.6938199      16799.834    
    929000   0.86647078     0.0023323615  -0.0034416724   19.900388      18.613679      1.2867091     -1.949902       16729.893    
    930000   1.0936165      0.0023323615   0.0018674127   20.228703      18.604683      1.6240204     -1.9367508      16639.723    
    931000   1.1332584      0.0023323615  -0.0018743159   20.458993      18.776104      1.6828888     -1.814124       16737.318    
    932000   1.1302725      0.0023323615  -0.0026165793   20.29145       18.612995      1.6784547     -1.8890282      16766.336    
    933000   1.0704766      0.0023323615   0.00085056756  20.069661      18.480003      1.5896577     -1.9033529      16635.324    
    934000   1.0682289      0.0023323615   0.0026035182   20.53047       18.94415       1.58632       -1.570345       16850.758    
    935000   0.95337873     0.0023323615  -0.0038051207   20.002224      18.586457      1.4157674     -1.9573935      17003.584    
    936000   1.0776511      0.0023323615   0.0033731783   20.235628      18.635317      1.6003118     -1.8949868      16825.188    
    937000   0.96499746     0.0023323615  -0.0019449751   20.328407      18.895386      1.4330212     -1.6820292      17049.396    
    938000   1.0408113      0.0023323615   0.0026515953   19.997832      18.452227      1.5456047     -2.0169769      17925.963    
    939000   0.90474961     0.0023323615   0.0022230044   19.998108      18.654555      1.3435532     -1.9572738      17722.992    
    940000   0.98171592     0.0023323615   0.0025566472   20.217656      18.759807      1.4578481     -1.8151449      17461.868    
    941000   1.0392199      0.0023323615  -0.00044106291  20.301224      18.757982      1.5432416     -1.8060852      17071.24     
    942000   1.0431582      0.0023323615  -3.6158366e-05  20.056178      18.507088      1.54909       -1.8869964      17296.144    
    943000   0.89978224     0.0023323615  -0.002738871    20.095974      18.759797      1.3361766     -1.8456921      17674.051    
    944000   1.1250751      0.0023323615  -0.0014915858   20.343348      18.672612      1.6707366     -1.8532549      17874.106    
    945000   1.0167271      0.0023323615   0.003241134    20.239452      18.729613      1.5098397     -1.8075152      17718.129    
    946000   0.87745012     0.0023323615  -0.0006053325   19.926366      18.623353      1.3030134     -1.8841174      17818.18     
    947000   1.0143342      0.0023323615   0.0028932384   19.910573      18.404287      1.5062864     -1.979226       17751.345    
    948000   1.0008092      0.0023323615   0.0032358075   20.286637      18.800436      1.4862016     -1.767501       17595.251    
    949000   1.0015293      0.0023323615   0.00049595376  20.111019      18.623748      1.4872709     -1.9698621      17556.712    
    950000   1.0527085      0.0023323615  -0.0032007311   20.035146      18.471874      1.5632722     -2.0127251      17719.985    
    951000   0.92219112     0.0023323615   0.0020105612   20.234124      18.86467       1.3694538     -1.6867235      17717.974    
    952000   1.0234094      0.0023323615   0.0015840963   19.970861      18.451098      1.519763      -1.9913075      17782.984    
    953000   0.95691659     0.0023323615   0.0020506527   20.327418      18.906397      1.4210211     -1.5744981      17775.671    
    954000   1.0440771      0.0023323615  -0.0010334629   20.276292      18.725837      1.5504546     -1.7439813      17655.781    
    955000   1.159581       0.0023323615  -0.0016201329   20.400897      18.678919      1.7219777     -1.9094451      17522.174    
    956000   1.0187637      0.0023323615   0.001884811    20.210278      18.697414      1.5128641     -1.7773157      17577.288    
    957000   1.0799479      0.0023323615   0.0010069499   20.472497      18.868775      1.6037226     -1.6645633      17708.438    
    958000   1.0585617      0.0023323615   0.002878234    20.240628      18.668664      1.5719641     -1.7528398      17073.281    
    959000   0.96718073     0.0023323615  -0.0011462202   20.071701      18.635438      1.4362634     -1.9018322      16770.536    
    960000   1.0846961      0.0023323615  -0.0022071159   20.430215      18.819441      1.6107737     -1.7599265      16830.482    
    961000   1.0155899      0.0023323615  -0.0016037391   20.095313      18.587162      1.508151      -1.8675969      16917.221    
    962000   0.96586126     0.0023323615  -0.002270519    19.857165      18.422861      1.434304      -1.9964572      16929.593    
    963000   0.94318349     0.0023323615  -0.00026172639  20.118784      18.718157      1.4006275     -1.7427927      16883.805    
    964000   0.83015619     0.0023323615  -0.0012974284   20.068418      18.835636      1.2327819     -1.7105445      16802.113    
    965000   0.87249553     0.0023323615  -0.0020141933   20.208988      18.913332      1.2956559     -1.6789754      16750.076    
    966000   1.0725633      0.0023323615  -0.00069299354  20.204006      18.61125       1.5927565     -1.8357231      16751.369    
    967000   1.0714543      0.0023323615   0.00075853701  20.311089      18.71998       1.5911097     -1.7533014      16876.035    
    968000   0.92407484     0.0023323615  -0.0022267398   20.035953      18.663701      1.3722511     -1.7515873      16927.908    
    969000   1.0581205      0.0023323615   0.00099481011  20.620323      19.049014      1.5713089     -1.4953633      17333.931    
    970000   0.96604399     0.0023323615  -0.0024944501   20.287055      18.85248       1.4345753     -1.7338002      17777.267    
    971000   1.050261       0.0023323615  -0.0016464187   19.989061      18.429423      1.5596376     -2.0561479      17506.746    
    972000   0.98925295     0.0023323615   0.00064076296  19.791278      18.322237      1.4690406     -2.1107365      16859.638    
    973000   1.1060835      0.0023323615  -0.0023545751   19.986357      18.343823      1.642534      -2.116802       16974.058    
    974000   0.9509295      0.0023323615   0.0017131605   19.915996      18.503866      1.4121303     -2.0193739      16763.945    
    975000   1.1504578      0.0023323615   0.0027921736   20.374496      18.666066      1.7084298     -1.7858688      16817.346    
    976000   0.92400854     0.0023323615  -0.0026267501   19.881483      18.509331      1.3721527     -1.8989513      16966.599    
    977000   1.0667955      0.0023323615   0.0025383581   20.148041      18.56385       1.5841913     -2.0417947      17087.832    
    978000   1.0977653      0.0023323615  -0.0053641212   20.429007      18.798826      1.6301815     -1.8389892      17110.478    
    979000   1.087398       0.0023323615  -0.002903123    20.625148      19.010361      1.6147861     -1.5398336      17065.096    
    980000   0.90685846     0.0023323615   0.0034023566   19.911705      18.565021      1.3466848     -1.9147939      16811.041    
    981000   0.88660129     0.0023323615  -0.0042347558   19.931195      18.614592      1.3166029     -1.8542133      16935.149    
    982000   1.0525536      0.0023323615  -0.00063102284  20.332044      18.769002      1.5630421     -1.7763581      17283.185    
    983000   1.1297281      0.0023323615  -0.0022771576   20.109702      18.432055      1.6776463     -2.1194268      17777.036    
    984000   0.84993679     0.0023323615   0.001946092    19.885274      18.623117      1.2621561     -1.7607319      17581.1      
    985000   1.005081       0.0023323615  -0.00060327993  20.054399      18.561853      1.4925453     -1.8334168      17239.072    
    986000   1.071344       0.0023323615  -0.0026917748   20.25384       18.662894      1.5909459     -1.8299001      17474.041    
    987000   0.9166888      0.0023323615  -0.0017100452   19.894307      18.533024      1.3612829     -1.947738       17635.872    
    988000   1.0694498      0.0023323615  -0.0033162408   20.344903      18.75677       1.588133      -1.817223       18140.988    
    989000   0.92728132     0.0023323615  -0.0042469304   20.261252      18.884239      1.3770128     -1.5170128      18240.255    
    990000   1.0012981      0.0023323615  -0.0016738102   20.367063      18.880135      1.4869276     -1.6808469      18153.539    
    991000   0.90288309     0.0023323615   0.00024224729  20.004111      18.66333       1.3407814     -1.8311802      17959.924    
    992000   0.87744042     0.0023323615   0.0024191144   20.032453      18.729453      1.302999      -1.8079153      17665.487    
    993000   1.0563467      0.0023323615   0.0030157355   20.134385      18.56571       1.5686748     -1.8718539      17754.878    
    994000   0.89574546     0.0023323615  -2.584502e-05   20.093733      18.763551      1.330182      -1.8305292      17657.758    
    995000   0.88657182     0.0023323615   0.0013752073   19.942161      18.625602      1.3165592     -1.9341915      17602.565    
    996000   1.0995513      0.0023323615  -0.0018303965   20.176426      18.543592      1.6328337     -1.9497806      17624.241    
    997000   0.93578467     0.0023323615  -0.00057619745  20.03929       18.64965       1.3896402     -1.9060553      17597.552    
    998000   0.95998088     0.0023323615   0.0034864594   20.046501      18.62093       1.4255716     -1.9360861      17623.572    
    999000   0.87073534     0.0023323615  -0.00065570651  20.031859      18.738817      1.293042      -1.688363       17559.631    
   1000000   0.99677846     0.0023323615  -0.00044464862  20.462562      18.982346      1.480216      -1.6686506      17742.699    
Loop time of 57.8633 on 1 procs for 1000000 steps with 100 atoms

Performance: 7465867.241 tau/day, 17282.100 timesteps/s
99.1% CPU use with 1 MPI tasks x 1 OpenMP threads

MPI task timing breakdown:
Section |  min time  |  avg time  |  max time  |%varavg| %total
---------------------------------------------------------------
Pair    | 47.792     | 47.792     | 47.792     |   0.0 | 82.59
Bond    | 1.3272     | 1.3272     | 1.3272     |   0.0 |  2.29
Neigh   | 4.4328     | 4.4328     | 4.4328     |   0.0 |  7.66
Comm    | 1.5186     | 1.5186     | 1.5186     |   0.0 |  2.62
Output  | 0.32293    | 0.32293    | 0.32293    |   0.0 |  0.56
Modify  | 2.0815     | 2.0815     | 2.0815     |   0.0 |  3.60
Other   |            | 0.3887     |            |       |  0.67

Nlocal:            100 ave         100 max         100 min
Histogram: 1 0 0 0 0 0 0 0 0 0
Nghost:            350 ave         350 max         350 min
Histogram: 1 0 0 0 0 0 0 0 0 0
Neighs:           4851 ave        4851 max        4851 min
Histogram: 1 0 0 0 0 0 0 0 0 0

Total # of neighbors = 4851
Ave neighs/atom = 48.51
Ave special neighs/atom = 1.98
Neighbor list builds = 97778
Dangerous builds = 79210

write_data      ${outputfile_assembled} nofix nocoeff
write_data      7_assembled.data nofix nocoeff
System init for write_data ...
Generated 0 of 6 mixed pair_coeff terms from geometric mixing rule

Total wall time: 0:00:59
