LAMMPS (23 Jun 2022 - Update 1)
OMP_NUM_THREADS environment is not set. Defaulting to 1 thread. (src/comm.cpp:98)
  using 1 OpenMP thread(s) per MPI task


variable        runtime equal 1000000
variable		subsample_rate equal 1000

variable		outputfile_created string '3_created.data'
variable		outputfile_relaxed string '5_relaxed.data'
variable		outputfile_selfasb string '6_a_self_assemble.lammpstrj'
variable		outputfile_trajlin string '6_b_trajlin.data'
variable		outputfile_assembled string '7_assembled.data'

units           lj
atom_style      full
dimension       3
boundary        p p p
timestep        0.005

read_data       ${outputfile_created}
read_data       3_created.data
Reading data file ...
  orthogonal box = (0 0 0) to (35 35 35)
  1 by 1 by 1 MPI processor grid
  reading atoms ...
  100 atoms
  reading velocities ...
  100 velocities
  scanning bonds ...
  1 = max bonds/atom
  reading bonds ...
  99 bonds
Finding 1-2 1-3 1-4 neighbors ...
  special bond factors lj:    0        0        0       
  special bond factors coul:  0        0        0       
     2 = max # of 1-2 neighbors
     2 = max # of 1-3 neighbors
     4 = max # of 1-4 neighbors
     6 = max # of special neighbors
  special bonds CPU = 0.000 seconds
  read_data CPU = 0.022 seconds

bond_style      fene
bond_coeff      * 30.0 1.5 1.0 1.0
special_bonds   fene
Finding 1-2 1-3 1-4 neighbors ...
  special bond factors lj:    0        1        1       
  special bond factors coul:  0        1        1       
     2 = max # of 1-2 neighbors
     6 = max # of special neighbors
  special bonds CPU = 0.000 seconds

variable        Temp equal 1.0
variable        velSeed equal 926458

velocity        all create ${Temp} ${velSeed}
velocity        all create 1 ${velSeed}
velocity        all create 1 926458

### Output
thermo_style    custom step temp density press etotal pe ke epair spcpu
thermo          1000

###########################################################################
# Soft relaxation (to remove overlaps of particles)
######################################################################

pair_style      soft 1.0
pair_coeff      * * 0.0
variable        prefactor equal ramp(0,300)
fix             rampSoft all adapt 1 pair soft a * * v_prefactor

minimize        0.0 1.0e-8 1000 100000
WARNING: Using 'neigh_modify every 1 delay 0 check yes' setting during minimization (src/min.cpp:187)
Generated 0 of 6 mixed pair_coeff terms from geometric mixing rule
Neighbor list info ...
  update every 1 steps, delay 0 steps, check yes
  max neighbors/atom: 2000, page size: 100000
  master list distance cutoff = 1.3
  ghost atom cutoff = 1.3
  binsize = 0.65, bins = 54 54 54
  1 neighbor lists, perpetual/occasional/extra = 1 0 0
  (1) pair soft, perpetual
      attributes: half, newton on
      pair build: half/bin/newton
      stencil: half/bin/3d
      bin: standard
WARNING: Communication cutoff 1.3 is shorter than a bond length based estimate of 1.7550000000000001. This may lead to errors. (src/comm.cpp:727)
Per MPI rank memory allocation (min/avg/max) = 8.346 | 8.346 | 8.346 Mbytes
   Step          Temp         Density         Press          TotEng         PotEng         KinEng         E_pair         S/CPU     
         0   1              0.0023323615  -0.0039617958   21.524174      20.039174      1.485          0              0            
       362   1              0.0023323615   0.0023090379   21.485548      20.000548      1.485          0              65450.505    
Loop time of 0.00553305 on 1 procs for 362 steps with 100 atoms

94.7% CPU use with 1 MPI tasks x 1 OpenMP threads

Minimization stats:
  Stopping criterion = force tolerance
  Energy initial, next-to-last, final = 
      20.0391741078675   20.0005480767337   20.0005480767337
  Force two-norm initial, final = 11.878422 7.9509778e-09
  Force max component initial, final = 6.6117807 1.3572772e-09
  Final line search alpha, max atom move = 1 1.3572772e-09
  Iterations, force evaluations = 362 738

MPI task timing breakdown:
Section |  min time  |  avg time  |  max time  |%varavg| %total
---------------------------------------------------------------
Pair    | 0.00022941 | 0.00022941 | 0.00022941 |   0.0 |  4.15
Bond    | 0.0023397  | 0.0023397  | 0.0023397  |   0.0 | 42.29
Neigh   | 0.0017687  | 0.0017687  | 0.0017687  |   0.0 | 31.97
Comm    | 0.00019219 | 0.00019219 | 0.00019219 |   0.0 |  3.47
Output  | 0          | 0          | 0          |   0.0 |  0.00
Modify  | 0          | 0          | 0          |   0.0 |  0.00
Other   |            | 0.001003   |            |       | 18.13

Nlocal:            100 ave         100 max         100 min
Histogram: 1 0 0 0 0 0 0 0 0 0
Nghost:             20 ave          20 max          20 min
Histogram: 1 0 0 0 0 0 0 0 0 0
Neighs:              0 ave           0 max           0 min
Histogram: 1 0 0 0 0 0 0 0 0 0

Total # of neighbors = 0
Ave neighs/atom = 0
Ave special neighs/atom = 1.98
Neighbor list builds = 17
Dangerous builds = 0

fix             nvtSoft all nvt temp ${Temp} ${Temp} 0.5
fix             nvtSoft all nvt temp 1 ${Temp} 0.5
fix             nvtSoft all nvt temp 1 1 0.5
run             100000
Generated 0 of 6 mixed pair_coeff terms from geometric mixing rule
WARNING: Communication cutoff 1.3 is shorter than a bond length based estimate of 1.7550000000000001. This may lead to errors. (src/comm.cpp:727)
Per MPI rank memory allocation (min/avg/max) = 7.221 | 7.221 | 7.221 Mbytes
   Step          Temp         Density         Press          TotEng         PotEng         KinEng         E_pair         S/CPU     
       362   1              0.0023323615   0.0023090379   21.485548      20.000548      1.485          0              0            
      1000   0.90989032     0.0023323615  -0.0021940042   21.776974      20.425787      1.3511871      0.00036425437  76283.798    
      2000   0.86546688     0.0023323615   0.0034714157   21.677128      20.39191       1.2852183      0.0025814786   76734.97     
      3000   0.98199538     0.0023323615   0.0028144228   21.866132      20.407869      1.4582631      0.0011756043   73360.359    
      4000   1.004495       0.0023323615  -0.0014058211   21.945624      20.453949      1.4916751      0.011986179    73163.551    
      5000   1.1222705      0.0023323615   0.0044495116   21.986385      20.319813      1.6665718      0.0050317639   73658.987    
      6000   1.0538243      0.0023323615   0.0023957538   21.985713      20.420784      1.564929       0.012100514    74319.267    
      7000   1.0210598      0.0023323615  -0.00038820026  21.904665      20.388391      1.5162738      0              76054.32     
      8000   0.94819751     0.0023323615   0.0024943091   21.747889      20.339816      1.4080733      0              74670.096    
      9000   0.92364502     0.0023323615   0.0020053029   21.724166      20.352554      1.3716129      1.7780894e-05  75098.698    
     10000   0.86685188     0.0023323615   0.00078277366  21.644879      20.357604      1.287275       0.0098636418   75307.386    
     11000   1.0057103      0.0023323615   0.00010113276  21.8558        20.362321      1.4934798      0.020705341    75060.469    
     12000   0.97901664     0.0023323615  -0.0026996968   21.871206      20.417366      1.4538397      0.0052928539   75086.665    
     13000   0.97718436     0.0023323615  -6.1641422e-06  21.963706      20.512587      1.4511188      0.025022446    74805.97     
     14000   1.0530014      0.0023323615  -0.0009993112   21.947994      20.384287      1.5637071      0.0020860456   73752.111    
     15000   0.99094527     0.0023323615   0.0011068478   21.895146      20.423592      1.4715537      0.0015091113   74574.135    
     16000   0.91285091     0.0023323615  -0.00025424173  21.87524       20.519657      1.3555836      0.0047853639   74497.274    
     17000   0.82806978     0.0023323615  -0.00054698156  21.701984      20.472301      1.2296836      0              74336.924    
     18000   1.043278       0.0023323615  -6.6143919e-05  22.003299      20.454031      1.5492679      0.0034319132   75772.914    
     19000   1.0879249      0.0023323615  -0.0017804642   21.998985      20.383416      1.6155685      0.015376175    73153.789    
     20000   1.1144506      0.0023323615   0.0025198298   22.190904      20.535944      1.6549592      0              75087.967    
     21000   1.0427751      0.0023323615   0.0011345349   22.099492      20.550971      1.548521       0.00040047813  75275.522    
     22000   1.0586695      0.0023323615   0.0017882747   22.05673       20.484606      1.5721242      0              74920.964    
     23000   1.0058426      0.0023323615  -0.0055245362   21.954628      20.460951      1.4936763      0.0027619031   74236.41     
     24000   0.98273442     0.0023323615   0.0015147357   21.862067      20.402707      1.4593606      0              74629.734    
     25000   0.95835343     0.0023323615   0.0017808774   21.937761      20.514606      1.4231548      0.00020839942  74627.217    
     26000   0.93993778     0.0023323615  -0.0021777292   21.884849      20.489042      1.3958076      0.0088889834   74811.858    
     27000   0.9308188      0.0023323615  -0.00011239942  21.842252      20.459986      1.3822659      0.021612409    73861.315    
     28000   1.0149581      0.0023323615   0.0041996387   21.906846      20.399633      1.5072129      0.0064059022   74499.272    
     29000   0.92841138     0.0023323615  -2.5398808e-05  21.987185      20.608494      1.3786909      0.0046112484   74736.796    
     30000   1.021043       0.0023323615   0.001589158    22.097958      20.581709      1.5162489      0.016799508    72345.614    
     31000   1.0465985      0.0023323615  -0.0021744286   22.037917      20.483718      1.5541987      0.0057879149   74782.156    
     32000   0.98907108     0.0023323615  -0.0015558606   22.044089      20.575318      1.4687705      0.009448173    74303.275    
     33000   1.0918536      0.0023323615  -0.0025643847   22.039275      20.417873      1.6214025      0              73707.942    
     34000   0.99801543     0.0023323615   0.0016279766   21.932339      20.450286      1.4820529      0.017384617    76059.422    
     35000   1.0352271      0.0023323615  -0.0052971711   22.076004      20.538692      1.5373122      0.00010473809  74380.964    
     36000   1.1141579      0.0023323615  -0.00093279925  22.222491      20.567966      1.6545245      0.00033678641  75405.978    
     37000   1.0369415      0.0023323615   0.00013065175  22.217841      20.677983      1.5398581      0.013788831    74861.293    
     38000   1.0515596      0.0023323615   0.0021717558   22.070766      20.5092        1.561566       0.0067894678   75205.584    
     39000   1.0238495      0.0023323615   0.00026414509  22.040141      20.519725      1.5204165      0.00044464649  74339.029    
     40000   1.0749111      0.0023323615  -0.0026849368   22.039327      20.443084      1.596243       0.012651334    72950.459    
     41000   0.99070886     0.0023323615  -0.0030385564   22.03241       20.561207      1.4712027      0.00092855646  76018.469    
     42000   0.95315224     0.0023323615   0.0019788197   21.965263      20.549832      1.4154311      0.020233689    74436.99     
     43000   1.0644183      0.0023323615  -0.0011168725   22.287172      20.706511      1.5806611      0.039694129    74432.275    
     44000   1.0253747      0.0023323615  -0.006676522    22.066233      20.543552      1.5226814      0              73502.708    
     45000   0.94179556     0.0023323615  -0.0047206018   21.970644      20.572077      1.3985664      0.019869988    73356.479    
     46000   1.0083495      0.0023323615  -0.0017646918   21.972114      20.474715      1.497399       0.00026040605  74266.518    
     47000   0.98767959     0.0023323615  -0.00080218158  22.091674      20.62497       1.4667042      0.024266258    73859.837    
     48000   1.1473449      0.0023323615  -0.0025885687   22.080512      20.376705      1.7038072      0.00065962995  74284.094    
     49000   1.0679312      0.0023323615   0.0017688272   21.970482      20.384604      1.5858779      0.014142422    75470.291    
     50000   0.9581935      0.0023323615   0.0014398836   21.955202      20.532284      1.4229173      0.0055011948   75056.683    
     51000   1.0215759      0.0023323615  -0.00093292688  21.934681      20.41764       1.5170402      0              74735.79     
     52000   0.98079591     0.0023323615   0.0040701936   21.977374      20.520892      1.4564819      0.0020862422   75804.735    
     53000   1.0090927      0.0023323615   0.0013324753   22.095438      20.596935      1.4985027      0              74863.092    
     54000   0.97519627     0.0023323615   0.0013260734   22.070151      20.621984      1.4481665      0.026885444    75167.98     
     55000   1.1805087      0.0023323615  -0.001586238    22.424088      20.671033      1.7530554      0.024690954    75238.753    
     56000   0.98387121     0.0023323615   0.0037155145   22.104425      20.643376      1.4610487      0.01435493     75022.441    
     57000   1.0723812      0.0023323615  -0.0037916262   22.122726      20.53024       1.592486       0.013635549    75289.832    
     58000   1.0152349      0.0023323615   0.00021908047  22.082827      20.575203      1.5076238      0.00077375639  74957.759    
     59000   1.1424502      0.0023323615  -0.0052108657   22.30072       20.604182      1.6965385      0.013308184    75913.244    
     60000   1.0359703      0.0023323615  -0.00097887545  22.188218      20.649802      1.538416       0.00011346294  74267.456    
     61000   1.1646839      0.0023323615  -0.002085017    22.239945      20.51039       1.7295556      0.012918477    76601.991    
     62000   1.101836       0.0023323615   0.0010338878   22.171386      20.53516       1.6362265      0.001396566    75183.838    
     63000   0.96616435     0.0023323615   0.00097550571  21.903821      20.469067      1.4347541      0.013027663    76454.131    
     64000   1.0068907      0.0023323615  -0.0020278726   22.061652      20.566419      1.4952327      0.013750276    74982.091    
     65000   0.98723233     0.0023323615   0.0022441476   22.031073      20.565033      1.46604        0.0066686189   75392.533    
     66000   1.0273881      0.0023323615  -0.0003515278   22.183579      20.657908      1.5256713      0              73959.393    
     67000   0.96528212     0.0023323615  -0.00014822656  21.9396        20.506156      1.4334439      0.010365557    75464.072    
     68000   1.069702       0.0023323615   9.4754668e-05  22.081119      20.492611      1.5885075      0.00049153926  72982.728    
     69000   1.1229502      0.0023323615   0.0011504079   22.200329      20.532748      1.6675811      0.0068454249   75601.03     
     70000   1.0062775      0.0023323615  -0.00085311964  22.094021      20.599699      1.4943221      0.013222355    74314.672    
     71000   1.0906935      0.0023323615   0.00015260357  22.145362      20.525682      1.6196798      0.018338513    75088.08     
     72000   1.010401       0.0023323615  -6.0487182e-06  22.154105      20.653659      1.5004455      0.0013793953   73787.004    
     73000   1.1177599      0.0023323615  -0.0034084797   22.254435      20.594562      1.6598735      0.00011231735  76444.937    
     74000   0.9768019      0.0023323615   0.00016143893  22.07312       20.622569      1.4505508      0.0084515956   74534.432    
     75000   1.1360996      0.0023323615   0.002159116    22.161595      20.474487      1.6871079      0.0089909162   75310.454    
     76000   0.97379329     0.0023323615  -0.00068458621  21.988928      20.542845      1.446083       0              74463.978    
     77000   0.94876793     0.0023323615  -0.0016073976   21.923496      20.514575      1.4089204      0.017745108    74298.08     
     78000   0.83947996     0.0023323615  -0.00062768559  21.726727      20.480099      1.2466277      0.0054510099   75216.926    
     79000   1.0090614      0.0023323615  -0.00080262643  22.068192      20.569736      1.4984562      0.00023011166  75715.089    
     80000   1.1217643      0.0023323615  -0.0038177864   22.367902      20.702082      1.66582        0.032902439    74802.887    
     81000   1.0240158      0.0023323615   0.00023547123  22.031597      20.510933      1.5206635      0.0068767308   74401.147    
     82000   1.003236       0.0023323615  -0.0022802982   21.894199      20.404393      1.4898055      0.019136282    73416.749    
     83000   1.0554159      0.0023323615   0.004011718    22.104562      20.537269      1.5672927      0.0080869707   73285.651    
     84000   0.83527346     0.0023323615  -0.0034122221   21.874648      20.634267      1.2403811      0.0030083664   74434.658    
     85000   1.036002       0.0023323615   0.0013573923   21.962923      20.42446       1.5384629      0.015709144    74957.99     
     86000   0.9432002      0.0023323615  -0.0032183248   21.913588      20.512936      1.4006523      0.013730309    75021.709    
     87000   0.95566008     0.0023323615  -0.00049614223  21.91653       20.497375      1.4191552      0.0035862035   74075.095    
     88000   0.93373351     0.0023323615  -0.00097093893  21.870485      20.483891      1.3865943      0.0018212145   72951.31     
     89000   0.9684944      0.0023323615  -0.00047342045  21.973429      20.535215      1.4382142      0.00087524744  74153.682    
     90000   0.98293324     0.0023323615  -0.0032204602   22.050919      20.591263      1.4596559      0.015353933    75402.675    
     91000   1.0832827      0.0023323615   0.0048517083   22.11977       20.511095      1.6086749      0.0052867789   76287.304    
     92000   0.85899662     0.0023323615  -0.0013049519   21.765697      20.490087      1.27561        0.0024124001   75145.741    
     93000   0.96176266     0.0023323615  -4.4223672e-05  21.874222      20.446004      1.4282176      0.0045653365   75842.583    
     94000   0.96019503     0.0023323615   0.00024459347  21.944954      20.519064      1.4258896      3.8053462e-05  75418.512    
     95000   0.94702149     0.0023323615  -0.0033658915   21.86315       20.456823      1.4063269      0              76159.589    
     96000   0.91119348     0.0023323615  -0.0013197298   21.825018      20.471896      1.3531223      0.00043282989  74570.682    
     97000   1.0016687      0.0023323615  -0.0019514304   22.013024      20.525546      1.487478       0.0048369955   74191.329    
     98000   1.02143        0.0023323615  -0.0057874974   22.177965      20.661142      1.5168235      0              73024.858    
     99000   1.032786       0.0023323615   0.0018228259   21.975336      20.441649      1.5336871      7.1595851e-05  76316.234    
    100000   1.0594928      0.0023323615   0.0036169719   22.011024      20.437677      1.5733468      0.00032948157  74114.48     
    100362   1.1904942      0.0023323615  -0.00089755607  22.316856      20.548972      1.7678839      0.00063845255  73993.192    
Loop time of 1.33824 on 1 procs for 100000 steps with 100 atoms

Performance: 32281094.059 tau/day, 74724.755 timesteps/s
99.3% CPU use with 1 MPI tasks x 1 OpenMP threads

MPI task timing breakdown:
Section |  min time  |  avg time  |  max time  |%varavg| %total
---------------------------------------------------------------
Pair    | 0.058857   | 0.058857   | 0.058857   |   0.0 |  4.40
Bond    | 0.14036    | 0.14036    | 0.14036    |   0.0 | 10.49
Neigh   | 0.80413    | 0.80413    | 0.80413    |   0.0 | 60.09
Comm    | 0.056512   | 0.056512   | 0.056512   |   0.0 |  4.22
Output  | 0.0010559  | 0.0010559  | 0.0010559  |   0.0 |  0.08
Modify  | 0.24419    | 0.24419    | 0.24419    |   0.0 | 18.25
Other   |            | 0.03313    |            |       |  2.48

Nlocal:            100 ave         100 max         100 min
Histogram: 1 0 0 0 0 0 0 0 0 0
Nghost:             60 ave          60 max          60 min
Histogram: 1 0 0 0 0 0 0 0 0 0
Neighs:             36 ave          36 max          36 min
Histogram: 1 0 0 0 0 0 0 0 0 0

Total # of neighbors = 36
Ave neighs/atom = 0.36
Ave special neighs/atom = 1.98
Neighbor list builds = 9821
Dangerous builds = 8265
unfix           nvtSoft
unfix           rampSoft
reset_timestep  0

write_data      ${outputfile_relaxed}
write_data      5_relaxed.data
System init for write_data ...
Generated 0 of 6 mixed pair_coeff terms from geometric mixing rule
WARNING: Communication cutoff 1.3 is shorter than a bond length based estimate of 1.7550000000000001. This may lead to errors. (src/comm.cpp:727)
WARNING: Not all mixed pair coeffs generated from mixing. Use write_data with 'pair ij' option to store all pair coeffs. (src/write_data.cpp:309)

###########################################################################
# Full LJ with Coulomb
######################################################################

# Cutoffs and parameters:
# - Values: Marcel Verkade's Bachelor Thesis
# - Mapping to atom groups: Patrick Onck's paper
# - 1: aliphatic, 2: aromatic, 3: anion, 4: cation
# pair_style	lj/cut/coul/cut <lj_cut_global> <coul_cut_global>
# pair_coeff	<type_1>  <type_2>  <eps>  <sigma>  <r_cut_lj>  <r_cut_coul>

# Problem: Onck's model is much more complex, and Marcel has no sigma reported
# Using sigma=1 randomly

variable		glob_ljeps equal 1.0
variable		glob_ljsig 	equal 1.0
variable		glob_coulcut equal 10.0
variable		att_ljcut equal 2.50
variable		rep_ljcut equal 1.12

pair_style		lj/cut/coul/cut 						${att_ljcut} 	${glob_coulcut}
pair_style		lj/cut/coul/cut 						2.5 	${glob_coulcut}
pair_style		lj/cut/coul/cut 						2.5 	10
pair_coeff		1 1 	${glob_ljeps} 	${glob_ljsig}	${att_ljcut} 	${glob_coulcut}
pair_coeff		1 1 	1 	${glob_ljsig}	${att_ljcut} 	${glob_coulcut}
pair_coeff		1 1 	1 	1	${att_ljcut} 	${glob_coulcut}
pair_coeff		1 1 	1 	1	2.5 	${glob_coulcut}
pair_coeff		1 1 	1 	1	2.5 	10
pair_coeff		1 2 	${glob_ljeps} 	${glob_ljsig}	${att_ljcut} 	${glob_coulcut}
pair_coeff		1 2 	1 	${glob_ljsig}	${att_ljcut} 	${glob_coulcut}
pair_coeff		1 2 	1 	1	${att_ljcut} 	${glob_coulcut}
pair_coeff		1 2 	1 	1	2.5 	${glob_coulcut}
pair_coeff		1 2 	1 	1	2.5 	10
pair_coeff		1 3 	${glob_ljeps} 	${glob_ljsig}	${rep_ljcut} 	${glob_coulcut}
pair_coeff		1 3 	1 	${glob_ljsig}	${rep_ljcut} 	${glob_coulcut}
pair_coeff		1 3 	1 	1	${rep_ljcut} 	${glob_coulcut}
pair_coeff		1 3 	1 	1	1.12 	${glob_coulcut}
pair_coeff		1 3 	1 	1	1.12 	10
pair_coeff		1 4 	${glob_ljeps} 	${glob_ljsig}	${rep_ljcut} 	${glob_coulcut}
pair_coeff		1 4 	1 	${glob_ljsig}	${rep_ljcut} 	${glob_coulcut}
pair_coeff		1 4 	1 	1	${rep_ljcut} 	${glob_coulcut}
pair_coeff		1 4 	1 	1	1.12 	${glob_coulcut}
pair_coeff		1 4 	1 	1	1.12 	10
pair_coeff		2 2 	${glob_ljeps} 	${glob_ljsig}	${att_ljcut} 	${glob_coulcut}
pair_coeff		2 2 	1 	${glob_ljsig}	${att_ljcut} 	${glob_coulcut}
pair_coeff		2 2 	1 	1	${att_ljcut} 	${glob_coulcut}
pair_coeff		2 2 	1 	1	2.5 	${glob_coulcut}
pair_coeff		2 2 	1 	1	2.5 	10
pair_coeff		2 3 	${glob_ljeps} 	${glob_ljsig}	${rep_ljcut} 	${glob_coulcut}
pair_coeff		2 3 	1 	${glob_ljsig}	${rep_ljcut} 	${glob_coulcut}
pair_coeff		2 3 	1 	1	${rep_ljcut} 	${glob_coulcut}
pair_coeff		2 3 	1 	1	1.12 	${glob_coulcut}
pair_coeff		2 3 	1 	1	1.12 	10
pair_coeff		2 4 	${glob_ljeps} 	${glob_ljsig}	${att_ljcut} 	${glob_coulcut}
pair_coeff		2 4 	1 	${glob_ljsig}	${att_ljcut} 	${glob_coulcut}
pair_coeff		2 4 	1 	1	${att_ljcut} 	${glob_coulcut}
pair_coeff		2 4 	1 	1	2.5 	${glob_coulcut}
pair_coeff		2 4 	1 	1	2.5 	10
pair_coeff		3 3 	${glob_ljeps} 	${glob_ljsig}	${rep_ljcut} 	${glob_coulcut}
pair_coeff		3 3 	1 	${glob_ljsig}	${rep_ljcut} 	${glob_coulcut}
pair_coeff		3 3 	1 	1	${rep_ljcut} 	${glob_coulcut}
pair_coeff		3 3 	1 	1	1.12 	${glob_coulcut}
pair_coeff		3 3 	1 	1	1.12 	10
pair_coeff		3 4 	${glob_ljeps} 	${glob_ljsig}	${att_ljcut} 	${glob_coulcut}
pair_coeff		3 4 	1 	${glob_ljsig}	${att_ljcut} 	${glob_coulcut}
pair_coeff		3 4 	1 	1	${att_ljcut} 	${glob_coulcut}
pair_coeff		3 4 	1 	1	2.5 	${glob_coulcut}
pair_coeff		3 4 	1 	1	2.5 	10
pair_coeff		4 4 	${glob_ljeps} 	${glob_ljsig}	${rep_ljcut} 	${glob_coulcut}
pair_coeff		4 4 	1 	${glob_ljsig}	${rep_ljcut} 	${glob_coulcut}
pair_coeff		4 4 	1 	1	${rep_ljcut} 	${glob_coulcut}
pair_coeff		4 4 	1 	1	1.12 	${glob_coulcut}
pair_coeff		4 4 	1 	1	1.12 	10


fix             noDriftRot 	all momentum 10 linear 1 1 1 angular
fix             nvt1 		all nvt temp ${Temp} ${Temp} 0.5
fix             nvt1 		all nvt temp 1 ${Temp} 0.5
fix             nvt1 		all nvt temp 1 1 0.5

# dump          assemble 	all custom 1000 				${outputfile_selfasb} id type xu yu zu vx vy vz
dump            lindump 	all custom ${subsample_rate} 	${outputfile_trajlin} id type xu yu zu vx vy vz
dump            lindump 	all custom 1000 	${outputfile_trajlin} id type xu yu zu vx vy vz
dump            lindump 	all custom 1000 	6_b_trajlin.data id type xu yu zu vx vy vz

run             ${runtime}
run             1000000
Generated 0 of 6 mixed pair_coeff terms from geometric mixing rule
Neighbor list info ...
  update every 1 steps, delay 10 steps, check yes
  max neighbors/atom: 2000, page size: 100000
  master list distance cutoff = 10.3
  ghost atom cutoff = 10.3
  binsize = 5.15, bins = 7 7 7
  1 neighbor lists, perpetual/occasional/extra = 1 0 0
  (1) pair lj/cut/coul/cut, perpetual
      attributes: half, newton on
      pair build: half/bin/newton
      stencil: half/bin/3d
      bin: standard
Per MPI rank memory allocation (min/avg/max) = 7.712 | 7.712 | 7.712 Mbytes
   Step          Temp         Density         Press          TotEng         PotEng         KinEng         E_pair         S/CPU     
         0   1.1904942      0.0023323615  -0.0013890612   21.895478      20.127594      1.7678839     -0.42074024     0            
      1000   0.91549166     0.0023323615  -0.0021266863   21.255067      19.895562      1.3595051     -0.60429634     33086.642    
      2000   0.95516927     0.0023323615   0.00089883735  20.970704      19.552277      1.4184264     -0.82432099     31353.669    
      3000   0.99538473     0.0023323615  -0.00090871444  20.975389      19.497243      1.4781463     -0.93165689     27597.646    
      4000   0.90867029     0.0023323615   0.0021880317   20.81256       19.463184      1.3493754     -0.99675086     21591.189    
      5000   0.96946022     0.0023323615  -0.0011458396   21.171652      19.732004      1.4396484     -0.81752538     19244.939    
      6000   0.96757279     0.0023323615   0.0012866918   20.854955      19.41811       1.4368456     -0.93335584     19877.404    
      7000   0.87205191     0.0023323615  -0.0025741266   20.825071      19.530074      1.2949971     -0.9404523      20574.603    
      8000   0.89905487     0.0023323615  -0.0021304598   20.963723      19.628626      1.3350965     -0.87588756     20364.122    
      9000   1.0363965      0.0023323615   0.0021734624   21.384068      19.84502       1.5390487     -0.75786362     20532.25     
     10000   1.0379186      0.0023323615  -0.0024861117   21.024924      19.483615      1.5413092     -0.96827914     19348.56     
     11000   0.88138414     0.0023323615   0.0014486977   20.786183      19.477328      1.3088554     -1.0254142      18616.696    
     12000   1.033785       0.0023323615   0.00013626477  21.157911      19.62274       1.5351707     -0.93072205     18693.85     
     13000   0.96106472     0.0023323615  -0.00085811852  21.125976      19.698795      1.4271811     -0.80657424     18823.43     
     14000   0.87709584     0.0023323615   0.0033084305   20.531993      19.229506      1.3024873     -1.1172707      18527.519    
     15000   1.0007269      0.0023323615   0.0055580979   20.730369      19.24429       1.4860795     -1.2570272      18442.783    
     16000   1.0000402      0.0023323615   0.0029221139   20.824227      19.339168      1.4850597     -1.0944602      18485.15     
     17000   0.94907753     0.0023323615   0.0014712872   20.776282      19.366901      1.4093801     -1.2046114      18422.723    
     18000   0.87447577     0.0023323615  -6.1092776e-05  20.742599      19.444003      1.2985965     -1.0127126      18444.797    
     19000   0.88849241     0.0023323615   0.00099115558  20.939719      19.620308      1.3194112     -0.9199012      18606.254    
     20000   1.1920512      0.0023323615  -0.00060988356  21.249998      19.479801      1.7701961     -0.93986369     18706.922    
     21000   1.0172008      0.0023323615  -0.0043791244   21.069936      19.559393      1.5105433     -0.97185459     19235.585    
     22000   1.0574987      0.0023323615  -0.00012934059  21.093065      19.522679      1.5703856     -0.84968955     19771.875    
     23000   0.95557535     0.0023323615  -0.0025542901   20.882289      19.463259      1.4190294     -1.1204038      18941.471    
     24000   0.96069174     0.0023323615  -0.0030642651   20.836386      19.409759      1.4266272     -1.0892294      18726.018    
     25000   1.0983556      0.0023323615  -0.00061290369  20.91989       19.288832      1.631058      -1.2470157      18318.077    
     26000   1.0616248      0.0023323615  -0.00024177102  20.83178       19.255267      1.5765128     -1.2809074      18182.531    
     27000   0.88084802     0.0023323615  -0.0018596829   20.837353      19.529294      1.3080593     -1.0255531      18240.737    
     28000   1.0488942      0.0023323615   0.00081986408  21.375914      19.818306      1.5576078     -0.72661211     18652.847    
     29000   1.2115732      0.0023323615  -0.00015466043  21.385744      19.586557      1.7991862     -0.89913941     18786.502    
     30000   1.0363001      0.0023323615  -0.00034562875  20.821173      19.282268      1.5389056     -1.132018       18452.988    
     31000   0.93165584     0.0023323615   0.0031875328   20.95383       19.570321      1.3835089     -1.0626109      18383.516    
     32000   0.93664456     0.0023323615  -0.00094814571  20.631794      19.240876      1.3909172     -1.2183903      18328.482    
     33000   1.0081132      0.0023323615  -0.0022348897   20.788521      19.291473      1.4970482     -1.2060029      18270.999    
     34000   0.95211181     0.0023323615  -0.0054681237   20.96227       19.548384      1.413886      -1.0096781      18396.5      
     35000   0.9219654      0.0023323615  -0.0028419423   20.67407       19.304952      1.3691186     -1.21452        18551.748    
     36000   1.0171059      0.0023323615  -0.00094431614  20.647801      19.137399      1.5104022     -1.3828105      18246.4      
     37000   0.98592026     0.0023323615   0.0013876556   20.677776      19.213684      1.4640916     -1.2867448      18262.15     
     38000   0.92591585     0.0023323615   0.00089049358  20.58857       19.213585      1.374985      -1.3216435      18268.718    
     39000   0.9945628      0.0023323615  -0.002154699    20.809803      19.332877      1.4769258     -1.2817917      18206.869    
     40000   0.8964723      0.0023323615   0.0016040489   20.477867      19.146606      1.3312614     -1.4044133      18143.726    
     41000   0.9165952      0.0023323615  -0.0011188165   20.50387       19.142726      1.3611439     -1.3169231      18237.455    
     42000   1.0205932      0.0023323615   0.0029928179   20.738457      19.222876      1.5155809     -1.3348269      18268.778    
     43000   0.97650237     0.0023323615  -0.0035529626   20.761108      19.311002      1.450106      -1.1735407      18397.683    
     44000   1.1167493      0.0023323615   0.0030093295   20.94652       19.288147      1.6583728     -1.2303615      18333.72     
     45000   1.0119547      0.0023323615   0.00065963145  20.899627      19.396875      1.5027528     -1.0765306      18488.536    
     46000   1.0989798      0.0023323615   0.0045885237   21.172041      19.540055      1.6319851     -0.9701773      18604.766    
     47000   0.92616074     0.0023323615  -0.002305698    21.009468      19.634119      1.3753487     -0.95950587     18659.044    
     48000   0.90370107     0.0023323615  -0.0022087126   21.049759      19.707763      1.3419961     -1.0285049      18814.102    
     49000   0.8814595      0.0023323615   0.0010975013   21.031362      19.722395      1.3089674     -0.93271147     19047.136    
     50000   1.1463569      0.0023323615   0.0036954734   21.206687      19.504347      1.7023399     -0.9902023      18701.286    
     51000   1.0679214      0.0023323615  -0.002270685    21.146351      19.560487      1.5858632     -1.0048192      18421.288    
     52000   0.94344854     0.0023323615   0.0018566531   20.606074      19.205053      1.4010211     -1.2709593      18325.628    
     53000   0.86633425     0.0023323615   0.0033816414   20.621475      19.334968      1.2865064     -1.0799831      18270.668    
     54000   1.0316273      0.0023323615   0.00021040021  20.808483      19.276517      1.5319665     -1.2017679      18280.275    
     55000   0.92151583     0.0023323615  -0.0011406131   20.72247       19.354019      1.368451      -1.2484579      18254.135    
     56000   0.99475039     0.0023323615   0.0014460362   20.536933      19.059729      1.4772043     -1.4018576      18273.909    
     57000   1.0251214      0.0023323615   0.003000719    21.020927      19.498621      1.5223053     -1.0128611      18355.47     
     58000   0.92110483     0.0023323615   0.00075495166  21.015577      19.647736      1.3678407     -0.93627154     18587.332    
     59000   0.97148775     0.0023323615   0.0027271639   20.869786      19.427127      1.4426593     -1.1449577      18568.784    
     60000   1.082672       0.0023323615   0.00068279073  21.169229      19.561461      1.607768      -0.94892918     19062.155    
     61000   1.07804        0.0023323615  -0.0025982065   21.099402      19.498512      1.6008893     -1.0796223      19612.546    
     62000   1.1003074      0.0023323615   0.0011093569   21.211527      19.57757       1.6339565     -0.86016947     19428.146    
     63000   1.13573        0.0023323615   0.0013604636   21.276125      19.589566      1.686559      -0.86532465     19558.546    
     64000   1.1052229      0.0023323615   0.0011957591   21.348492      19.707236      1.641256      -0.77565812     19792.78     
     65000   0.97801814     0.0023323615  -0.0023157105   20.994033      19.541676      1.4523569     -1.0426463      19585.465    
     66000   0.9527275      0.0023323615   0.0072814609   21.062756      19.647956      1.4148003     -1.0026126      18618.825    
     67000   0.86418474     0.0023323615   0.00016012598  20.612071      19.328756      1.2833143     -1.179679       18399.671    
     68000   1.092643       0.0023323615   0.0022491048   21.089591      19.467016      1.6225748     -0.93185653     18455.663    
     69000   0.88701021     0.0023323615   0.0047552436   20.791777      19.474567      1.3172102     -1.0586189      19382.97     
     70000   1.0055122      0.0023323615   0.0036697176   21.083768      19.590583      1.4931856     -0.93553768     20382.94     
     71000   1.1184806      0.0023323615   0.0006671908   21.372591      19.711647      1.6609437     -0.71515491     21856.467    
     72000   1.030442       0.0023323615   0.0034691663   21.302644      19.772438      1.5302064     -0.71672625     22989.356    
     73000   0.96132258     0.0023323615   0.0030884209   21.080936      19.653372      1.427564      -0.85089976     23156.53     
     74000   1.0548621      0.0023323615   0.0048895433   21.368057      19.801586      1.5664703     -0.7098029      22575.277    
     75000   1.0199769      0.0023323615   0.0012804269   21.100835      19.58617       1.5146657     -0.98398592     20713.634    
     76000   0.9974757      0.0023323615  -0.0012323748   20.992608      19.511356      1.4812514     -0.92183609     18734.323    
     77000   0.94761377     0.0023323615  -0.00097388152  20.874489      19.467283      1.4072065     -1.0964595      18376.192    
     78000   1.0779175      0.0023323615  -0.0025967225   20.714988      19.114281      1.6007075     -1.2390306      18331.346    
     79000   1.0272641      0.0023323615  -0.00076271847  21.369338      19.843851      1.5254872     -0.7078489      18569.281    
     80000   1.0905237      0.0023323615  -0.0021141587   21.140647      19.521219      1.6194277     -0.97049079     18557.087    
     81000   1.0840972      0.0023323615  -0.0036868734   21.259409      19.649524      1.6098844     -0.854395       18781.695    
     82000   0.90652648     0.0023323615  -0.0013188208   20.804135      19.457943      1.3461918     -0.94177648     18784.063    
     83000   0.97245906     0.0023323615   0.0018290196   21.064811      19.62071       1.4441017     -0.88103059     18653.482    
     84000   1.1467005      0.0023323615   0.00047298096  21.038735      19.335885      1.7028502     -1.1545037      18458.776    
     85000   1.1612574      0.0023323615   0.00066853061  21.251938      19.527471      1.7244672     -1.0255169      18397.31     
     86000   0.98659959     0.0023323615   0.00032016409  20.806405      19.341305      1.4651004     -1.0601389      18414.491    
     87000   1.0671787      0.0023323615   0.0044307751   20.781403      19.196642      1.5847603     -1.2844403      18214.122    
     88000   0.9675822      0.0023323615  -0.0041499368   20.984792      19.547933      1.4368596     -1.0310685      18227.563    
     89000   0.99422259     0.0023323615   0.00172437     20.872809      19.396389      1.4764205     -1.0500667      18292.731    
     90000   1.0932703      0.0023323615   0.00084827899  21.134288      19.510781      1.6235065     -1.0388833      18409.325    
     91000   1.1015621      0.0023323615   0.00094811476  21.196741      19.560922      1.6358197     -1.0001641      18510.422    
     92000   0.94183766     0.0023323615   0.00031212178  20.83182       19.433191      1.3986289     -1.0893753      18268.237    
     93000   1.081996       0.0023323615   0.002639513    20.882455      19.275691      1.606764      -1.1697928      18251.247    
     94000   0.97702635     0.0023323615  -0.0031936461   21.025012      19.574128      1.4508841     -0.99911017     18537.123    
     95000   1.0559268      0.0023323615  -0.00083941534  20.794379      19.226328      1.5680514     -1.2441931      18663.174    
     96000   0.93309482     0.0023323615   0.0019218201   20.810221      19.424575      1.3856458     -1.1115251      18541.399    
     97000   0.94804884     0.0023323615  -0.00034320734  20.786382      19.37853       1.4078525     -1.0609348      18413.564    
     98000   0.98999625     0.0023323615   0.00013888796  21.026737      19.556593      1.4701444     -0.99214875     18655.542    
     99000   1.0200772      0.0023323615   0.00053113177  20.790524      19.27571       1.5148147     -1.1919864      18433.737    
    100000   0.82495188     0.0023323615   0.0016891597   20.653872      19.428818      1.2250535     -1.1025443      18654.388    
    101000   1.0502657      0.0023323615   0.0017984723   20.891871      19.332226      1.5596446     -1.1102414      18966.569    
    102000   0.92464525     0.0023323615  -0.00066812016  20.975853      19.602755      1.3730982     -0.97473749     18996.721    
    103000   1.0507085      0.0023323615  -0.00016579808  20.86517       19.304867      1.5603021     -1.2058251      19072.471    
    104000   0.99191153     0.0023323615  -0.0009415387   20.813725      19.340736      1.4729886     -1.210433       18649.094    
    105000   0.86314535     0.0023323615  -0.0014856539   20.913943      19.632173      1.2817708     -0.9383299      18639.506    
    106000   0.96197599     0.0023323615   0.00087068764  20.736048      19.307514      1.4285343     -1.1912786      18626.563    
    107000   0.89775677     0.0023323615   0.0011712144   20.508199      19.175031      1.3331688     -1.3061669      18458.534    
    108000   1.0848407      0.0023323615   0.0020506087   20.960214      19.349226      1.6109885     -1.141506       18371.169    
    109000   0.98543465     0.0023323615   0.00094736194  20.931411      19.46804       1.4633705     -1.0420814      18783.247    
    110000   1.1197503      0.0023323615   0.0024990013   21.148054      19.485224      1.6628292     -1.0720946      18699.215    
    111000   1.069665       0.0023323615   0.00069232478  20.971758      19.383306      1.5884525     -1.0925406      18670.767    
    112000   0.89601062     0.0023323615  -0.0011362054   20.7417        19.411124      1.3305758     -1.1149962      18469.47     
    113000   1.0422939      0.0023323615   0.0021290508   20.886756      19.338949      1.5478064     -1.2068974      18321.191    
    114000   1.0892844      0.0023323615   0.00080771136  20.9381        19.320513      1.6175874     -1.2203091      18524.724    
    115000   0.94538622     0.0023323615  -0.0033691999   21.009744      19.605845      1.4038985     -1.0235813      18451.279    
    116000   1.0378801      0.0023323615   0.00079947713  20.993307      19.452055      1.541252      -1.0828794      18899.254    
    117000   0.94928535     0.0023323615  -7.4866009e-05  20.944462      19.534774      1.4096887     -0.90436154     19610.592    
    118000   0.92869333     0.0023323615  -0.00011456319  20.885085      19.505976      1.3791096     -0.99046527     19565.67     
    119000   1.1070865      0.0023323615   0.00022813609  20.892377      19.248354      1.6440234     -1.1523648      18704.03     
    120000   0.97867795     0.0023323615  -0.0021174098   20.912486      19.459149      1.4533368     -0.92683177     18430.755    
    121000   0.95987431     0.0023323615  -0.001150503    20.908223      19.48281       1.4254134     -1.0588808      18652.833    
    122000   1.0680812      0.0023323615   0.0011499505   21.102437      19.516336      1.5861006     -1.0163143      18687.064    
    123000   1.0438937      0.0023323615   0.0016474292   21.098561      19.548379      1.5501822     -1.0711051      18501.607    
    124000   1.0744628      0.0023323615   0.0016322814   21.120117      19.52454       1.5955772     -1.1498339      18631.949    
    125000   1.014169       0.0023323615   0.0027035421   20.940679      19.434638      1.506041      -1.0814287      18767.869    
    126000   1.1583509      0.0023323615  -0.0038447925   21.199434      19.479283      1.720151      -0.98742097     19018.685    
    127000   1.0110209      0.0023323615  -0.00074783929  21.117334      19.615968      1.5013661     -0.95913476     18725.488    
    128000   1.0069453      0.0023323615  -0.0039000053   20.742703      19.247389      1.4953137     -1.24314        18530.556    
    129000   0.92727123     0.0023323615  -0.0012686135   20.879873      19.502875      1.3769978     -1.0634666      18391.503    
    130000   0.98090517     0.0023323615   0.00073486117  20.849674      19.39303       1.4566442     -1.1083171      18591.553    
    131000   1.0034252      0.0023323615  -0.00070957749  20.822321      19.332234      1.4900864     -1.2614392      18458.346    
    132000   0.9791927      0.0023323615   0.0017214092   20.756244      19.302143      1.4541012     -1.1992489      18358.41     
    133000   1.0163742      0.0023323615   0.00018858896  20.748294      19.238978      1.5093158     -1.1752409      18501.861    
    134000   0.91742432     0.0023323615   0.0022990882   20.724908      19.362533      1.3623751     -1.1607509      18294.36     
    135000   0.85310571     0.0023323615  -0.00017041982  20.662687      19.395825      1.266862      -1.2309684      18243.218    
    136000   0.99482295     0.0023323615  -0.0017726871   20.853538      19.376226      1.4773121     -1.1076921      18287.023    
    137000   0.79780007     0.0023323615  -0.0025082428   20.460825      19.276091      1.1847331     -1.157445       18408.137    
    138000   0.8922463      0.0023323615   0.0019166008   20.737827      19.412841      1.3249858     -1.13335        18225.586    
    139000   0.9347914      0.0023323615  -0.0022693719   21.000485      19.61232       1.3881652     -0.9619246      18659.577    
    140000   1.0393535      0.0023323615  -0.0020419023   20.864009      19.320569      1.54344       -1.2944828      18605.553    
    141000   0.98686387     0.0023323615   0.0020911479   20.713298      19.247805      1.4654928     -1.1417118      18478.494    
    142000   0.90542762     0.0023323615  -0.0020966986   20.685611      19.341051      1.34456       -1.048928       18599.198    
    143000   0.8385875      0.0023323615  -0.00014895159  20.605694      19.360391      1.2453024     -1.2028481      18551.255    
    144000   0.90746178     0.0023323615  -0.0034165523   20.574559      19.226978      1.3475807     -1.1358881      18347.372    
    145000   0.98974673     0.0023323615  -0.0012554962   20.988769      19.518995      1.4697739     -0.9946457      18505.418    
    146000   0.98409338     0.0023323615   0.0015430528   20.944614      19.483236      1.4613787     -1.049025       18572.091    
    147000   0.99290782     0.0023323615  -0.00037973724  20.949044      19.474575      1.4744681     -1.1785187      18586.647    
    148000   1.0606843      0.0023323615   0.00055063797  21.12435       19.549233      1.5751162     -1.0494082      18693.013    
    149000   1.1440919      0.0023323615  -0.00024795639  21.340073      19.641097      1.6989764     -1.0457375      18484.688    
    150000   0.90511277     0.0023323615  -0.0013432618   20.65093       19.306837      1.3440925     -1.1259226      18446.918    
    151000   0.97138796     0.0023323615   0.0015540142   20.576811      19.134299      1.4425111     -1.3676827      18486.951    
    152000   1.0337004      0.0023323615  -0.0019226007   21.032538      19.497493      1.535045      -0.96645882     18647.989    
    153000   1.0458812      0.0023323615  -0.0018699419   20.926035      19.372901      1.5531336     -1.1726016      18603.289    
    154000   1.0039333      0.0023323615   0.0013041868   20.870048      19.379207      1.490841      -1.0417106      18448.998    
    155000   0.97574011     0.0023323615  -0.0005443473   20.611271      19.162297      1.4489741     -1.285029       18453.145    
    156000   1.0493521      0.0023323615   7.2447851e-05  21.037131      19.478843      1.5582879     -1.0889821      18421.496    
    157000   1.008501       0.0023323615   0.002525507    20.770826      19.273202      1.497624      -1.280598       18425.556    
    158000   1.1577112      0.0023323615  -0.0029094899   21.105878      19.386677      1.7192012     -1.2134683      18464.533    
    159000   1.0327226      0.0023323615  -0.001926067    20.680498      19.146905      1.533593      -1.3394205      18472.109    
    160000   1.1534587      0.0023323615  -0.00023489503  20.986051      19.273165      1.7128862     -1.2936066      18470.947    
    161000   1.152933       0.0023323615   0.0028570488   21.13781       19.425705      1.7121055     -1.2587619      18353.86     
    162000   1.0401835      0.0023323615  -0.0016323525   20.854254      19.309582      1.5446724     -1.2061256      18397.154    
    163000   0.85793922     0.0023323615   0.0021100425   20.585142      19.311102      1.2740397     -1.3103921      18329.033    
    164000   1.1228314      0.0023323615  -0.0016179961   21.001491      19.334087      1.6674047     -1.1805449      18285.868    
    165000   1.0906688      0.0023323615   0.0031268001   21.400159      19.780516      1.6196432     -0.93780044     18383.557    
    166000   1.0187434      0.0023323615   0.0028031434   20.860633      19.347799      1.5128339     -1.2570486      18496.865    
    167000   0.96872176     0.0023323615   0.00026433094  20.836952      19.3984        1.4385518     -1.1972909      18471.877    
    168000   1.0606317      0.0023323615   0.0015332737   21.013507      19.438469      1.5750381     -0.96864559     18493.524    
    169000   0.92701266     0.0023323615  -0.0039588632   20.635021      19.258407      1.3766138     -1.208841       18481.737    
    170000   0.96490679     0.0023323615   0.0014055362   20.795483      19.362597      1.4328866     -1.210127       18440.953    
    171000   0.88611071     0.0023323615  -0.0014282161   20.677164      19.36129       1.3158744     -1.0232198      18365.254    
    172000   0.93610234     0.0023323615   0.0015322872   20.559371      19.169259      1.390112      -1.2259826      18488.625    
    173000   0.95380355     0.0023323615   0.0058496752   20.712611      19.296212      1.4163983     -1.1598082      18470.407    
    174000   0.91648585     0.0023323615  -0.00091860024  20.714045      19.353063      1.3609815     -1.2009876      18473.371    
    175000   1.0236645      0.0023323615   0.002588798    20.91255       19.392409      1.5201418     -1.1329932      18474.092    
    176000   0.96750878     0.0023323615   0.0017526681   21.009512      19.572761      1.4367505     -1.0305607      18672.619    
    177000   1.0158415      0.0023323615  -0.00049279759  20.958121      19.449597      1.5085247     -1.0577767      19011.151    
    178000   1.044232       0.0023323615   0.0042849585   21.106133      19.555449      1.5506845     -0.94843121     18859.338    
    179000   1.0086054      0.0023323615   0.0010159533   20.943213      19.445434      1.497779      -1.1228251      18663.739    
    180000   0.97663612     0.0023323615  -0.0012686233   21.012633      19.562328      1.4503046     -1.0115046      18548.828    
    181000   0.89793856     0.0023323615  -0.0018164025   20.898348      19.564909      1.3334388     -0.94294509     18617.318    
    182000   0.96149563     0.0023323615   0.001007975    21.38405       19.956229      1.427821      -0.92944564     18534.362    
    183000   1.0893017      0.0023323615  -0.00095203018  21.119806      19.502193      1.617613      -1.0524843      18542.174    
    184000   0.99059372     0.0023323615  -0.0010480986   21.118118      19.647086      1.4710317     -0.99014206     18745.385    
    185000   1.0367802      0.0023323615  -0.0023540439   21.026021      19.486402      1.5396185     -1.0400319      18576.864    
    186000   0.96967192     0.0023323615   0.00053630729  20.898442      19.458479      1.4399628     -1.1193918      18682.076    
    187000   1.0648848      0.0023323615   0.0024539151   20.612811      19.031457      1.5813539     -1.3984694      18448.592    
    188000   0.95801732     0.0023323615   0.00063043122  20.705063      19.282408      1.4226557     -1.2603971      18353.06     
    189000   1.0072184      0.0023323615   0.0019888134   21.143129      19.64741       1.4957193     -0.89991412     18470.164    
    190000   1.0636824      0.0023323615  -0.0012681696   20.853138      19.27357       1.5795684     -1.2765396      18617.512    
    191000   0.96421034     0.0023323615   0.00055374476  20.791912      19.36006       1.4318523     -1.0803584      18567.585    
    192000   0.88725106     0.0023323615   0.0032704815   20.845083      19.527515      1.3175678     -1.048245       18629.855    
    193000   0.88919571     0.0023323615  -0.00010538978  20.763178      19.442722      1.3204556     -1.0394341      18576.397    
    194000   0.97978846     0.0023323615  -0.0013330622   20.966662      19.511676      1.4549859     -0.95139982     18596.911    
    195000   1.0427355      0.0023323615   0.0041310588   20.942437      19.393975      1.5484623     -1.0276771      18655.535    
    196000   1.1134494      0.0023323615   0.0026415063   20.953083      19.299611      1.6534723     -1.2276094      18752.922    
    197000   1.0181136      0.0023323615   0.00039117878  21.027782      19.515883      1.5118987     -1.059226       18638.608    
    198000   1.0566904      0.0023323615  -0.0007896661   20.700466      19.131281      1.5691853     -1.3727421      18421.822    
    199000   0.95350462     0.0023323615  -0.0015969116   20.766314      19.35036       1.4159544     -1.095887       18553.476    
    200000   0.97724446     0.0023323615   0.0023799265   20.950253      19.499045      1.451208      -1.0520627      18742.809    
    201000   1.0330436      0.0023323615  -0.0033102386   21.102062      19.567993      1.5340698     -1.0617578      18882.796    
    202000   1.0792958      0.0023323615  -0.0012941187   21.089416      19.486662      1.6027543     -1.1069009      18718.085    
    203000   1.0495779      0.0023323615   0.00035582983  21.182959      19.624335      1.5586233     -0.94479384     18594.864    
    204000   1.0149452      0.0023323615   0.00072928624  20.866057      19.358863      1.5071936     -1.0510471      18638.949    
    205000   1.1535056      0.0023323615   0.0039772103   21.031665      19.318709      1.7129558     -1.1729522      18530.305    
    206000   0.96920867     0.0023323615  -0.0022039117   20.576343      19.137068      1.4392749     -1.3372754      18468.852    
    207000   0.94235549     0.0023323615  -0.0011941644   20.876719      19.477321      1.3993979     -1.0374938      18440.957    
    208000   1.0702702      0.0023323615  -0.001854373    20.842692      19.25334       1.5893512     -1.2728706      18461.064    
    209000   1.0940116      0.0023323615  -0.00028294672  20.853278      19.228671      1.6246072     -1.3004271      18432.167    
    210000   0.84901221     0.0023323615  -0.0032736032   20.607931      19.347148      1.2607831     -1.0340484      18401.927    
    211000   0.95983968     0.0023323615   0.0019868023   20.601902      19.17654       1.4253619     -1.3757589      18424.117    
    212000   0.94071718     0.0023323615   0.0029203093   20.771214      19.374249      1.396965      -1.1115501      18474.714    
    213000   0.89904242     0.0023323615  -0.0031908218   20.815007      19.479929      1.335078      -1.0600303      18541.413    
    214000   0.86575333     0.0023323615   0.0023573901   20.533297      19.247653      1.2856437     -1.3103065      18430.976    
    215000   0.97604988     0.0023323615   0.0011050467   20.650576      19.201142      1.4494341     -1.3314813      18599.226    
    216000   1.0187197      0.0023323615   0.00011617824  20.892518      19.379719      1.5127987     -1.1478791      18512.464    
    217000   0.87814246     0.0023323615   0.0034136954   20.656292      19.352251      1.3040415     -1.2049326      18436.103    
    218000   0.97700716     0.0023323615  -0.0015219385   20.919624      19.468768      1.4508556     -1.0143188      18552.093    
    219000   0.93214157     0.0023323615  -0.0042893611   20.706903      19.322673      1.3842302     -1.1845516      18434.996    
    220000   0.88985547     0.0023323615   8.8022156e-05  20.744663      19.423228      1.3214354     -1.2665992      18253.35     
    221000   1.0066053      0.0023323615   0.00039826444  21.261367      19.766558      1.4948089     -0.96982654     18368.63     
    222000   1.0424908      0.0023323615  -0.00074705931  21.102592      19.554493      1.5480988     -1.0924263      18495.964    
    223000   1.0908537      0.0023323615  -0.0042862668   21.404957      19.785039      1.6199177     -0.87517418     18551.1      
    224000   1.0046605      0.0023323615  -0.0028189772   20.779359      19.287438      1.4919208     -1.3271338      18364.115    
    225000   0.87910604     0.0023323615   0.0024122144   20.603845      19.298372      1.3054725     -1.3151702      18360.849    
    226000   1.0783856      0.0023323615   0.0023787967   20.894248      19.292845      1.6014026     -1.2442157      18214.075    
    227000   1.0538781      0.0023323615   0.0021992402   20.667754      19.102745      1.5650089     -1.4727911      18267.531    
    228000   1.0466111      0.0023323615  -0.00069359051  20.744008      19.189791      1.5542175     -1.3486406      18406.698    
    229000   0.9268537      0.0023323615   0.0003410204   20.77749       19.401112      1.3763777     -1.0529763      18428.128    
    230000   0.89470256     0.0023323615  -0.0011831102   20.764183      19.43555       1.3286333     -1.0288445      18481.936    
    231000   1.1588163      0.0023323615  -0.00031991466  21.201705      19.480862      1.7208422     -1.0518329      18490.824    
    232000   1.0600049      0.0023323615  -0.0034989257   21.281388      19.707281      1.5741072     -0.80569419     18545.137    
    233000   1.0342785      0.0023323615   0.00087191293  21.06543       19.529527      1.5359036     -1.0166521      18495.556    
    234000   1.0920707      0.0023323615  -0.0029870306   21.172163      19.550438      1.621725      -0.99205908     18542.512    
    235000   1.1937582      0.0023323615   0.00017059673  21.228076      19.455345      1.7727309     -0.99041813     18618.495    
    236000   0.89790852     0.0023323615   0.0012098301   20.486953      19.153559      1.3333942     -1.3894567      18550.211    
    237000   0.92009381     0.0023323615  -0.0029484899   20.921167      19.554827      1.3663393     -0.99364478     18357.421    
    238000   0.91015534     0.0023323615   0.0024808202   20.559925      19.208344      1.3515807     -1.1868823      18470.656    
    239000   1.0738591      0.0023323615  -0.0038499235   21.108557      19.513876      1.5946807     -0.98447437     18572.868    
    240000   0.88517382     0.0023323615  -0.0006213935   20.906072      19.591588      1.3144831     -0.94636015     18730.087    
    241000   0.96691614     0.0023323615  -0.00013547911  21.193018      19.757147      1.4358705     -0.85766842     18874.694    
    242000   0.92669083     0.0023323615   0.0029285049   21.268518      19.892382      1.3761359     -0.74118661     18861.191    
    243000   1.0606104      0.0023323615   0.00034663732  20.976518      19.401511      1.5750065     -1.0875161      18719.717    
    244000   0.83931376     0.0023323615  -0.0031801613   20.729964      19.483583      1.2463809     -0.97788788     18631.83     
    245000   0.92567462     0.0023323615  -0.00064097847  20.916384      19.541757      1.3746268     -1.0266594      18727.04     
    246000   1.0133239      0.0023323615  -0.0050398094   20.964748      19.459962      1.504786      -1.1283386      18721.388    
    247000   1.0398461      0.0023323615   0.0015407656   21.001245      19.457073      1.5441714     -1.151717       19123.127    
    248000   1.1459011      0.0023323615  -0.0017483267   21.179234      19.477571      1.7016631     -1.1337267      19173.703    
    249000   0.86983857     0.0023323615  -0.00079278962  20.737707      19.445996      1.2917103     -1.0889011      18882.197    
    250000   1.0268167      0.0023323615  -0.00098430087  20.915586      19.390763      1.5248227     -1.1208177      18636.471    
    251000   0.83715887     0.0023323615  -0.0014581758   20.768978      19.525797      1.2431809     -1.0544493      18488.899    
    252000   1.0304845      0.0023323615  -0.0010664068   20.854831      19.324561      1.5302695     -1.0028539      18599.68     
    253000   0.8708328      0.0023323615  -0.0017505202   20.89799       19.604803      1.2931867     -1.0356639      18519.541    
    254000   0.92347489     0.0023323615   0.0004674176   20.724661      19.3533        1.3713602     -1.260743       18602.956    
    255000   1.0557968      0.0023323615  -0.0004056947   20.777161      19.209303      1.5678583     -1.1957063      18555.176    
    256000   0.86871079     0.0023323615   0.0022363192   20.613575      19.32354       1.2900355     -1.1639086      18640.529    
    257000   0.97810771     0.0023323615   0.0032142279   20.870555      19.418065      1.45249       -1.0166443      18673.698    
    258000   0.96257431     0.0023323615  -0.0025357218   20.796037      19.366614      1.4294229     -1.0609413      18611.746    
    259000   0.92948583     0.0023323615  -0.0012058479   20.843976      19.46369       1.3802865     -0.97746088     18650.916    
    260000   0.82735742     0.0023323615  -0.0023512341   20.754734      19.526108      1.2286258     -0.98156256     18643.28     
    261000   0.99779226     0.0023323615   0.0015828389   20.671969      19.190247      1.4817215     -1.2708787      18490.985    
    262000   0.91557964     0.0023323615   0.0026500577   20.758491      19.398856      1.3596358     -1.158496       18332.972    
    263000   0.97412381     0.0023323615  -0.0008846989   20.99049       19.543916      1.4465739     -0.92313475     18469.925    
    264000   1.0011421      0.0023323615  -0.0025560795   20.775997      19.289301      1.4866961     -1.1853353      18619.315    
    265000   1.0697614      0.0023323615  -0.003361412    20.997333      19.408737      1.5885957     -1.2068731      18496.941    
    266000   0.97337246     0.0023323615  -0.00071703932  20.855047      19.409589      1.4454581     -1.1531906      18533.97     
    267000   0.79804264     0.0023323615   0.0020595079   20.591866      19.406773      1.1850933     -1.1939087      18650.198    
    268000   1.1112495      0.0023323615  -0.0004176402   20.891327      19.241121      1.6502055     -1.1605695      18860.428    
    269000   0.95074134     0.0023323615   0.0009642578   21.089921      19.67807       1.4118509     -0.88143954     18822.163    
    270000   0.97897319     0.0023323615   0.0011675358   20.807843      19.354068      1.4537752     -1.1425017      18726.411    
    271000   0.99526116     0.0023323615   0.00046813227  20.854794      19.376831      1.4779628     -1.1020251      18687.389    
    272000   0.98616095     0.0023323615  -0.00067947291  20.675044      19.210595      1.464449      -1.2833167      18575.242    
    273000   1.0821608      0.0023323615   0.0027057252   20.825838      19.218829      1.6070088     -1.193263       18683.608    
    274000   1.0694314      0.0023323615  -0.00056373893  21.222692      19.634586      1.5881056     -0.84049888     18679.912    
    275000   1.0735527      0.0023323615   0.0026377476   21.253603      19.659377      1.5942258     -0.91017905     18707.97     
    276000   0.94401899     0.0023323615  -0.0017780994   20.967578      19.565709      1.4018682     -1.1560456      18770.269    
    277000   1.1048579      0.0023323615   0.0024846988   21.171862      19.531148      1.6407139     -1.1308457      18521.887    
    278000   0.99198539     0.0023323615   0.0018999044   20.901527      19.428429      1.4730983     -1.0384392      18662.319    
    279000   0.91139542     0.0023323615   0.0017456771   20.977216      19.623794      1.3534222     -0.88282177     18830.76     
    280000   1.0271633      0.0023323615   0.00016099269  21.009913      19.484575      1.5253375     -0.96118026     18740.514    
    281000   1.1442587      0.0023323615  -0.0017259523   21.361487      19.662263      1.6992242     -0.85866294     19149.289    
    282000   0.99751587     0.0023323615   0.00053918526  21.215162      19.733851      1.4813111     -0.69184159     19416.63     
    283000   0.94096395     0.0023323615   0.00076813128  21.293147      19.895816      1.3973315     -0.65342266     20386.524    
    284000   1.0160819      0.0023323615  -0.0017195947   20.824583      19.315702      1.5088816     -1.117876       19422.815    
    285000   0.92945671     0.0023323615   0.0010031383   20.809896      19.429653      1.3802432     -1.0393608      19318.429    
    286000   1.0212297      0.0023323615   0.0036180056   20.826679      19.310153      1.5165262     -1.1965693      18682.01     
    287000   0.8856905      0.0023323615  -0.0024695296   20.510077      19.194826      1.3152504     -1.3270098      18088.05     
    288000   0.9247802      0.0023323615  -5.2705507e-05  20.715404      19.342106      1.3732986     -1.1531412      18621.878    
    289000   1.029505       0.0023323615  -0.00054365958  20.962471      19.433656      1.5288149     -1.1217549      18405.313    
    290000   0.97051021     0.0023323615  -0.0012016308   20.871289      19.430082      1.4412077     -1.1580769      18477.915    
    291000   0.95753105     0.0023323615   0.00182725     20.907948      19.486015      1.4219336     -1.0033597      18575.215    
    292000   1.0319783      0.0023323615  -0.0013342355   20.893187      19.3607        1.5324878     -1.2085537      18479.989    
    293000   1.0806018      0.0023323615  -0.0030214228   20.973447      19.368753      1.6046937     -1.1129377      18432.222    
    294000   0.96059039     0.0023323615  -0.002926533    20.689174      19.262697      1.4264767     -1.2411086      18545.275    
    295000   1.0311142      0.0023323615  -0.0019110232   21.202011      19.670806      1.5312046     -0.87729371     18427.835    
    296000   1.1147277      0.0023323615   0.0022382021   21.121601      19.46623       1.6553706     -0.97628612     18455.8      
    297000   0.80471264     0.0023323615   0.0026930215   20.486998      19.292         1.1949983     -1.2494605      18725.747    
    298000   0.7943143      0.0023323615  -0.0039358261   20.506992      19.327435      1.1795567     -1.1763495      18476.171    
    299000   0.974463       0.0023323615   0.0014788939   20.643413      19.196336      1.4470776     -1.3007745      18334.363    
    300000   1.0045396      0.0023323615   0.0016087312   20.907361      19.415619      1.4917412     -1.1353997      18371.923    
    301000   0.95978628     0.0023323615   0.0053505266   20.627104      19.201822      1.4252826     -1.2802304      18346.158    
    302000   1.0217793      0.0023323615   0.001543667    20.965812      19.44847       1.5173422     -1.1345863      18500.654    
    303000   1.0481528      0.0023323615   0.00071092399  21.144154      19.587647      1.5565069     -1.0153413      18581.066    
    304000   1.111281       0.0023323615  -0.0039875914   21.171332      19.52108       1.6502522     -1.0154208      18625.861    
    305000   0.98312858     0.0023323615  -0.0015321966   20.886782      19.426836      1.4599459     -1.169557       18520.427    
    306000   1.008634       0.0023323615   0.00093174242  21.131583      19.633762      1.4978214     -1.0926554      18380.862    
    307000   0.97608089     0.0023323615  -0.0026412836   21.064721      19.61524       1.4494801     -1.005937       18334.781    
    308000   0.99134993     0.0023323615  -0.00026225812  20.972733      19.500578      1.4721546     -1.1332617      18621.913    
    309000   0.99338282     0.0023323615  -0.0025167374   21.027207      19.552033      1.4751735     -0.91232784     18838.099    
    310000   0.84985261     0.0023323615   0.00088676101  20.776743      19.514712      1.2620311     -0.97808816     19301.111    
    311000   0.94719531     0.0023323615   0.0038239826   20.900965      19.49438       1.406585      -0.99169596     18961.798    
    312000   0.93578338     0.0023323615  -0.0011658438   20.837692      19.448053      1.3896383     -1.1849289      18458.779    
    313000   1.016157       0.0023323615  -0.0032816136   20.726714      19.217721      1.5089931     -1.2241184      18403.762    
    314000   1.1775569      0.0023323615   0.00061440136  21.107369      19.358697      1.748672      -1.2696864      18478.514    
    315000   0.95718716     0.0023323615  -0.00010917671  20.969722      19.548299      1.4214229     -1.1004317      18560.8      
    316000   0.98491926     0.0023323615   0.001234303    20.864476      19.401871      1.4626051     -1.1343526      18414.481    
    317000   1.017117       0.0023323615  -0.0019206318   21.207859      19.697441      1.5104187     -0.94442289     18364.132    
    318000   1.1113119      0.0023323615   8.1931329e-05  21.280368      19.63007       1.6502982     -1.0022434      18413.353    
    319000   0.96322804     0.0023323615   0.0033185057   20.844992      19.414598      1.4303936     -1.036556       18627.491    
    320000   0.81781202     0.0023323615  -0.0016952845   20.657329      19.442878      1.2144508     -1.024997       18315.97     
    321000   0.98843784     0.0023323615   0.0027009758   20.931934      19.464104      1.4678302     -1.0298398      18508.057    
    322000   1.0711396      0.0023323615  -0.00017606656  20.692232      19.10159       1.5906423     -1.3712863      18600.113    
    323000   0.87326731     0.0023323615  -0.0027451185   20.744649      19.447847      1.296802      -1.1494103      18455.657    
    324000   1.1533201      0.0023323615  -0.0018585055   21.035178      19.322498      1.7126803     -1.1584785      18554.9      
    325000   1.0642383      0.0023323615  -0.0011107964   20.951598      19.371205      1.5803939     -1.1482876      18550.352    
    326000   1.0570277      0.0023323615  -0.0015055994   21.123332      19.553646      1.5696861     -1.0128312      18740.394    
    327000   1.0628049      0.0023323615   0.00023180134  20.976778      19.398513      1.5782653     -1.0976023      18886.566    
    328000   1.0768972      0.0023323615  -0.00079940924  21.070861      19.471669      1.5991924     -1.0760585      18631.611    
    329000   0.93852855     0.0023323615  -0.0033767737   21.06587       19.672156      1.3937149     -0.86221126     18729.641    
    330000   1.0102794      0.0023323615  -0.0035782676   21.33869       19.838425      1.5002648     -0.77589472     19036.383    
    331000   0.94377225     0.0023323615   0.0021747734   20.822045      19.420543      1.4015018     -1.032771       18823.42     
    332000   1.1141031      0.0023323615  -0.0017344327   20.855314      19.200871      1.6544432     -1.325728       18441.918    
    333000   0.88567716     0.0023323615  -0.0051459516   20.847927      19.532697      1.3152306     -1.0622154      18413.153    
    334000   0.96274469     0.0023323615  -0.0029928509   20.684398      19.254722      1.4296759     -1.2238577      18466.119    
    335000   0.92376421     0.0023323615  -0.00019472941  20.691541      19.319751      1.3717898     -1.1942517      18553.859    
    336000   1.0615105      0.0023323615   0.0023800372   20.921243      19.344899      1.5763431     -1.1417235      18436.518    
    337000   0.89471306     0.0023323615  -0.0013826876   20.829855      19.501206      1.3286489     -1.0577581      18519.303    
    338000   0.90878295     0.0023323615  -0.00040772311  20.869672      19.52013       1.3495427     -1.0181835      18568.59     
    339000   1.0670795      0.0023323615   6.2700018e-06  21.247046      19.662433      1.5846131     -0.8585057      18862.628    
    340000   0.86097187     0.0023323615   0.0029713336   20.768239      19.489696      1.2785432     -1.0932299      19039.008    
    341000   0.97091636     0.0023323615   0.0029965633   21.096397      19.654586      1.4418108     -0.89322252     19433.986    
    342000   1.0322579      0.0023323615   0.00061770769  21.146686      19.613784      1.5329029     -0.90794466     20477.064    
    343000   1.0586072      0.0023323615   0.0003486763   21.267213      19.695181      1.5720317     -0.89898711     19994.534    
    344000   1.0706337      0.0023323615   0.00039817441  21.162553      19.572662      1.589891      -1.1701344      18789.94     
    345000   1.162955       0.0023323615  -0.00077583739  21.037826      19.310838      1.7269882     -1.1985967      18531.657    
    346000   0.89708017     0.0023323615  -0.0018687344   21.040619      19.708455      1.3321641     -0.93307838     18570.342    
    347000   1.0110379      0.0023323615  -0.0013688599   21.041609      19.540218      1.5013913     -0.9384981      18822.56     
    348000   1.1149629      0.0023323615  -0.0013983886   21.30646       19.65074       1.6557199     -0.93457382     19185.328    
    349000   1.1604618      0.0023323615  -0.00032381872  21.467331      19.744045      1.7232858     -0.93281423     18666.549    
    350000   0.95499918     0.0023323615  -0.0014779971   20.861361      19.443188      1.4181738     -1.0847171      18764.549    
    351000   0.91038997     0.0023323615   0.0018511821   20.887495      19.535566      1.3519291     -0.90200259     18782.307    
    352000   0.92827714     0.0023323615  -0.0015588401   20.864805      19.486314      1.3784916     -1.0263379      18611.937    
    353000   0.89966318     0.0023323615   0.0021981391   20.933976      19.597977      1.3359998     -1.0075077      18531.998    
    354000   0.97319293     0.0023323615   0.0059098876   20.868628      19.423437      1.4451915     -1.1073048      18483.849    
    355000   1.0199102      0.0023323615   0.00049782002  21.259856      19.745289      1.5145666     -0.84164192     18784.275    
    356000   0.97099958     0.0023323615   0.00027781923  20.844257      19.402323      1.4419344     -1.0235232      18857.909    
    357000   1.1312095      0.0023323615  -0.0022667331   21.230636      19.55079       1.6798461     -1.0190287      18608.339    
    358000   1.1211476      0.0023323615   0.0054901174   21.373468      19.708563      1.6649042     -0.90782511     18786.209    
    359000   0.89160103     0.0023323615   0.0024984732   20.886314      19.562287      1.3240275     -0.97828766     18742.129    
    360000   0.99395815     0.0023323615  -0.0012657114   21.002246      19.526218      1.4760279     -0.91512051     19060.972    
    361000   0.97579074     0.0023323615  -0.0028774589   21.11675       19.667701      1.4490492     -0.81356364     19142.22     
    362000   1.1209122      0.0023323615  -0.0011346864   21.183079      19.518524      1.6645547     -1.0850784      18632.526    
    363000   0.92363304     0.0023323615   0.00065278496  20.973827      19.602232      1.3715951     -0.84001277     18718.092    
    364000   1.0201389      0.0023323615   0.0049575962   21.077771      19.562865      1.5149063     -0.91665608     19353.67     
    365000   1.012263       0.0023323615   0.0016967081   21.242354      19.739144      1.5032105     -0.81790395     20084.782    
    366000   1.0736379      0.0023323615  -0.0040368077   21.393971      19.799619      1.5943523     -0.89996402     20337.053    
    367000   0.93579276     0.0023323615  -0.0015299796   20.743953      19.354301      1.3896522     -1.0639118      19459.629    
    368000   1.0075542      0.0023323615   0.0031294069   20.858546      19.362328      1.496218      -1.0847046      18590.863    
    369000   1.1326317      0.0023323615   0.0015986956   21.201346      19.519387      1.6819581     -1.0207901      18498.069    
    370000   1.0827799      0.0023323615   0.0025235378   21.188069      19.580141      1.6079281     -0.99971877     18587.72     
    371000   1.1383112      0.0023323615   0.00039207646  21.057085      19.366692      1.6903921     -1.0921497      18631.862    
    372000   1.0853393      0.0023323615  -0.0014081591   21.167507      19.555779      1.6117289     -0.99982        18657.163    
    373000   0.99860792     0.0023323615  -0.00092614524  21.03442       19.551487      1.4829328     -0.95972784     18831.286    
    374000   1.1031012      0.0023323615  -0.0026273752   21.169092      19.530987      1.6381053     -0.94376061     19235.337    
    375000   0.89815198     0.0023323615   0.0023875226   20.668989      19.335233      1.3337557     -1.1029145      19770.328    
    376000   0.97351808     0.0023323615   0.00028998822  20.66553       19.219856      1.4456743     -1.17825        19275.489    
    377000   1.1213095      0.0023323615   3.7611776e-05  21.203683      19.538538      1.6651446     -0.89812605     19461.321    
    378000   1.1192348      0.0023323615   0.00032593936  21.068467      19.406403      1.6620637     -1.1223321      20430.335    
    379000   0.90635211     0.0023323615  -0.0037310138   20.790918      19.444985      1.3459329     -1.085713       19942.652    
    380000   0.99530961     0.0023323615  -0.0027547362   21.054089      19.576055      1.4780348     -0.872033       20688.719    
    381000   0.83647831     0.0023323615  -0.0019993604   20.698886      19.456716      1.2421703     -1.0305781      21548.603    
    382000   0.96948782     0.0023323615   0.0033652601   21.127863      19.688174      1.4396894     -0.85624566     21811.742    
    383000   0.81219852     0.0023323615  -0.00093488585  20.869196      19.663081      1.2061148     -0.78013919     20780.62     
    384000   1.0134331      0.0023323615  -3.6074369e-05  21.084074      19.579126      1.5049482     -0.89026576     7069.7332    
    385000   0.95343415     0.0023323615   0.00087482961  21.020601      19.604751      1.4158497     -0.9772754      18654.629    
    386000   0.87584898     0.0023323615   0.00080053359  20.70831       19.407674      1.3006357     -1.05848        18394.015    
    387000   1.0083139      0.0023323615   0.0029866381   20.80761       19.310264      1.4973461     -1.0883878      18274.103    
    388000   0.9363582      0.0023323615  -0.00099570102  20.869258      19.478767      1.3904919     -1.0686243      18445.99     
    389000   0.97252058     0.0023323615   0.0013468051   20.855452      19.411259      1.4441931     -1.0759192      18586.588    
    390000   0.94152886     0.0023323615   0.0029895711   21.009706      19.611535      1.3981704     -1.0359055      18431.504    
    391000   1.0468046      0.0023323615   0.00073630239  21.307194      19.752689      1.5545048     -0.91808807     18559.223    
    392000   1.181345       0.0023323615   0.0053857748   21.29781       19.543513      1.7542974     -1.0730567      18545.13     
    393000   0.87174997     0.0023323615   0.0033291924   20.730431      19.435882      1.2945487     -1.1074972      18475.997    
    394000   0.91953416     0.0023323615  -0.0022894504   20.86834       19.502831      1.3655082     -1.1225082      18289.627    
    395000   1.0071724      0.0023323615   0.00202315     20.94076       19.445109      1.495651      -1.1015382      18578.555    
    396000   0.93436733     0.0023323615  -0.0024360617   20.935865      19.54833       1.3875355     -1.1194744      18549.738    
    397000   1.1010686      0.0023323615  -0.0022357224   21.109424      19.474337      1.6350869     -1.1172885      18329.488    
    398000   0.90277614     0.0023323615   0.00027532749  20.660226      19.319603      1.3406226     -1.2107091      18311.326    
    399000   0.94481503     0.0023323615   0.0033057036   20.777334      19.374283      1.4030503     -1.2475509      18180.568    
    400000   0.90894668     0.0023323615   0.0010697785   20.66711       19.317324      1.3497858     -1.1381371      18406.745    
    401000   0.91930712     0.0023323615  -0.0028165041   20.601824      19.236653      1.3651711     -1.2159291      18428.839    
    402000   1.0814955      0.0023323615  -0.00053997574  21.320871      19.71485       1.6060208     -0.99048777     18463.454    
    403000   1.040932       0.0023323615   0.0038555104   20.8306        19.284816      1.545784      -1.1219745      18519.753    
    404000   0.94374065     0.0023323615   0.0033294034   20.843174      19.441719      1.4014549     -1.1317547      18706.305    
    405000   1.0131924      0.0023323615   0.0017138657   21.06303       19.558439      1.5045908     -1.023861       18697.849    
    406000   1.0672661      0.0023323615   0.00062384088  21.018278      19.433387      1.5848902     -1.0736418      19837.192    
    407000   1.028351       0.0023323615  -0.0013065836   21.017583      19.490482      1.5271012     -0.98220817     20520.401    
    408000   1.0721738      0.0023323615  -0.0013415191   21.185432      19.593254      1.5921781     -0.9728541      20603.058    
    409000   1.0791567      0.0023323615   0.00062486417  21.145918      19.54337       1.6025477     -1.0490051      19251.449    
    410000   0.9978179      0.0023323615  -0.0011933198   21.064807      19.583047      1.4817596     -0.96329128     18475.617    
    411000   1.098517       0.0023323615   0.0047504323   21.10891       19.477612      1.6312978     -0.92799062     18664.368    
    412000   1.1824792      0.0023323615  -0.0026067561   21.251706      19.495725      1.7559816     -1.0560659      18556.68     
    413000   1.0650968      0.0023323615   0.001099425    21.201341      19.619672      1.5816688     -0.92620335     18637.042    
    414000   0.94980221     0.0023323615   0.0038140206   20.852032      19.441576      1.4104563     -1.047001       18642.792    
    415000   0.83967758     0.0023323615  -0.0015606619   20.679878      19.432957      1.2469212     -1.0018056      18425.737    
    416000   0.85587446     0.0023323615   0.00051988614  20.992255      19.721281      1.2709736     -0.85941309     18627.491    
    417000   1.0156951      0.0023323615  -0.0016921433   20.979333      19.471026      1.5083073     -0.97622528     18774.887    
    418000   0.98446533     0.0023323615  -0.0030357429   20.755828      19.293897      1.461931      -1.2013432      18663.869    
    419000   0.98838762     0.0023323615   0.0012925518   20.843935      19.376179      1.4677556     -1.1474314      18488.762    
    420000   1.0702562      0.0023323615  -0.00216946     21.027912      19.438581      1.5893304     -1.0385575      18663.153    
    421000   1.1864751      0.0023323615   0.00053725687  21.456718      19.694803      1.7619156     -0.98675386     18914.382    
    422000   1.2645501      0.0023323615  -0.00061968564  21.309008      19.431151      1.877857      -1.0509226      18657.042    
    423000   1.0456905      0.0023323615   0.002289623    20.927809      19.374959      1.5528505     -1.208431       18485.458    
    424000   1.0824427      0.0023323615   0.0047588193   21.060966      19.453539      1.6074274     -1.1491731      18308.431    
    425000   1.0250869      0.0023323615  -0.0034719224   20.743493      19.221239      1.5222541     -1.2381117      18470.458    
    426000   1.059293       0.0023323615  -0.0028072174   20.938878      19.365828      1.5730502     -1.1877626      18422.451    
    427000   0.89523455     0.0023323615  -0.0024947378   20.741681      19.412258      1.3294233     -1.0879965      18442.368    
    428000   0.88642493     0.0023323615   0.00023656427  20.937678      19.621337      1.316341      -0.88565792     18442.016    
    429000   0.9704731      0.0023323615   0.00074788322  20.710146      19.268994      1.4411525     -1.1966798      18557.591    
    430000   1.0946222      0.0023323615   0.0022054137   21.098915      19.473401      1.625514      -1.1263182      18558.385    
    431000   1.018397       0.0023323615  -0.0022319958   21.186805      19.674486      1.5123196     -0.83864078     18787.652    
    432000   1.1277182      0.0023323615   0.00012703452  21.166881      19.492219      1.6746616     -0.97548257     19088.319    
    433000   1.0069044      0.0023323615   0.0050805937   21.049782      19.554529      1.4952531     -0.95613681     19809.629    
    434000   0.91292441     0.0023323615   0.0024351751   20.943556      19.587863      1.3556927     -0.97184395     20133.691    
    435000   0.97765567     0.0023323615   0.0012204373   21.040762      19.588944      1.4518187     -0.91766034     19906.47     
    436000   1.0486556      0.0023323615  -0.0021179422   21.142574      19.58532       1.5572536     -0.9452758      19259.838    
    437000   1.1039357      0.0023323615   0.00081350381  21.305336      19.665991      1.6393446     -0.8971121      18876.229    
    438000   1.1276907      0.0023323615   0.0021054385   21.301904      19.627284      1.6746206     -0.9614097      18747.712    
    439000   1.0262539      0.0023323615   0.0026656684   20.984381      19.460394      1.5239871     -1.0953421      18506.725    
    440000   0.98937786     0.0023323615  -0.0019087016   20.947662      19.478436      1.4692261     -1.1264         18436.6      
    441000   1.0082456      0.0023323615  -0.0011348917   20.869157      19.371913      1.4972448     -1.1522273      18343.441    
    442000   1.0920295      0.0023323615  -0.0019201989   21.03296       19.411296      1.6216637     -1.1225844      18258.856    
    443000   1.1429604      0.0023323615  -0.0016146425   21.048229      19.350932      1.6972962     -1.0597679      18442.204    
    444000   1.0717748      0.0023323615   0.0023948904   21.158255      19.566669      1.5915856     -0.94741151     19016.765    
    445000   0.98887458     0.0023323615   0.0014458308   21.064667      19.596189      1.4684787     -0.9098385      18896.581    
    446000   1.0085242      0.0023323615   0.0015508219   21.068702      19.571044      1.4976584     -0.92331275     18693.283    
    447000   0.8728501      0.0023323615   0.00017088207  20.648242      19.352059      1.2961824     -1.1379243      18438.542    
    448000   0.88225581     0.0023323615   0.00086222135  20.430367      19.120217      1.3101499     -1.394689       18491.197    
    449000   1.0056317      0.0023323615   0.00019860281  20.871484      19.37812       1.4933631     -1.1802172      18374.023    
    450000   0.96086275     0.0023323615  -0.0030546456   20.921179      19.494297      1.4268812     -1.0941026      18360.511    
    451000   1.0132957      0.0023323615  -0.0020740405   20.915114      19.41037       1.5047441     -0.97058652     18326.274    
    452000   1.0747214      0.0023323615  -0.0021411157   20.920759      19.324798      1.5959613     -1.1482198      18497.966    
    453000   0.96716687     0.0023323615  -0.0022245084   20.652301      19.216058      1.4362428     -1.2740574      18241.087    
    454000   0.9838274      0.0023323615   0.0035245251   20.803806      19.342823      1.4609837     -1.2392035      18313.258    
    455000   1.1498739      0.0023323615  -0.00015039079  20.876465      19.168902      1.7075627     -1.3895668      18253.14     
    456000   1.0262725      0.0023323615  -0.0031966746   20.728197      19.204182      1.5240146     -1.3796877      18260.827    
    457000   1.0555415      0.0023323615   0.0033247496   21.074655      19.507176      1.5674792     -1.0727939      18393.479    
    458000   1.0608432      0.0023323615  -0.00022774066  20.864386      19.289034      1.5753522     -1.3503647      18434.728    
    459000   1.1860251      0.0023323615   0.0021327577   20.970228      19.208981      1.7612472     -1.3784159      18355.55     
    460000   0.97025583     0.0023323615  -0.0023533763   20.954187      19.513357      1.4408299     -1.1254736      18279.405    
    461000   1.1509784      0.0023323615   0.0059255985   21.051071      19.341868      1.7092029     -1.1816268      18422.268    
    462000   1.010384       0.0023323615  -0.0061208939   20.936989      19.436569      1.5004202     -1.1697737      18300.056    
    463000   1.0465683      0.0023323615   0.0023413672   20.802143      19.247989      1.554154      -1.2021919      18318.562    
    464000   0.92973336     0.0023323615  -0.0040439876   20.58157       19.200916      1.380654      -1.2430536      18469.833    
    465000   0.90662113     0.0023323615  -0.00044077885  20.408849      19.062517      1.3463324     -1.3543455      18360.413    
    466000   0.9425549      0.0023323615  -0.00067875937  20.670763      19.271069      1.399694      -1.2450021      18275.107    
    467000   0.95818705     0.0023323615  -0.0021432342   20.666852      19.243944      1.4229078     -1.3545179      18349.22     
    468000   1.0230447      0.0023323615  -0.0037099712   20.827855      19.308634      1.5192214     -1.1394419      18393.022    
    469000   1.0108873      0.0023323615  -0.0042886278   20.6698        19.168633      1.5011677     -1.3007471      18335.845    
    470000   0.96742859     0.0023323615   0.00062286704  20.601426      19.164795      1.4366315     -1.3643121      18327.391    
    471000   1.108855       0.0023323615  -0.00017351591  20.990465      19.343816      1.6466496     -1.2198585      18470.386    
    472000   0.94133273     0.0023323615  -0.0035816828   20.967344      19.569465      1.3978791     -1.121635       18542.994    
    473000   1.0413321      0.0023323615   0.00058467732  20.984932      19.438554      1.5463781     -1.1263481      18561.374    
    474000   1.0419501      0.0023323615  -0.0010583578   21.117245      19.569949      1.5472959     -0.92349818     18562.116    
    475000   0.8863785      0.0023323615   0.00034933852  20.711989      19.395717      1.3162721     -1.0141727      18682.265    
    476000   0.92263806     0.0023323615   0.0048005412   20.817465      19.447347      1.3701175     -1.0025382      18609.251    
    477000   1.1426284      0.0023323615  -0.0020171907   21.114404      19.417601      1.6968031     -1.0905518      12873.117    
    478000   1.2010655      0.0023323615  -0.0014795792   21.438553      19.654971      1.7835823     -1.009924       18574.997    
    479000   0.97145438     0.0023323615  -0.00037149532  20.671534      19.228924      1.4426098     -1.3128422      18621.496    
    480000   0.94697308     0.0023323615  -0.00080902476  20.999839      19.593584      1.406255      -1.0115558      18750.111    
    481000   0.96284742     0.0023323615  -0.00051857086  21.042901      19.613073      1.4298284     -1.0261074      18684.912    
    482000   0.88116944     0.0023323615   0.0024376494   20.664929      19.356392      1.3085366     -1.1388057      18600.845    
    483000   1.0004325      0.0023323615  -0.0010483057   20.712948      19.227306      1.4856422     -1.2332675      18476.558    
    484000   1.0083002      0.0023323615   0.0013330644   21.061301      19.563976      1.4973257     -0.94812988     18576.107    
    485000   0.91949048     0.0023323615  -0.0013071681   20.673434      19.307991      1.3654434     -1.2778539      18576.535    
    486000   0.95692871     0.0023323615  -0.00430792     20.759023      19.337984      1.4210391     -1.2439125      18580.274    
    487000   0.90828468     0.0023323615  -0.00041371006  20.696166      19.347363      1.3488028     -1.0762178      18567.447    
    488000   1.0811152      0.0023323615   0.00077953184  21.130573      19.525117      1.605456      -0.99945912     19182.857    
    489000   1.1882612      0.0023323615   0.00063128192  21.40334       19.638772      1.7645679     -0.99831374     18788.632    
    490000   0.99536954     0.0023323615   0.00345783     20.725799      19.247675      1.4781238     -1.2340364      18549.987    
    491000   0.99270592     0.0023323615  -0.0022974778   20.626291      19.152123      1.4741683     -1.2300851      18443.212    
    492000   0.94348368     0.0023323615   0.0040030508   20.808921      19.407848      1.4010733     -0.98962304     18565.872    
    493000   0.93697008     0.0023323615  -0.0013968878   20.952147      19.560746      1.3914006     -1.0887057      18466.354    
    494000   1.1046146      0.0023323615  -0.0026188453   21.115712      19.475359      1.6403526     -1.0916974      18444.719    
    495000   1.0590755      0.0023323615  -0.0016862      20.789353      19.216625      1.5727272     -1.2906991      18475.877    
    496000   0.87137698     0.0023323615  -0.00052473183  20.334425      19.040431      1.2939948     -1.3405138      18289.145    
    497000   0.85843994     0.0023323615  -0.0026629088   20.751602      19.476818      1.2747833     -1.0001881      18588.793    
    498000   0.91225228     0.0023323615  -0.0017414107   20.823639      19.468944      1.3546946     -1.0524745      19327.89     
    499000   1.1171114      0.0023323615  -0.0010646515   20.99361       19.3347        1.6589104     -1.0875501      20021.928    
    500000   1.0121278      0.0023323615  -0.0014982651   20.765175      19.262166      1.5030098     -1.2122638      19294.383    
    501000   1.0772241      0.0023323615  -0.0006412926   21.088601      19.488924      1.5996777     -1.0192093      18616.523    
    502000   1.0878648      0.0023323615   0.0008093694   20.951633      19.336154      1.6154793     -1.2661267      18407.495    
    503000   1.0111442      0.0023323615  -0.00070281361  20.845483      19.343934      1.5015492     -1.2004105      18342.928    
    504000   0.93471645     0.0023323615  -0.0027970703   20.656908      19.268854      1.3880539     -1.2273549      18442.368    
    505000   1.0305178      0.0023323615  -0.0019041415   20.782588      19.252269      1.5303189     -1.2708108      18420.269    
    506000   0.95085506     0.0023323615  -0.00021003773  20.660781      19.248761      1.4120198     -1.2586828      18296.684    
    507000   0.98463893     0.0023323615  -0.0044203967   20.831106      19.368917      1.4621888     -1.1782975      18374.135    
    508000   0.89629407     0.0023323615   0.0022850906   20.685425      19.354428      1.3309967     -1.1230187      18397.293    
    509000   1.2750807      0.0023323615   0.0016134928   21.467261      19.573766      1.8934948     -1.098926       18332.494    
    510000   1.0501879      0.0023323615  -0.003574573    21.206458      19.646929      1.5595291     -0.94614566     18588.997    
    511000   0.85145736     0.0023323615  -0.0049566091   20.628689      19.364275      1.2644142     -1.1551474      18571.275    
    512000   0.99295575     0.0023323615   0.0011320317   20.863251      19.388712      1.4745393     -1.0238063      18501.148    
    513000   0.87035147     0.0023323615   0.00126788     20.654388      19.361916      1.2924719     -1.0880992      18778.819    
    514000   0.8622105      0.0023323615   0.0011947395   20.790649      19.510266      1.2803826     -1.1017421      18642.347    
    515000   1.039232       0.0023323615  -0.0021959424   20.825592      19.282333      1.5432594     -1.217945       18343.892    
    516000   0.98693686     0.0023323615  -0.0034693072   21.059695      19.594094      1.4656012     -1.0129486      18318.067    
    517000   1.1036061      0.0023323615  -0.0012422352   21.311357      19.672502      1.6388551     -0.86732132     18539.392    
    518000   1.07769        0.0023323615   0.00059039474  21.155802      19.555433      1.6003696     -0.99946001     18401.17     
    519000   1.0942899      0.0023323615  -0.0024725028   20.998215      19.373195      1.6250205     -1.1436879      18352.236    
    520000   1.0031489      0.0023323615   0.0010121271   20.889335      19.399659      1.4896761     -1.2243594      18326.833    
    521000   0.92956228     0.0023323615   0.00090323233  20.80973       19.42933       1.3804        -0.97284133     18260.416    
    522000   0.93598664     0.0023323615  -0.0018828163   20.675742      19.285802      1.3899402     -1.1701653      18317.103    
    523000   0.90884067     0.0023323615   0.0020613842   20.805224      19.455596      1.3496284     -1.0321069      18190.355    
    524000   0.88303417     0.0023323615   0.00089174665  20.811833      19.500527      1.3113057     -0.87696507     18378.723    
    525000   0.99472991     0.0023323615  -0.0019335732   20.713118      19.235944      1.4771739     -1.2135438      18258.866    
    526000   0.97665708     0.0023323615   0.0043509235   20.661034      19.210698      1.4503358     -1.1860047      18356.77     
    527000   0.85532072     0.0023323615  -0.0010434407   20.422179      19.152027      1.2701513     -1.2797219      18411.101    
    528000   0.9606647      0.0023323615   0.0050173509   21.031476      19.604889      1.4265871     -1.0282364      18536.014    
    529000   0.94733339     0.0023323615  -0.0018946591   21.235013      19.828223      1.4067901     -0.84534493     19045.118    
    530000   1.0358355      0.0023323615   0.0049266753   21.131746      19.59353       1.5382158     -0.98920479     20004.993    
    531000   1.1625052      0.0023323615   1.1896195e-05  21.346148      19.619828      1.7263202     -0.88357209     20593.833    
    532000   0.93450921     0.0023323615  -0.0046893377   20.975962      19.588216      1.3877462     -0.96460738     19153.559    
    533000   0.99832271     0.0023323615  -0.0010265427   20.791633      19.309124      1.4825092     -1.3127715      18443.482    
    534000   0.93306445     0.0023323615  -0.00035744261  20.803996      19.418395      1.3856007     -1.0987536      18271.327    
    535000   0.79545848     0.0023323615   0.00050268778  20.727214      19.545958      1.1812558     -1.0699886      18597.005    
    536000   0.91983131     0.0023323615   0.00068708022  20.976834      19.610885      1.3659495     -1.0909619      18719.145    
    537000   1.0347545      0.0023323615   0.0039978579   21.004667      19.468057      1.5366104     -1.0769887      18505.329    
    538000   1.0107037      0.0023323615  -0.0019981257   20.656904      19.156009      1.500895      -1.3129701      18235.016    
    539000   0.99872386     0.0023323615   0.00036744253  20.76588       19.282776      1.4831049     -1.2980951      18285.878    
    540000   1.0551571      0.0023323615  -0.0010213695   21.046184      19.479276      1.5669082     -1.1035374      18415.847    
    541000   1.0361152      0.0023323615   0.0045056211   20.786466      19.247835      1.538631      -1.199239       18591.289    
    542000   1.0359196      0.0023323615  -0.0034059322   21.037317      19.498976      1.5383407     -1.1029813      19016.211    
    543000   1.0029382      0.0023323615   0.00032721494  21.184354      19.694991      1.4893633     -0.88551339     20753.813    
    544000   0.94691527     0.0023323615  -0.00062870027  21.055815      19.649646      1.4061692     -0.87944067     20580.406    
    545000   0.90478792     0.0023323615   0.0008232892   20.600971      19.257361      1.3436101     -1.169553       19062.599    
    546000   0.97446756     0.0023323615  -0.0017089138   20.90348       19.456396      1.4470843     -1.1274524      18360.842    
    547000   1.0244385      0.0023323615   0.00019080963  20.982498      19.461207      1.5212911     -1.042894       18362.754    
    548000   1.0517167      0.0023323615   0.0017291992   21.155013      19.593214      1.5617993     -0.86384614     18661.074    
    549000   0.91112452     0.0023323615   0.0026046553   20.798405      19.445385      1.3530199     -0.91976647     19103.166    
    550000   1.0555425      0.0023323615   1.1542837e-06  21.155108      19.587627      1.5674807     -1.0333822      19737.395    
    551000   0.93755165     0.0023323615  -0.00083247757  20.982821      19.590556      1.3922642     -1.0020657      19946.988    
    552000   0.97645082     0.0023323615  -0.0012488974   20.64918       19.199151      1.4500295     -1.1495034      20331.953    
    553000   1.1319558      0.0023323615   0.0034880988   21.077647      19.396693      1.6809544     -1.0078252      19428.584    
    554000   1.0610526      0.0023323615  -0.0049461818   21.173556      19.597893      1.5756632     -0.96408534     19015.501    
    555000   1.0974814      0.0023323615   0.00030796096  21.095208      19.465448      1.6297599     -1.0471962      18732.003    
    556000   1.0436704      0.0023323615  -0.00052830493  20.986971      19.43712       1.5498505     -1.158411       18730.895    
    557000   0.99609878     0.0023323615  -0.0066893676   21.099514      19.620307      1.4792067     -0.99016657     18808.249    
    558000   1.0596071      0.0023323615   0.0020557112   21.132712      19.559196      1.5735165     -0.9368355      18694.725    
    559000   0.83363795     0.0023323615  -0.0038460983   20.71992       19.481967      1.2379524     -1.0814447      18522.517    
    560000   1.2343186      0.0023323615  -0.0010759802   21.252752      19.419789      1.8329631     -1.108349       18485.119    
    561000   0.99076629     0.0023323615  -0.0014643965   20.941333      19.470045      1.4712879     -1.0806891      18532.304    
    562000   0.96759064     0.0023323615   0.00029916873  20.819982      19.38311       1.4368721     -1.1906996      18614.828    
    563000   1.0937391      0.0023323615   0.0022319499   21.079819      19.455617      1.6242026     -1.0003026      18639.51     
    564000   0.95531193     0.0023323615   0.00013204491  21.147092      19.728454      1.4186382     -0.8592854      18721.227    
    565000   1.1393479      0.0023323615   0.00026276705  21.047608      19.355677      1.6919316     -1.1673181      18656.484    
    566000   1.0323428      0.0023323615   0.0015170444   20.95819       19.425161      1.533029      -1.1437946      18593.031    
    567000   0.92797495     0.0023323615   0.0028716576   20.797892      19.41985       1.3780428     -1.0007368      18681.537    
    568000   0.86502808     0.0023323615  -0.00057391736  20.618611      19.334045      1.2845667     -1.0915747      18737.566    
    569000   0.90654314     0.0023323615   0.0012239063   20.664027      19.317811      1.3462166     -1.1670743      18616.478    
    570000   0.9412686      0.0023323615   0.00010940069  20.884975      19.487191      1.3977839     -0.96971064     18615.759    
    571000   1.0075903      0.0023323615   0.001852745    21.098825      19.602554      1.4962715     -0.91798733     18764.362    
    572000   1.0625311      0.0023323615  -0.0017564785   21.329129      19.75127       1.5778588     -0.75842611     18807.831    
    573000   1.0138597      0.0023323615   9.1808871e-05  20.989442      19.48386       1.5055816     -0.97780624     1005.6196    
    574000   1.0361075      0.0023323615  -8.8735163e-05  20.830291      19.291672      1.5386196     -1.0538454      18449.83     
    575000   1.0562324      0.0023323615   0.0029705124   21.089344      19.520838      1.5685052     -1.0365953      18638.201    
    576000   1.143054       0.0023323615  -1.7436098e-06  21.225805      19.52837       1.6974352     -1.1460472      18350.472    
    577000   1.0797899      0.0023323615   0.00031016554  21.325677      19.722189      1.603488      -0.93401972     18461.333    
    578000   0.91559321     0.0023323615  -0.0021189575   21.095925      19.736269      1.3596559     -0.82880753     18646.279    
    579000   1.1182358      0.0023323615   0.0018566277   21.032489      19.371909      1.6605802     -1.080397       18631.761    
    580000   1.0693029      0.0023323615   0.0013243427   21.025792      19.437877      1.5879148     -1.1636555      18319.735    
    581000   1.0685188      0.0023323615  -0.00041607805  21.089321      19.502571      1.5867504     -1.0297877      19105.711    
    582000   1.1072379      0.0023323615   0.0034735736   21.019811      19.375563      1.6442482     -1.111966       19020.345    
    583000   0.87950712     0.0023323615   0.00070891218  20.874795      19.568727      1.3060681     -0.9236006      19143.126    
    584000   1.210725       0.0023323615   0.0025768921   21.344696      19.546769      1.7979267     -0.85397745     18729.078    
    585000   0.89856709     0.0023323615   0.0012756029   20.575268      19.240896      1.3343721     -1.2241607      18590.902    
    586000   1.1034651      0.0023323615  -0.0027357232   21.046117      19.407471      1.6386457     -1.1500616      18507.865    
    587000   1.0087323      0.0023323615  -0.0026746649   20.944436      19.446469      1.4979675     -1.1215011      18454.377    
    588000   1.0940373      0.0023323615   0.0048713298   21.187227      19.562581      1.6246454     -1.0425         18459.541    
    589000   0.85312203     0.0023323615   0.00043022692  20.845721      19.578835      1.2668862     -0.96396308     18505.713    
    590000   1.041332       0.0023323615   0.00026410603  20.874752      19.328374      1.546378      -1.1293176      18564.374    
    591000   0.94480353     0.0023323615   0.0017731761   21.175249      19.772216      1.4030332     -0.9420063      18349.463    
    592000   1.0571265      0.0023323615   0.0027281831   20.840036      19.270203      1.5698329     -1.2456774      18358.93     
    593000   1.024759       0.0023323615   0.0037991815   20.95409       19.432323      1.5217671     -1.0663154      18404.088    
    594000   1.0360553      0.0023323615  -0.0019278077   20.891511      19.352969      1.5385422     -1.167649       18347.372    
    595000   0.94211741     0.0023323615  -0.0032768216   20.930275      19.531231      1.3990444     -1.0229853      18575.799    
    596000   0.76202613     0.0023323615  -0.0047074661   20.811268      19.67966       1.1316088     -0.86055662     19391.951    
    597000   1.006186       0.0023323615   0.0012180269   21.142508      19.648322      1.4941862     -0.88768503     20247.353    
    598000   0.92654392     0.0023323615  -0.0013149797   21.096607      19.720689      1.3759177     -0.87271222     19738.562    
    599000   0.94557362     0.0023323615  -0.002295908    21.090854      19.686677      1.4041768     -0.9076922      19001.86     
    600000   0.93056609     0.0023323615  -0.0030473279   20.830988      19.449098      1.3818906     -0.96758825     18649.073    
    601000   1.0413681      0.0023323615   0.0023791343   21.0987        19.552269      1.5464316     -1.0565503      18507.765    
    602000   0.95178559     0.0023323615   0.00091569417  20.923454      19.510052      1.4134016     -1.0450509      18411.438    
    603000   1.1055535      0.0023323615   0.0033540374   21.228057      19.58631       1.6417469     -1.0465571      18540.518    
    604000   0.86261802     0.0023323615  -0.0037589679   20.55492       19.273933      1.2809878     -1.1839036      18590.334    
    605000   1.0517326      0.0023323615  -0.0028766938   20.940339      19.378516      1.561823      -1.2079772      18467.683    
    606000   0.91155588     0.0023323615  -0.00078612364  20.704279      19.350618      1.3536605     -1.1314376      18232.378    
    607000   1.0494104      0.0023323615   0.00075236091  20.923581      19.365206      1.5583745     -1.0751436      18367.251    
    608000   0.9244409      0.0023323615   0.00012133953  20.823161      19.450366      1.3727947     -1.0269353      18378.266    
    609000   0.92995966     0.0023323615  -0.0027570448   20.841409      19.460419      1.3809901     -1.0785332      18427.693    
    610000   0.90261518     0.0023323615  -0.0027592092   20.740224      19.39984       1.3403835     -0.99675651     18447.729    
    611000   0.97434256     0.0023323615   0.002081855    21.039094      19.592195      1.4468987     -0.98791387     18409.36     
    612000   1.0304596      0.0023323615  -0.0018803973   20.930332      19.4001        1.5302325     -1.1363163      18447.293    
    613000   1.1403224      0.0023323615  -0.0013806948   21.239284      19.545906      1.6933787     -0.94882092     18531.619    
    614000   0.99089126     0.0023323615   0.0010320188   20.734414      19.26294       1.4714735     -1.2075561      18502.79     
    615000   0.98517644     0.0023323615   0.0031270163   20.628209      19.165222      1.462987      -1.3762823      18414.858    
    616000   0.89131379     0.0023323615  -0.00075665784  20.54554       19.221939      1.323601      -1.3372585      18322.806    
    617000   0.94173477     0.0023323615   0.0038579333   20.655481      19.257004      1.3984761     -1.1209666      18228.532    
    618000   1.0243143      0.0023323615   0.00084539507  20.766945      19.245839      1.5211068     -1.1280474      18337.007    
    619000   1.1244366      0.0023323615  -0.0011364013   20.970374      19.300586      1.6697884     -1.2607202      18426.788    
    620000   1.0493246      0.0023323615  -0.0010287019   20.993801      19.435554      1.558247      -1.1123597      18591.902    
    621000   0.9669214      0.0023323615  -0.0023385377   20.775126      19.339248      1.4358783     -1.0641895      18455.199    
    622000   1.055972       0.0023323615   0.0060942146   21.161544      19.593426      1.5681185     -1.0246668      18551.479    
    623000   0.97898411     0.0023323615  -0.0022823654   21.220054      19.766262      1.4537914     -1.0169177      18670.338    
    624000   1.0558205      0.0023323615  -0.001139505    20.853897      19.286004      1.5678934     -1.2912771      18254.973    
    625000   0.99313566     0.0023323615  -0.0019030569   20.807365      19.332559      1.4748065     -1.2294999      18391.141    
    626000   0.86286517     0.0023323615   0.001147207    20.724933      19.443578      1.2813548     -1.0853598      18212.703    
    627000   0.9300269      0.0023323615   0.0026599378   20.915671      19.534581      1.3810899     -1.1165558      18476.517    
    628000   0.96045366     0.0023323615  -0.0012437133   20.839712      19.413439      1.4262737     -1.0611473      18558.899    
    629000   1.0604098      0.0023323615  -0.0013166071   21.069847      19.495138      1.5747085     -1.0340986      18562.326    
    630000   1.0006622      0.0023323615  -0.00052886343  20.938856      19.452872      1.4859834     -1.1996094      18558.758    
    631000   0.96598378     0.0023323615  -0.0029124685   20.849107      19.414621      1.4344859     -1.0611939      18492.917    
    632000   0.92976491     0.0023323615  -0.0019438433   20.812593      19.431892      1.3807009     -1.0531308      18458.223    
    633000   1.0666012      0.0023323615   0.00071157066  20.864058      19.280155      1.5839028     -1.1755371      18461.668    
    634000   1.0605216      0.0023323615   0.0018365021   20.96891       19.394035      1.5748745     -1.0913692      18382.26     
    635000   1.141736       0.0023323615  -0.00083085024  21.258428      19.56295       1.6954779     -0.83677311     18779.932    
    636000   0.99938411     0.0023323615   0.0012653523   21.094926      19.610841      1.4840854     -0.90811289     20098.481    
    637000   1.0044161      0.0023323615  -0.0016397427   20.996185      19.504627      1.491558      -1.0291401      20900.689    
    638000   0.86502062     0.0023323615   9.9312885e-05  20.921415      19.636859      1.2845556     -0.90209244     20635.293    
    639000   1.0077869      0.0023323615   0.00023249181  21.059693      19.563129      1.4965636     -0.97963992     20324.401    
    640000   0.96573282     0.0023323615   0.0016652214   20.83151       19.397396      1.4341132     -1.1049116      19218.77     
    641000   1.1163492      0.0023323615   0.0011548805   20.884141      19.226362      1.6577786     -1.1988007      18356.25     
    642000   1.1233482      0.0023323615  -0.0062206047   21.358768      19.690596      1.668172      -1.0276         18353.431    
    643000   0.94968099     0.0023323615  -0.0026131186   20.852235      19.441959      1.4102763     -1.1176401      18178.452    
    644000   1.0522298      0.0023323615  -0.002063779    21.003634      19.441073      1.5625613     -1.0668056      18295.957    
    645000   0.92331824     0.0023323615   0.0002218581   20.729167      19.358039      1.3711276     -1.3564038      18407.136    
    646000   1.0185249      0.0023323615   0.0044222222   20.745622      19.233113      1.5125095     -1.3058031      18206.646    
    647000   0.98981498     0.0023323615  -0.00048865927  20.942742      19.472866      1.4698752     -1.0659001      18295.866    
    648000   1.0798554      0.0023323615   0.0015377151   20.913784      19.310198      1.6035853     -1.2065716      18517.018    
    649000   0.99098541     0.0023323615  -0.00097936578  20.791575      19.319962      1.4716133     -1.2868287      18349.905    
    650000   0.89157149     0.0023323615  -0.00060916538  20.506895      19.182911      1.3239837     -1.315809       18352.361    
    651000   0.87812342     0.0023323615   0.0043405752   20.581352      19.277338      1.3040133     -1.2233541      18362.159    
    652000   0.94391629     0.0023323615  -0.001704236    20.71483       19.313114      1.4017157     -1.126224       18449.523    
    653000   0.93603929     0.0023323615  -0.0039242539   20.822486      19.432468      1.3900184     -1.1004322      18481.662    
    654000   0.88191455     0.0023323615   0.00023108697  20.963876      19.654233      1.3096431     -0.90519204     18567.8      
    655000   1.1091985      0.0023323615   0.0047839606   21.355884      19.708724      1.6471598     -0.80949183     18588.146    
    656000   0.9916023      0.0023323615  -0.0011753945   20.780284      19.307755      1.4725294     -1.0570441      18575.008    
    657000   0.89885563     0.0023323615  -0.00060937482  20.786801      19.452         1.3348006     -1.1107148      18455.271    
    658000   1.0184197      0.0023323615   0.00038592106  20.996631      19.484278      1.5123532     -0.96745477     18438.177    
    659000   1.0185111      0.0023323615  -0.00043719451  21.047819      19.53533       1.5124889     -0.87697676     18868.7      
    660000   0.97637041     0.0023323615  -0.0018770727   20.903526      19.453616      1.4499101     -1.0278789      19235.993    
    661000   0.94545662     0.0023323615  -0.0063246994   21.190338      19.786335      1.4040031     -0.94669448     19568.991    
    662000   0.9274457      0.0023323615  -0.0034944433   21.08338       19.706123      1.3772569     -0.84024188     19836.467    
    663000   0.8849819      0.0023323615  -0.0002392932   20.629505      19.315307      1.3141981     -1.1356011      19321.955    
    664000   1.0062576      0.0023323615   0.0014658623   20.743448      19.249155      1.4942925     -1.3298453      18312.233    
    665000   1.0581087      0.0023323615  -0.00033089926  20.815331      19.24404       1.5712914     -1.324581       18225.46     
    666000   1.1033284      0.0023323615   0.00012500812  20.923502      19.28506       1.6384427     -1.2268874      18199.174    
    667000   1.0414631      0.0023323615   0.0015431602   21.096648      19.550075      1.5465728     -1.0695716      18247.527    
    668000   1.0310356      0.0023323615   0.0037784052   20.876897      19.345809      1.5310879     -1.1461605      18444.068    
    669000   0.91856258     0.0023323615  -0.0023151394   21.01653       19.652465      1.3640654     -0.9480289      18437.918    
    670000   0.99075188     0.0023323615   0.002424819    20.993183      19.521916      1.4712665     -0.96070393     18691.711    
    671000   0.92104532     0.0023323615   0.002056276    20.762773      19.395021      1.3677523     -1.2023905      18450.065    
    672000   1.0420286      0.0023323615  -0.0011933708   20.817016      19.269604      1.5474125     -1.2296144      18341.381    
    673000   1.0389465      0.0023323615  -0.0022198977   20.969563      19.426727      1.5428356     -1.087651       18375.816    
    674000   1.0110738      0.0023323615   0.0013039434   20.807809      19.306364      1.5014446     -1.1605121      18280.127    
    675000   0.91057254     0.0023323615   0.0028436193   20.961451      19.609251      1.3522002     -1.0801886      18204.043    
    676000   1.1448147      0.0023323615  -0.002635188    21.077472      19.377423      1.7000499     -1.2140591      18158.183    
    677000   1.1231101      0.0023323615   0.0019908511   21.061232      19.393414      1.6678185     -1.2198256      18452.93     
    678000   1.0774814      0.0023323615   0.0011568583   20.857289      19.25723       1.6000598     -1.334849       18357.894    
    679000   1.012951       0.0023323615   0.001784104    20.762718      19.258486      1.5042322     -1.1703696      18407.36     
    680000   0.9169713      0.0023323615  -0.0011416618   20.867219      19.505517      1.3617024     -0.93420468     18529.603    
    681000   0.92712715     0.0023323615  -0.00053202328  20.760398      19.383614      1.3767838     -1.075883       18403.304    
    682000   0.87931985     0.0023323615   0.002718265    20.869868      19.564078      1.30579       -0.98720327     18469.388    
    683000   0.89505363     0.0023323615   0.0013323041   20.721211      19.392056      1.3291546     -1.1717641      18359.531    
    684000   0.96461072     0.0023323615   0.00052967423  20.795158      19.362711      1.4324469     -1.2303298      18157.826    
    685000   1.0993586      0.0023323615   0.00092838295  20.791593      19.159046      1.6325475     -1.4058772      18089.331    
    686000   1.0376845      0.0023323615  -0.0023015119   20.947848      19.406886      1.5409615     -1.165799       18205.597    
    687000   0.98988536     0.0023323615   0.0031284206   20.757185      19.287206      1.4699798     -1.1810817      18265.218    
    688000   0.98942599     0.0023323615   0.0025733528   20.843116      19.373819      1.4692976     -1.2005029      18143.794    
    689000   0.92918588     0.0023323615   0.0026730271   20.753254      19.373413      1.379841      -1.0514399      18325.648    
    690000   0.86589906     0.0023323615  -0.0012341944   20.705668      19.419808      1.2858601     -1.0978387      18497.798    
    691000   1.0564231      0.0023323615   0.0006789896   20.983041      19.414253      1.5687883     -1.0668131      18591.366    
    692000   1.1022247      0.0023323615  -0.004178922    20.954477      19.317673      1.6368037     -1.1930269      18561.077    
    693000   1.0798675      0.0023323615  -0.0025221067   20.797967      19.194363      1.6036032     -1.2323875      18483.182    
    694000   0.8860205      0.0023323615   0.00076628902  20.656187      19.340447      1.3157404     -1.1765015      18393.662    
    695000   1.0573476      0.0023323615   0.00011071135  21.072903      19.502742      1.5701612     -0.90118643     18492.147    
    696000   0.90986456     0.0023323615   0.00060640515  20.843762      19.492613      1.3511489     -1.0318451      18615.009    
    697000   0.87950768     0.0023323615   0.0012536634   20.796672      19.490603      1.3060689     -1.043614       18642.688    
    698000   0.96468732     0.0023323615   0.0010191091   21.139551      19.70699       1.4325607     -0.81920514     18700.245    
    699000   0.95668733     0.0023323615   0.00015044788  20.881263      19.460582      1.4206807     -1.025106       18827.865    
    700000   0.96298831     0.0023323615  -0.0066071558   21.01873       19.588692      1.4300376     -0.93102752     18789.325    
    701000   0.98000929     0.0023323615   0.00052631224  20.851995      19.396682      1.4553138     -1.0370018      18719.851    
    702000   0.95624257     0.0023323615   0.0035437483   20.676454      19.256434      1.4200202     -1.2644683      18535.577    
    703000   0.91220964     0.0023323615  -0.0018796463   20.780874      19.426243      1.3546313     -1.0432515      18569.993    
    704000   1.1044258      0.0023323615   0.00061068138  21.20915       19.569078      1.6400723     -0.97063036     19366.632    
    705000   1.0468897      0.0023323615   0.0023431923   21.113599      19.558968      1.5546311     -0.84909617     19242.987    
    706000   0.98459176     0.0023323615   0.00089307207  20.821345      19.359226      1.4621188     -1.1275641      18524.524    
    707000   0.95323627     0.0023323615   0.0019492197   20.760408      19.344852      1.4155559     -1.1123225      18657.069    
    708000   1.0077424      0.0023323615  -0.0015209609   21.065713      19.569215      1.4964975     -0.92724568     19006.756    
    709000   0.98986401     0.0023323615   0.00097219799  21.077981      19.608033      1.4699481     -0.91297423     19534.182    
    710000   1.0768123      0.0023323615   0.0017846202   21.333824      19.734758      1.5990663     -0.87014636     19857.572    
    711000   1.0183379      0.0023323615  -0.0012052528   21.015216      19.502985      1.5122318     -1.064822       19400.338    
    712000   0.96312661     0.0023323615   0.002014473    20.994119      19.563876      1.430243      -1.007393       18754.863    
    713000   0.87695505     0.0023323615  -0.00050944852  20.67667       19.374392      1.3022782     -1.1065182      18314.054    
    714000   1.0968663      0.0023323615  -0.0026044316   20.991838      19.362992      1.6288465     -1.1844979      18283.553    
    715000   1.05207        0.0023323615   0.0032854589   20.986064      19.42374       1.562324      -1.1411536      18288.977    
    716000   0.95983516     0.0023323615  -0.00054546021  20.64797       19.222614      1.4253552     -1.35523        18211.756    
    717000   1.0783117      0.0023323615   0.0035307319   20.83362       19.232328      1.6012929     -1.336051       18165.062    
    718000   1.0757192      0.0023323615  -0.0024045714   21.120629      19.523186      1.5974431     -1.069349       18347.045    
    719000   0.96348712     0.0023323615   0.0027839497   20.926995      19.496216      1.4307784     -0.99639213     18482.107    
    720000   1.0003147      0.0023323615  -0.0017501067   20.599788      19.114321      1.4854674     -1.300899       18406.06     
    721000   0.9404846      0.0023323615  -0.0035044963   20.813921      19.417302      1.3966196     -1.3708266      18342.706    
    722000   0.88201599     0.0023323615  -0.001702044    20.912182      19.602388      1.3097938     -1.1166326      18370.578    
    723000   1.0326702      0.0023323615   0.0017343744   20.955643      19.422128      1.5335152     -1.0987882      18393.259    
    724000   0.92866553     0.0023323615   0.0016761619   20.498427      19.119359      1.3790683     -1.3636841      18436.086    
    725000   0.90771438     0.0023323615   0.0012900273   20.570498      19.222542      1.3479559     -1.2242263      18396.249    
    726000   0.97012908     0.0023323615   0.0017217154   20.799434      19.358793      1.4406417     -1.0909371      18477.745    
    727000   0.9458838      0.0023323615  -0.0018008462   21.133128      19.728491      1.4046374     -0.89805192     18582.349    
    728000   1.0378042      0.0023323615  -0.0015411953   20.828848      19.287708      1.5411393     -1.1231354      18658.506    
    729000   0.96765354     0.0023323615  -0.00022272285  20.86057       19.423604      1.4369655     -1.046985       18466.084    
    730000   0.97582495     0.0023323615   0.002463761    20.783334      19.334234      1.4491001     -1.248124       18593.045    
    731000   0.95320606     0.0023323615   0.00052279976  20.902952      19.487441      1.415511      -1.1115661      18731.655    
    732000   0.95295841     0.0023323615  -0.0030010763   20.753165      19.338022      1.4151432     -1.1788431      18580.17     
    733000   1.0733804      0.0023323615  -0.00074637558  20.918978      19.325008      1.5939699     -1.1105147      18423.305    
    734000   1.0408575      0.0023323615   0.0043022112   20.960379      19.414705      1.5456734     -1.0200818      18844.063    
    735000   0.92223212     0.0023323615  -0.0023961839   20.649612      19.280097      1.3695147     -1.1685834      19189.2      
    736000   1.0186375      0.0023323615  -0.0016386611   21.104955      19.592278      1.5126767     -1.0179815      18837.779    
    737000   0.92039155     0.0023323615   0.0014548371   20.643674      19.276892      1.3667815     -1.1918345      18578.32     
    738000   0.97265794     0.0023323615   0.0034183194   20.626752      19.182355      1.444397      -1.1827159      18424.355    
    739000   1.0956963      0.0023323615  -0.0028246082   20.916332      19.289223      1.627109      -1.3481373      18537.233    
    740000   0.87247724     0.0023323615   0.00031858275  20.672651      19.377023      1.2956287     -1.1857181      18628.249    
    741000   0.9741993      0.0023323615  -0.0033232636   20.739608      19.292922      1.446686      -1.1621892      18631.518    
    742000   0.94803292     0.0023323615  -0.0016532618   20.777482      19.369653      1.4078289     -1.2086169      18466.388    
    743000   0.94998321     0.0023323615  -0.001482679    20.695073      19.284347      1.4107251     -1.3241641      18503.727    
    744000   0.92863563     0.0023323615   0.0016916255   20.708082      19.329058      1.3790239     -1.2021168      18519.754    
    745000   1.0720503      0.0023323615   0.00016367585  20.79002       19.198025      1.5919948     -1.1671115      18263.139    
    746000   1.0202913      0.0023323615  -0.00031892605  21.030338      19.515205      1.5151326     -0.9742184      18690.468    
    747000   1.1092143      0.0023323615   0.00066783292  21.372208      19.725025      1.6471832     -0.92959876     18721.88     
    748000   0.8161991      0.0023323615   0.0031624626   20.553386      19.34133       1.2120557     -1.1066579      18711.319    
    749000   1.0888983      0.0023323615   0.0015507289   20.763941      19.146927      1.617014      -1.2963791      18429.149    
    750000   0.88706637     0.0023323615   0.0016901299   20.722005      19.404711      1.3172936     -1.0894528      18598.72     
    751000   1.0396555      0.0023323615   0.002601079    20.901133      19.357245      1.5438884     -1.124499       18576.802    
    752000   0.86073174     0.0023323615  -0.0025572989   20.608731      19.330545      1.2781866     -1.1825474      18525.17     
    753000   1.2664992      0.0023323615  -0.0019383346   21.361568      19.480817      1.8807513     -0.98317919     18486.656    
    754000   0.95285633     0.0023323615   0.00090089315  20.758686      19.343694      1.4149916     -1.1632867      18580.187    
    755000   0.8788612      0.0023323615   0.0022019524   20.431526      19.126417      1.3051089     -1.3179636      18523.603    
    756000   0.95980362     0.0023323615   0.00024555939  20.570352      19.145043      1.4253084     -1.4656766      18380.727    
    757000   1.011992       0.0023323615   0.0016543001   20.788872      19.286064      1.5028082     -1.1877415      18410.82     
    758000   1.0118007      0.0023323615  -0.0014090313   20.741502      19.238977      1.5025241     -1.3950971      18503.847    
    759000   0.8715684      0.0023323615  -0.0021110453   20.496634      19.202354      1.2942791     -1.3834071      18464.438    
    760000   1.006533       0.0023323615  -0.0015813757   20.82393       19.329228      1.4947015     -1.151193       18466.351    
    761000   0.95491656     0.0023323615  -0.0058039522   20.994261      19.57621       1.4180511     -0.88383262     18701.139    
    762000   0.93818591     0.0023323615  -0.00049810792  20.964041      19.570835      1.3932061     -0.97609155     18855.401    
    763000   1.1731734      0.0023323615   0.0018939193   21.372051      19.629889      1.7421625     -0.96274378     18773.877    
    764000   1.145171       0.0023323615   0.0030374468   21.171483      19.470904      1.7005789     -0.9527183      18670.572    
    765000   0.92975601     0.0023323615  -0.0019736082   21.038933      19.658245      1.3806877     -0.84277569     18609.324    
    766000   1.0077942      0.0023323615  -0.0015245405   20.802874      19.3063        1.4965743     -1.1488251      18338.571    
    767000   1.0761863      0.0023323615   0.0037837784   21.181207      19.58307       1.5981367     -0.87315538     18272.926    
    768000   0.95932316     0.0023323615  -0.0013251985   20.895937      19.471342      1.4245949     -1.086915       18278.561    
    769000   1.0028177      0.0023323615   0.0012440924   20.763805      19.274621      1.4891842     -1.1587142      18381.482    
    770000   1.2113603      0.0023323615   3.7590913e-05  21.139272      19.340402      1.79887       -1.1618046      18335.946    
    771000   1.1136484      0.0023323615  -0.00067251168  21.188967      19.535199      1.6537679     -1.1752673      18330.764    
    772000   0.96687256     0.0023323615  -0.00079019942  20.605965      19.170159      1.4358058     -1.3666779      18281.447    
    773000   0.98463408     0.0023323615   0.0050573932   20.712434      19.250253      1.4621816     -1.2666956      18203.847    
    774000   1.0576432      0.0023323615  -0.00079785544  20.905609      19.335009      1.5706002     -1.102766       18645.237    
    775000   0.9505212      0.0023323615   0.0023405641   20.733865      19.322341      1.411524      -1.1291401      18633.896    
    776000   1.0507033      0.0023323615  -0.0019888553   21.269936      19.709641      1.5602944     -0.83320819     18471.357    
    777000   1.0097737      0.0023323615   0.00078131006  20.807803      19.308289      1.4995139     -1.1560312      18595.345    
    778000   0.87124273     0.0023323615  -0.0019218993   20.464512      19.170716      1.2937955     -1.2534052      18540.865    
    779000   1.0208112      0.0023323615  -0.0017772213   20.994578      19.478673      1.5159046     -1.0724671      18541.541    
    780000   1.0403891      0.0023323615  -0.0034389534   21.189781      19.644803      1.5449778     -0.992208       18603.722    
    781000   0.98854528     0.0023323615  -0.0012238542   20.836487      19.368498      1.4679897     -1.2442168      18431.398    
    782000   0.8833243      0.0023323615   0.00076344817  20.574567      19.262831      1.3117366     -1.2583437      18408.684    
    783000   0.88379018     0.0023323615  -0.0012673049   20.719649      19.407221      1.3124284     -1.0589475      18479.613    
    784000   1.0446266      0.0023323615   0.0011657127   21.140048      19.588778      1.5512705     -1.0024981      18563.652    
    785000   1.086988       0.0023323615  -0.003693607    20.99976       19.385583      1.6141771     -1.1567681      18409.414    
    786000   1.0544817      0.0023323615   0.0030515878   21.10958       19.543675      1.5659054     -0.97199322     18611.264    
    787000   0.92844924     0.0023323615   0.0065434913   21.010067      19.63132       1.3787471     -0.86349445     18845.312    
    788000   1.0546944      0.0023323615  -3.4834129e-06  20.915536      19.349315      1.5662212     -1.1407492      18699.38     
    789000   1.0640114      0.0023323615  -0.0030601727   20.788073      19.208016      1.5800569     -1.1518095      18513.546    
    790000   1.066278       0.0023323615  -0.0020994632   21.118987      19.535564      1.5834228     -1.0483309      18472.236    
    791000   1.0473012      0.0023323615  -0.0021288536   21.009605      19.454363      1.5552423     -1.0882004      18362.25     
    792000   1.0018402      0.0023323615   0.00073281459  20.985779      19.498046      1.4877327     -1.0277459      18380.046    
    793000   0.92205565     0.0023323615  -0.0056480214   20.909456      19.540204      1.3692526     -0.95747191     18619.346    
    794000   0.93062463     0.0023323615  -0.0017121038   20.669171      19.287193      1.3819776     -1.1984062      18600.221    
    795000   0.93123756     0.0023323615  -0.00040943919  20.665482      19.282595      1.3828878     -1.2544174      18597.972    
    796000   0.9850926      0.0023323615  -0.00012692727  20.573056      19.110193      1.4628625     -1.3052686      18388.407    
    797000   1.0899088      0.0023323615   0.00052895216  21.011327      19.392812      1.6185146     -1.190476       18504.111    
    798000   1.009859       0.0023323615  -0.0006388126   20.585646      19.086005      1.4996406     -1.5274901      18541.313    
    799000   0.95486804     0.0023323615  -0.0019493753   20.861783      19.443804      1.417979      -1.1354576      18431.905    
    800000   0.79784074     0.0023323615  -0.004378489    20.665807      19.481014      1.1847935     -1.0594998      18491.54     
    801000   0.91885588     0.0023323615  -0.0058812027   20.804842      19.440341      1.364501      -1.1849328      18732.681    
    802000   0.84498819     0.0023323615  -0.0015661368   20.728341      19.473533      1.2548075     -1.1511158      18786.131    
    803000   0.92706358     0.0023323615  -0.0028332442   20.835583      19.458893      1.3766894     -1.033676       18887.331    
    804000   0.98710035     0.0023323615  -0.0030131588   20.879276      19.413432      1.465844      -1.1480734      18845.17     
    805000   1.0659667      0.0023323615  -0.0010101662   21.32595       19.742989      1.5829605     -0.78493837     19115.993    
    806000   1.0772334      0.0023323615  -0.0017732016   21.020564      19.420873      1.5996915     -1.0397299      18839.606    
    807000   0.9320546      0.0023323615  -0.00049100492  20.961623      19.577522      1.3841011     -0.94128134     18609.668    
    808000   0.91870309     0.0023323615  -0.0016476689   20.720505      19.35623       1.3642741     -1.0970741      18421.39     
    809000   1.0452852      0.0023323615   0.0011453845   20.915312      19.363064      1.5522485     -1.1737907      18477.337    
    810000   0.9624126      0.0023323615   0.0028600689   21.080239      19.651057      1.4291827     -1.0952308      18653.067    
    811000   0.96906246     0.0023323615  -0.00061731961  20.951366      19.512308      1.4390578     -1.0122952      18871.936    
    812000   0.92285538     0.0023323615  -0.002920569    20.665114      19.294674      1.3704402     -1.1187724      18354.45     
    813000   0.86776924     0.0023323615   0.0024588489   20.652518      19.363881      1.2886373     -1.0609332      18611.361    
    814000   1.1226007      0.0023323615  -0.0042104825   20.846364      19.179302      1.667062      -1.3105187      18413.989    
    815000   1.1300793      0.0023323615  -0.0017853778   21.069435      19.391267      1.6781678     -1.1365777      18452.985    
    816000   0.94100352     0.0023323615  -0.0068341192   20.692555      19.295165      1.3973902     -1.3163695      18490.413    
    817000   0.99202761     0.0023323615   0.0027022667   20.738634      19.265473      1.473161      -1.2562328      18416.224    
    818000   0.96133747     0.0023323615  -0.0024918346   20.786971      19.359385      1.4275861     -1.2241405      18513.423    
    819000   0.9056813      0.0023323615  -0.0037347115   20.543073      19.198137      1.3449367     -1.3541314      18460.172    
    820000   1.0546931      0.0023323615  -0.0039021193   21.023827      19.457607      1.5662193     -1.0327414      18584.979    
    821000   0.96853003     0.0023323615   0.0014705478   21.020243      19.581976      1.4382671     -0.87704654     18946.612    
    822000   1.0440282      0.0023323615  -0.0019946887   21.029413      19.479031      1.5503819     -0.93115643     18961.532    
    823000   0.99452551     0.0023323615   0.0026062704   21.255275      19.778404      1.4768704     -0.94271144     18872.817    
    824000   0.85824946     0.0023323615  -0.003487511    20.827942      19.553442      1.2745004     -1.0049769      19972.121    
    825000   0.94033305     0.0023323615   0.0012384185   21.019726      19.623332      1.3963946     -1.0054009      21184.631    
    826000   0.95327855     0.0023323615  -0.0033465291   21.083276      19.667657      1.4156186     -0.89944592     21736.697    
    827000   0.86487057     0.0023323615  -0.0038802841   20.95975       19.675417      1.2843328     -0.92020678     20487.249    
    828000   0.94264459     0.0023323615   0.0048379308   20.927867      19.52804       1.3998272     -0.92682863     18712.484    
    829000   0.85179896     0.0023323615  -0.0014436643   20.835529      19.570608      1.2649215     -1.036449       18611.246    
    830000   0.96838769     0.0023323615  -0.0012267772   20.795474      19.357418      1.4380557     -1.1121554      18603.553    
    831000   0.85605227     0.0023323615  -0.00078901184  20.696405      19.425167      1.2712376     -1.1261624      18501.977    
    832000   0.96793355     0.0023323615  -0.0033629895   20.892063      19.454681      1.4373813     -1.0163608      18545.799    
    833000   0.90746437     0.0023323615   0.00085502137  20.719675      19.37209       1.3475846     -1.1434892      18641.915    
    834000   0.94980503     0.0023323615   0.0021465194   20.890998      19.480538      1.4104605     -1.102485       18683.062    
    835000   1.0597377      0.0023323615  -0.0027347705   20.659203      19.085492      1.5737105     -1.3840629      18667.614    
    836000   0.93339714     0.0023323615  -0.0024129362   20.870018      19.483924      1.3860948     -1.0343812      18746.23     
    837000   1.0314422      0.0023323615   0.0026500054   21.132895      19.601204      1.5316917     -0.88897006     19867.983    
    838000   0.99813494     0.0023323615  -0.000525362    21.00254       19.520309      1.4822304     -0.95223143     19528.346    
    839000   0.95080896     0.0023323615  -0.00055156795  21.05991       19.647959      1.4119513     -0.9855295      19436.128    
    840000   0.91413508     0.0023323615   0.00330317     20.974965      19.617475      1.3574906     -0.96522191     19344.019    
    841000   1.1114663      0.0023323615   0.0019934731   21.171984      19.521456      1.6505274     -1.0454497      18870.605    
    842000   1.0331189      0.0023323615  -0.0029170848   20.973138      19.438957      1.5341815     -1.0290902      18476.346    
    843000   0.93756462     0.0023323615  -0.0022361245   20.443825      19.051541      1.3922835     -1.3699151      18179.604    
    844000   1.1028389      0.0023323615  -0.0041656871   20.964485      19.326769      1.6377157     -1.2232806      18277.179    
    845000   1.0985123      0.0023323615  -0.0029532247   21.215954      19.584664      1.6312908     -0.95421867     18430.244    
    846000   1.1599642      0.0023323615   0.0029464672   21.097281      19.374735      1.7225468     -1.096479       18376.676    
    847000   1.1197538      0.0023323615   0.0012059569   20.881916      19.219081      1.6628344     -1.3198685      18448.121    
    848000   1.0365313      0.0023323615  -0.0016327105   21.179076      19.639827      1.539249      -0.99512639     18474.229    
    849000   0.9176564      0.0023323615   0.0010683187   20.806388      19.443668      1.3627198     -1.1306319      18322.005    
    850000   0.99675579     0.0023323615   0.00028606548  20.93231       19.452128      1.4801824     -1.0766377      18332.073    
    851000   1.1115923      0.0023323615  -4.7959605e-05  21.333042      19.682327      1.6507146     -0.87798406     18438.743    
    852000   0.92237046     0.0023323615   0.0035499739   20.838395      19.468675      1.3697201     -1.1899503      18286.571    
    853000   1.0985707      0.0023323615   0.0020196988   20.885655      19.254278      1.6313774     -1.2405818      18298.026    
    854000   0.97594336     0.0023323615   0.0021292298   20.767565      19.318289      1.4492759     -1.2673568      18230.303    
    855000   1.0107779      0.0023323615  -0.0018480763   20.653935      19.152929      1.5010052     -1.2846614      18135.774    
    856000   0.93117135     0.0023323615   0.0024910003   20.482811      19.100022      1.3827895     -1.3312683      18140.701    
    857000   0.84472378     0.0023323615  -0.0022744444   20.735103      19.480688      1.2544148     -1.1271001      18300.667    
    858000   1.0533998      0.0023323615   0.0011355508   21.024698      19.460399      1.5642987     -1.0644807      18341.637    
    859000   0.90753789     0.0023323615  -0.0024968519   20.965302      19.617609      1.3476938     -1.0233772      18496.067    
    860000   0.92731586     0.0023323615  -0.00028721443  20.762529      19.385465      1.377064      -1.0597386      18491.441    
    861000   0.98562123     0.0023323615  -0.0038557312   20.990267      19.52662       1.4636475     -1.0475394      18185.112    
    862000   0.95946576     0.0023323615  -0.0013861144   21.078628      19.653821      1.4248067     -0.88176142     18577.932    
    863000   0.98631614     0.0023323615  -0.0017224299   20.648417      19.183738      1.4646795     -1.3654358      18481.741    
    864000   1.0094567      0.0023323615  -0.00071114062  20.754613      19.25557       1.4990432     -1.3061923      18680.873    
    865000   1.2650969      0.0023323615   0.0060457725   21.26052       19.381851      1.8786689     -1.000819       18500.63     
    866000   1.035161       0.0023323615   0.005000513    20.889564      19.35235       1.5372141     -1.1221401      18560.352    
    867000   1.0467156      0.0023323615   0.0024509268   20.894591      19.340218      1.5543727     -1.1903775      18329.686    
    868000   0.9069443      0.0023323615   0.0015585603   20.401017      19.054204      1.3468123     -1.4456285      18326.466    
    869000   1.0763297      0.0023323615  -0.00028742872  21.029791      19.431442      1.5983495     -1.1952593      18288.39     
    870000   0.93805905     0.0023323615   0.0031034991   20.900347      19.50733       1.3930177     -1.0758243      18499.845    
    871000   0.96482151     0.0023323615   0.00088283991  20.781848      19.349088      1.4327599     -1.1376891      18784.678    
    872000   1.0064004      0.0023323615  -0.00093970813  21.048236      19.553732      1.4945046     -0.94102007     19308.731    
    873000   0.97001265     0.0023323615  -0.0023577721   21.141973      19.701504      1.4404688     -0.95352024     19182.422    
    874000   1.074881       0.0023323615  -0.0013372992   20.882389      19.286191      1.5961983     -1.2206115      18595.553    
    875000   0.96649125     0.0023323615  -0.0011671901   20.967624      19.532384      1.4352395     -1.0027634      18643.921    
    876000   0.93302555     0.0023323615  -0.0025139251   20.800104      19.414561      1.3855429     -1.1933949      18746.645    
    877000   0.84208166     0.0023323615  -0.0029142888   20.961828      19.711336      1.2504913     -0.81385339     19338.098    
    878000   1.116455       0.0023323615   0.0037712413   21.021996      19.36406       1.6579357     -1.1648554      18841.872    
    879000   1.0556519      0.0023323615  -0.00077659607  21.21468       19.647037      1.5676431     -0.94914082     18468.428    
    880000   0.90579359     0.0023323615  -0.0038989037   20.707923      19.362819      1.3451035     -1.1597566      18459.53     
    881000   1.0791389      0.0023323615   0.00024870181  21.140741      19.53822       1.6025213     -1.0821297      18522.551    
    882000   1.0514436      0.0023323615  -0.002484922    20.796113      19.234719      1.5613937     -1.2527718      18448.688    
    883000   1.0309406      0.0023323615  -0.0029360355   20.948547      19.4176        1.5309467     -1.1537178      18353.937    
    884000   0.95306595     0.0023323615   0.0012933952   20.609198      19.193895      1.4153029     -1.179537       18223.902    
    885000   0.90444291     0.0023323615   0.00046270971  20.734386      19.391288      1.3430977     -1.1832285      18325.318    
    886000   0.96159317     0.0023323615  -0.0034318224   20.76342       19.335454      1.4279659     -1.1829981      18380.875    
    887000   0.91463116     0.0023323615  -0.00058515987  20.917474      19.559247      1.3582273     -0.9162679      18755.875    
    888000   0.90457908     0.0023323615  -4.1947211e-05  20.737467      19.394167      1.3432999     -1.1018244      18697.44     
    889000   0.94151592     0.0023323615   0.0019778263   21.007762      19.609611      1.3981511     -0.92578857     18716.723    
    890000   0.94831575     0.0023323615   0.0016400679   20.777468      19.369219      1.4082489     -1.1793124      18389.931    
    891000   0.97123379     0.0023323615  -0.0026677222   20.702637      19.260355      1.4422822     -1.214852       18637.592    
    892000   0.99593736     0.0023323615  -0.00165518     20.837648      19.358681      1.478967      -1.2735015      18565.033    
    893000   0.97327373     0.0023323615  -0.0013831626   20.899268      19.453956      1.4453115     -1.1188365      18934.209    
    894000   1.0670911      0.0023323615   0.0011371322   21.150828      19.566197      1.5846303     -0.99130857     19547.633    
    895000   1.1540253      0.0023323615  -0.0032573029   21.254593      19.540865      1.7137276     -0.970594       20373.886    
    896000   1.1146387      0.0023323615   0.0031574855   21.252025      19.596787      1.6552384     -0.93315317     21031.278    
    897000   1.0075361      0.0023323615   0.00049682721  21.017969      19.521778      1.496191      -0.92724925     21351.104    
    898000   1.0114558      0.0023323615   0.0053497293   21.199433      19.697421      1.5020118     -0.84344689     21229.834    
    899000   0.74637321     0.0023323615  -0.002342457    20.624339      19.515975      1.1083642     -0.9863201      19826.706    
    900000   0.91000124     0.0023323615  -0.00085188519  20.975737      19.624385      1.3513518     -1.0737117      18888.203    
    901000   0.97144123     0.0023323615  -0.0019484654   20.870334      19.427744      1.4425902     -1.1240096      18529.872    
    902000   0.93669715     0.0023323615  -0.0038429      20.805203      19.414208      1.3909953     -1.0911274      18329.767    
    903000   1.0073734      0.0023323615   0.0038107819   20.939396      19.443447      1.4959494     -1.0379519      18553.952    
    904000   0.96156258     0.0023323615  -0.0054073168   20.80637       19.37845       1.4279204     -1.1951168      18549.045    
    905000   1.055964       0.0023323615  -0.0045109308   20.971413      19.403306      1.5681065     -1.1708951      18275.783    
    906000   0.94707021     0.0023323615  -0.0012156294   20.812226      19.405827      1.4063993     -1.0711327      18373.33     
    907000   0.88970112     0.0023323615  -0.0019477595   20.820948      19.499742      1.3212062     -1.0234395      18542.777    
    908000   1.0983545      0.0023323615  -3.4572918e-05  21.069164      19.438108      1.6310564     -0.9911354      18816.72     
    909000   1.0436208      0.0023323615  -0.0044359574   20.839655      19.289878      1.5497768     -1.1709752      18360.17     
    910000   0.93953762     0.0023323615  -0.0046681396   20.545962      19.150749      1.3952134     -1.3710715      18242.521    
    911000   1.0844642      0.0023323615  -0.00029908188  21.250336      19.639906      1.6104294     -1.0072512      18248.585    
    912000   0.97350167     0.0023323615  -0.0029181843   20.996912      19.551262      1.44565       -1.012449       18949.353    
    913000   0.95329082     0.0023323615  -2.2249618e-05  20.749085      19.333449      1.4156369     -1.078744       18917.322    
    914000   0.96989602     0.0023323615  -5.2962449e-05  20.749338      19.309042      1.4402956     -1.1940641      18685.885    
    915000   1.0545609      0.0023323615  -0.0033589151   21.226796      19.660773      1.5660229     -0.90951002     18569.109    
    916000   0.91073834     0.0023323615  -4.0364493e-05  20.854732      19.502286      1.3524464     -1.1418863      18683.02     
    917000   0.87473054     0.0023323615  -0.00077667494  20.731555      19.43258       1.2989749     -1.0899709      18265.566    
    918000   1.0410508      0.0023323615  -0.0015714136   21.015052      19.469092      1.5459604     -0.94782707     18376.558    
    919000   0.95525645     0.0023323615  -0.0016659733   20.846149      19.427593      1.4185558     -1.0888059      18535.835    
    920000   0.95329962     0.0023323615  -0.003401805    20.903833      19.488183      1.4156499     -0.95991066     18607.857    
    921000   1.0079658      0.0023323615  -0.0016358579   20.875721      19.378892      1.4968293     -1.1067417      18513.501    
    922000   1.1270046      0.0023323615   0.0013268667   20.967754      19.294152      1.6736018     -1.1227154      18423.356    
    923000   1.0256994      0.0023323615   0.00026150723  21.052644      19.52948       1.5231635     -1.1052028      18428.145    
    924000   1.1039383      0.0023323615  -0.0029814015   20.979323      19.339975      1.6393484     -1.1344614      18308.397    
    925000   0.89683015     0.0023323615   0.0012722007   20.766135      19.434342      1.3317928     -1.1348902      18261.475    
    926000   0.9607035      0.0023323615   0.0014910905   20.919333      19.492688      1.4266447     -1.0391807      18279.759    
    927000   1.0319706      0.0023323615  -0.0014209916   20.88285       19.350373      1.5324764     -1.0478026      18309.623    
    928000   1.0717165      0.0023323615   0.00042749475  20.811214      19.219715      1.591499      -1.3689093      18331.77     
    929000   0.99863556     0.0023323615  -9.8136096e-05  20.651606      19.168632      1.4829738     -1.1982023      18443.079    
    930000   1.1073337      0.0023323615   0.0001388788   21.124977      19.480586      1.6443906     -1.0874296      18454.38     
    931000   1.0828947      0.0023323615  -0.0017944343   21.002484      19.394385      1.6080986     -1.0986387      18482.507    
    932000   1.0466389      0.0023323615  -0.00070433095  21.232347      19.678088      1.5542588     -0.85813003     18795.184    
    933000   1.1619621      0.0023323615  -0.0014935853   21.103927      19.378413      1.7255137     -1.0714375      18839.628    
    934000   0.97454177     0.0023323615   0.0017012769   20.790474      19.34328       1.4471945     -1.0867898      18609.65     
    935000   0.93172698     0.0023323615  -0.0021363564   20.803462      19.419847      1.3836146     -0.97220712     18619.846    
    936000   0.98606961     0.0023323615   0.00030532423  20.857246      19.392933      1.4643134     -1.0403366      18695.114    
    937000   0.94991572     0.0023323615  -0.0022180882   20.954916      19.544292      1.4106248     -1.0052346      19021.679    
    938000   0.93493728     0.0023323615   0.00029655015  20.564934      19.176552      1.3883819     -1.2834715      19613.671    
    939000   0.93358742     0.0023323615   0.00070450322  21.007133      19.620756      1.3863773     -0.93247823     18937.485    
    940000   1.0471399      0.0023323615   0.0057893942   20.79402       19.239017      1.5550027     -1.2495356      18520.355    
    941000   0.98476747     0.0023323615   0.00039631771  20.596096      19.133717      1.4623797     -1.2987358      18336.344    
    942000   1.006993       0.0023323615   0.0034378327   20.841352      19.345967      1.4953846     -1.1883736      18551.583    
    943000   0.96979166     0.0023323615  -3.327412e-05   21.204078      19.763937      1.4401406     -0.9343043      18674.834    
    944000   1.0260475      0.0023323615   0.0035134512   20.958769      19.435089      1.5236806     -1.1104308      18623.72     
    945000   1.0081704      0.0023323615  -0.00079233529  21.004138      19.507005      1.4971331     -0.9623845      18469.204    
    946000   0.97685977     0.0023323615  -0.0018057227   20.871713      19.421076      1.4506368     -1.0991429      18675.487    
    947000   0.88126224     0.0023323615   0.00071698326  20.656976      19.348301      1.3086744     -1.0884323      18474.943    
    948000   1.0373823      0.0023323615  -0.0030199391   21.262425      19.721913      1.5405127     -0.8217648      18791.982    
    949000   0.98134214     0.0023323615   0.0013518199   21.119829      19.662536      1.4572931     -0.83046424     19020.958    
    950000   0.96772566     0.0023323615  -0.00057601879  21.023068      19.585995      1.4370726     -0.91893719     18730.639    
    951000   0.97729854     0.0023323615  -0.00086994954  20.921427      19.470138      1.4512883     -1.0467269      18437.09     
    952000   1.0234016      0.0023323615  -0.005096477    20.875312      19.355561      1.5197514     -1.1423122      18517.307    
    953000   1.0532004      0.0023323615   0.0020929977   20.861359      19.297357      1.5640026     -1.0677299      18532.201    
    954000   1.037368       0.0023323615  -0.00080735531  21.16565       19.625159      1.5404915     -0.9224085      18811.439    
    955000   1.1246193      0.0023323615   0.0053218379   20.960762      19.290703      1.6700596     -1.1915156      18779.907    
    956000   0.99997153     0.0023323615  -0.00012961093  21.070888      19.58593       1.4849577     -0.96577018     18606.063    
    957000   0.97273228     0.0023323615  -0.0010388242   20.979616      19.535109      1.4445074     -1.0343292      18363.403    
    958000   0.84031825     0.0023323615  -0.0014056672   20.520073      19.2722        1.2478726     -1.2150907      18533.605    
    959000   0.91410409     0.0023323615  -0.0014236109   21.026535      19.66909       1.3574446     -0.89287623     18717.046    
    960000   1.0239162      0.0023323615   0.00035442866  20.64136       19.120844      1.5205155     -1.2269224      18734.362    
    961000   0.93377592     0.0023323615   0.0025074584   20.978353      19.591696      1.3866572     -1.1216636      18546.237    
    962000   0.89087911     0.0023323615  -0.0022876802   20.698534      19.375579      1.3229555     -1.1588966      18634.3      
    963000   1.0597435      0.0023323615  -0.0019537998   21.108619      19.5349        1.5737191     -1.0731407      18992.358    
    964000   1.0652387      0.0023323615  -0.00033326087  20.950739      19.36886       1.5818795     -1.1308569      18769.973    
    965000   1.141684       0.0023323615  -0.001187464    21.016499      19.321098      1.6954008     -1.1507336      18335.973    
    966000   0.96206758     0.0023323615  -0.0019481591   20.471528      19.042857      1.4286704     -1.3872697      18319.738    
    967000   0.87406411     0.0023323615   0.0020047422   20.616271      19.318286      1.2979852     -1.2201636      18260.049    
    968000   1.097024       0.0023323615  -0.0039930286   20.793241      19.16416       1.6290807     -1.2401048      18324.387    
    969000   1.0178024      0.0023323615  -0.0027683338   20.926925      19.415488      1.5114366     -1.1333379      18354.028    
    970000   1.1924209      0.0023323615   0.00084449775  20.92152       19.150774      1.7707451     -1.2977114      18333.929    
    971000   1.0010591      0.0023323615   0.0025327871   20.924188      19.437615      1.4865728     -1.2275429      18124.794    
    972000   0.85982836     0.0023323615  -0.0022877386   20.579074      19.302229      1.2768451     -1.2709176      18167.42     
    973000   0.88657141     0.0023323615   0.000852697    20.72166       19.405102      1.3165585     -1.0364161      18328.919    
    974000   1.0486209      0.0023323615  -0.0011923347   21.357198      19.799997      1.557202      -0.85241592     18323.428    
    975000   1.0743767      0.0023323615   0.001609091    21.144397      19.548948      1.5954495     -0.99630626     18902.833    
    976000   1.053482       0.0023323615   0.00058693566  20.94744       19.38302       1.5644207     -1.1043526      18791.638    
    977000   0.87616802     0.0023323615   0.0015067014   20.800974      19.499864      1.3011095     -1.0889461      18291.665    
    978000   0.94153929     0.0023323615  -0.0064037504   21.165363      19.767177      1.3981858     -0.97722583     18348.013    
    979000   1.0486282      0.0023323615   9.4776107e-05  21.180354      19.623141      1.5572129     -0.94439461     18476.202    
    980000   0.97477448     0.0023323615  -0.0015520751   21.180544      19.733004      1.4475401     -0.7176562      18785.997    
    981000   1.1360647      0.0023323615   0.005266639    21.046434      19.359378      1.6870561     -1.113519       18550.376    
    982000   0.85770742     0.0023323615   0.0060767472   20.380622      19.106927      1.2736955     -1.332708       18307.249    
    983000   1.0562975      0.0023323615  -0.001302215    21.119852      19.551251      1.5686018     -0.89853016     18659.504    
    984000   1.0569476      0.0023323615   0.0055089991   20.922536      19.352969      1.5695671     -1.1413109      18648.623    
    985000   1.0014651      0.0023323615  -0.0039573134   20.797913      19.310738      1.4871757     -1.4497128      18244.635    
    986000   1.00206        0.0023323615  -0.0022919535   20.74107       19.253011      1.4880591     -1.3110584      18094.614    
    987000   1.0478909      0.0023323615   0.00018935025  20.856711      19.300593      1.556118      -1.2430575      18412.327    
    988000   1.0264474      0.0023323615  -0.0036413585   20.935057      19.410783      1.5242745     -1.0988192      18342.23     
    989000   0.9133887      0.0023323615  -0.0023861733   20.779319      19.422936      1.3563822     -1.0820356      18585.847    
    990000   1.0685814      0.0023323615   0.0021101818   20.908236      19.321393      1.5868434     -1.1471085      18383.401    
    991000   1.0771678      0.0023323615   0.0014795414   20.726564      19.126969      1.5995942     -1.2831684      18211.41     
    992000   0.86200312     0.0023323615   0.005667778    20.651856      19.371781      1.2800746     -1.219069       18265.733    
    993000   1.045196       0.0023323615   0.00064901973  21.130209      19.578093      1.5521161     -1.0022486      18364.737    
    994000   0.93921638     0.0023323615  -0.0033587324   20.667215      19.272478      1.3947363     -1.2607128      18203.698    
    995000   0.99871327     0.0023323615   0.00028565399  20.778668      19.295578      1.4830892     -1.2072355      18323.162    
    996000   0.9391491      0.0023323615   0.0011951802   20.946014      19.551377      1.3946364     -1.1213947      18878.671    
    997000   0.88955348     0.0023323615   0.00017543439  20.751002      19.430015      1.3209869     -1.0705317      20007.171    
    998000   0.96989397     0.0023323615  -0.0019577301   20.76038       19.320087      1.4402925     -1.0642775      20132.014    
    999000   0.85164521     0.0023323615  -0.0006109763   20.570425      19.305732      1.2646931     -1.1460826      20048.7      
   1000000   0.92094346     0.0023323615   0.0025253509   20.447469      19.079868      1.367601      -1.3676006      20067.257    
Loop time of 54.5393 on 1 procs for 1000000 steps with 100 atoms

Performance: 7920900.128 tau/day, 18335.417 timesteps/s
97.5% CPU use with 1 MPI tasks x 1 OpenMP threads

MPI task timing breakdown:
Section |  min time  |  avg time  |  max time  |%varavg| %total
---------------------------------------------------------------
Pair    | 44.187     | 44.187     | 44.187     |   0.0 | 81.02
Bond    | 1.4106     | 1.4106     | 1.4106     |   0.0 |  2.59
Neigh   | 3.8915     | 3.8915     | 3.8915     |   0.0 |  7.14
Comm    | 1.4411     | 1.4411     | 1.4411     |   0.0 |  2.64
Output  | 1.2672     | 1.2672     | 1.2672     |   0.0 |  2.32
Modify  | 1.9809     | 1.9809     | 1.9809     |   0.0 |  3.63
Other   |            | 0.3605     |            |       |  0.66

Nlocal:            100 ave         100 max         100 min
Histogram: 1 0 0 0 0 0 0 0 0 0
Nghost:            370 ave         370 max         370 min
Histogram: 1 0 0 0 0 0 0 0 0 0
Neighs:           4851 ave        4851 max        4851 min
Histogram: 1 0 0 0 0 0 0 0 0 0

Total # of neighbors = 4851
Ave neighs/atom = 48.51
Ave special neighs/atom = 1.98
Neighbor list builds = 97919
Dangerous builds = 80302

write_data      ${outputfile_assembled} nofix nocoeff
write_data      7_assembled.data nofix nocoeff
System init for write_data ...
Generated 0 of 6 mixed pair_coeff terms from geometric mixing rule

Total wall time: 0:00:56
