LAMMPS (23 Jun 2022 - Update 1)
OMP_NUM_THREADS environment is not set. Defaulting to 1 thread. (src/comm.cpp:98)
  using 1 OpenMP thread(s) per MPI task


variable        runtime equal 1000000
variable		subsample_rate equal 1000

variable		outputfile_created string '3_created.data'
variable		outputfile_relaxed string '5_relaxed.data'
variable		outputfile_selfasb string '6_a_self_assemble.lammpstrj'
variable		outputfile_trajlin string '6_b_trajlin.data'
variable		outputfile_assembled string '7_assembled.data'

units           lj
atom_style      full
dimension       3
boundary        p p p
timestep        0.005

read_data       ${outputfile_created}
read_data       3_created.data
Reading data file ...
  orthogonal box = (0 0 0) to (35 35 35)
  1 by 1 by 1 MPI processor grid
  reading atoms ...
  100 atoms
  reading velocities ...
  100 velocities
  scanning bonds ...
  1 = max bonds/atom
  reading bonds ...
  99 bonds
Finding 1-2 1-3 1-4 neighbors ...
  special bond factors lj:    0        0        0       
  special bond factors coul:  0        0        0       
     2 = max # of 1-2 neighbors
     2 = max # of 1-3 neighbors
     4 = max # of 1-4 neighbors
     6 = max # of special neighbors
  special bonds CPU = 0.000 seconds
  read_data CPU = 0.006 seconds

bond_style      fene
bond_coeff      * 30.0 1.5 1.0 1.0
special_bonds   fene
Finding 1-2 1-3 1-4 neighbors ...
  special bond factors lj:    0        1        1       
  special bond factors coul:  0        1        1       
     2 = max # of 1-2 neighbors
     6 = max # of special neighbors
  special bonds CPU = 0.000 seconds

variable        Temp equal 1.0
variable        velSeed equal 926458

velocity        all create ${Temp} ${velSeed}
velocity        all create 1 ${velSeed}
velocity        all create 1 926458

### Output
thermo_style    custom step temp density press etotal pe ke epair spcpu
thermo          1000

###########################################################################
# Soft relaxation (to remove overlaps of particles)
######################################################################

pair_style      soft 1.0
pair_coeff      * * 0.0
variable        prefactor equal ramp(0,300)
fix             rampSoft all adapt 1 pair soft a * * v_prefactor

minimize        0.0 1.0e-8 1000 100000
WARNING: Using 'neigh_modify every 1 delay 0 check yes' setting during minimization (src/min.cpp:187)
Generated 0 of 6 mixed pair_coeff terms from geometric mixing rule
Neighbor list info ...
  update every 1 steps, delay 0 steps, check yes
  max neighbors/atom: 2000, page size: 100000
  master list distance cutoff = 1.3
  ghost atom cutoff = 1.3
  binsize = 0.65, bins = 54 54 54
  1 neighbor lists, perpetual/occasional/extra = 1 0 0
  (1) pair soft, perpetual
      attributes: half, newton on
      pair build: half/bin/newton
      stencil: half/bin/3d
      bin: standard
WARNING: Communication cutoff 1.3 is shorter than a bond length based estimate of 1.7550000000000001. This may lead to errors. (src/comm.cpp:727)
Per MPI rank memory allocation (min/avg/max) = 8.346 | 8.346 | 8.346 Mbytes
   Step          Temp         Density         Press          TotEng         PotEng         KinEng         E_pair         S/CPU     
         0   1              0.0023323615  -0.0039617958   21.524174      20.039174      1.485          0              0            
       362   1              0.0023323615   0.0023090379   21.485548      20.000548      1.485          0              69032.143    
Loop time of 0.00524736 on 1 procs for 362 steps with 100 atoms

99.2% CPU use with 1 MPI tasks x 1 OpenMP threads

Minimization stats:
  Stopping criterion = force tolerance
  Energy initial, next-to-last, final = 
      20.0391741078675   20.0005480767337   20.0005480767337
  Force two-norm initial, final = 11.878422 7.9509778e-09
  Force max component initial, final = 6.6117807 1.3572772e-09
  Final line search alpha, max atom move = 1 1.3572772e-09
  Iterations, force evaluations = 362 738

MPI task timing breakdown:
Section |  min time  |  avg time  |  max time  |%varavg| %total
---------------------------------------------------------------
Pair    | 0.00021541 | 0.00021541 | 0.00021541 |   0.0 |  4.11
Bond    | 0.002346   | 0.002346   | 0.002346   |   0.0 | 44.71
Neigh   | 0.0014843  | 0.0014843  | 0.0014843  |   0.0 | 28.29
Comm    | 0.00019105 | 0.00019105 | 0.00019105 |   0.0 |  3.64
Output  | 0          | 0          | 0          |   0.0 |  0.00
Modify  | 0          | 0          | 0          |   0.0 |  0.00
Other   |            | 0.001011   |            |       | 19.26

Nlocal:            100 ave         100 max         100 min
Histogram: 1 0 0 0 0 0 0 0 0 0
Nghost:             20 ave          20 max          20 min
Histogram: 1 0 0 0 0 0 0 0 0 0
Neighs:              0 ave           0 max           0 min
Histogram: 1 0 0 0 0 0 0 0 0 0

Total # of neighbors = 0
Ave neighs/atom = 0
Ave special neighs/atom = 1.98
Neighbor list builds = 17
Dangerous builds = 0

fix             nvtSoft all nvt temp ${Temp} ${Temp} 0.5
fix             nvtSoft all nvt temp 1 ${Temp} 0.5
fix             nvtSoft all nvt temp 1 1 0.5
run             100000
Generated 0 of 6 mixed pair_coeff terms from geometric mixing rule
WARNING: Communication cutoff 1.3 is shorter than a bond length based estimate of 1.7550000000000001. This may lead to errors. (src/comm.cpp:727)
Per MPI rank memory allocation (min/avg/max) = 7.221 | 7.221 | 7.221 Mbytes
   Step          Temp         Density         Press          TotEng         PotEng         KinEng         E_pair         S/CPU     
       362   1              0.0023323615   0.0023090379   21.485548      20.000548      1.485          0              0            
      1000   0.90989032     0.0023323615  -0.0021940042   21.776974      20.425787      1.3511871      0.00036425437  73719.982    
      2000   0.86546688     0.0023323615   0.0034714157   21.677128      20.39191       1.2852183      0.0025814786   74776.145    
      3000   0.98199538     0.0023323615   0.0028144228   21.866132      20.407869      1.4582631      0.0011756043   74058.368    
      4000   1.004495       0.0023323615  -0.0014058211   21.945624      20.453949      1.4916751      0.011986179    74317.422    
      5000   1.1222705      0.0023323615   0.0044495116   21.986385      20.319813      1.6665718      0.0050317639   74623.691    
      6000   1.0538243      0.0023323615   0.0023957538   21.985713      20.420784      1.564929       0.012100514    75216.45     
      7000   1.0210598      0.0023323615  -0.00038820026  21.904665      20.388391      1.5162738      0              76827.698    
      8000   0.94819751     0.0023323615   0.0024943091   21.747889      20.339816      1.4080733      0              76541.184    
      9000   0.92364502     0.0023323615   0.0020053029   21.724166      20.352554      1.3716129      1.7780894e-05  75927.613    
     10000   0.86685188     0.0023323615   0.00078277366  21.644879      20.357604      1.287275       0.0098636418   76185.682    
     11000   1.0057103      0.0023323615   0.00010113276  21.8558        20.362321      1.4934798      0.020705341    76010.298    
     12000   0.97901664     0.0023323615  -0.0026996968   21.871206      20.417366      1.4538397      0.0052928539   75906.421    
     13000   0.97718436     0.0023323615  -6.1641422e-06  21.963706      20.512587      1.4511188      0.025022446    75596.372    
     14000   1.0530014      0.0023323615  -0.0009993112   21.947994      20.384287      1.5637071      0.0020860456   74862.347    
     15000   0.99094527     0.0023323615   0.0011068478   21.895146      20.423592      1.4715537      0.0015091113   75871.97     
     16000   0.91285091     0.0023323615  -0.00025424173  21.87524       20.519657      1.3555836      0.0047853639   75354.901    
     17000   0.82806978     0.0023323615  -0.00054698156  21.701984      20.472301      1.2296836      0              75366.964    
     18000   1.043278       0.0023323615  -6.6143919e-05  22.003299      20.454031      1.5492679      0.0034319132   76414.62     
     19000   1.0879249      0.0023323615  -0.0017804642   21.998985      20.383416      1.6155685      0.015376175    75082.64     
     20000   1.1144506      0.0023323615   0.0025198298   22.190904      20.535944      1.6549592      0              76185.978    
     21000   1.0427751      0.0023323615   0.0011345349   22.099492      20.550971      1.548521       0.00040047813  76199.405    
     22000   1.0586695      0.0023323615   0.0017882747   22.05673       20.484606      1.5721242      0              75999.363    
     23000   1.0058426      0.0023323615  -0.0055245362   21.954628      20.460951      1.4936763      0.0027619031   75340.906    
     24000   0.98273442     0.0023323615   0.0015147357   21.862067      20.402707      1.4593606      0              75775.607    
     25000   0.95835343     0.0023323615   0.0017808774   21.937761      20.514606      1.4231548      0.00020839942  75105.523    
     26000   0.93993778     0.0023323615  -0.0021777292   21.884849      20.489042      1.3958076      0.0088889834   75896.553    
     27000   0.9308188      0.0023323615  -0.00011239942  21.842252      20.459986      1.3822659      0.021612409    74588.219    
     28000   1.0149581      0.0023323615   0.0041996387   21.906846      20.399633      1.5072129      0.0064059022   75567.244    
     29000   0.92841138     0.0023323615  -2.5398808e-05  21.987185      20.608494      1.3786909      0.0046112484   75477.298    
     30000   1.021043       0.0023323615   0.001589158    22.097958      20.581709      1.5162489      0.016799508    73256.429    
     31000   1.0465985      0.0023323615  -0.0021744286   22.037917      20.483718      1.5541987      0.0057879149   76003.638    
     32000   0.98907108     0.0023323615  -0.0015558606   22.044089      20.575318      1.4687705      0.009448173    75411.835    
     33000   1.0918536      0.0023323615  -0.0025643847   22.039275      20.417873      1.6214025      0              74611.915    
     34000   0.99801543     0.0023323615   0.0016279766   21.932339      20.450286      1.4820529      0.017384617    77135.187    
     35000   1.0352271      0.0023323615  -0.0052971711   22.076004      20.538692      1.5373122      0.00010473809  75699.517    
     36000   1.1141579      0.0023323615  -0.00093279925  22.222491      20.567966      1.6545245      0.00033678641  76691.151    
     37000   1.0369415      0.0023323615   0.00013065175  22.217841      20.677983      1.5398581      0.013788831    75645.592    
     38000   1.0515596      0.0023323615   0.0021717558   22.070766      20.5092        1.561566       0.0067894678   76274.817    
     39000   1.0238495      0.0023323615   0.00026414509  22.040141      20.519725      1.5204165      0.00044464649  75448.318    
     40000   1.0749111      0.0023323615  -0.0026849368   22.039327      20.443084      1.596243       0.012651334    73839.058    
     41000   0.99070886     0.0023323615  -0.0030385564   22.03241       20.561207      1.4712027      0.00092855646  76955.463    
     42000   0.95315224     0.0023323615   0.0019788197   21.965263      20.549832      1.4154311      0.020233689    75326.86     
     43000   1.0644183      0.0023323615  -0.0011168725   22.287172      20.706511      1.5806611      0.039694129    75527.674    
     44000   1.0253747      0.0023323615  -0.006676522    22.066233      20.543552      1.5226814      0              74707.02     
     45000   0.94179556     0.0023323615  -0.0047206018   21.970644      20.572077      1.3985664      0.019869988    75085.244    
     46000   1.0083495      0.0023323615  -0.0017646918   21.972114      20.474715      1.497399       0.00026040605  75322.542    
     47000   0.98767959     0.0023323615  -0.00080218158  22.091674      20.62497       1.4667042      0.024266258    74823.68     
     48000   1.1473449      0.0023323615  -0.0025885687   22.080512      20.376705      1.7038072      0.00065962995  75332.83     
     49000   1.0679312      0.0023323615   0.0017688272   21.970482      20.384604      1.5858779      0.014142422    76423.456    
     50000   0.9581935      0.0023323615   0.0014398836   21.955202      20.532284      1.4229173      0.0055011948   75915.653    
     51000   1.0215759      0.0023323615  -0.00093292688  21.934681      20.41764       1.5170402      0              75671.517    
     52000   0.98079591     0.0023323615   0.0040701936   21.977374      20.520892      1.4564819      0.0020862422   76009.253    
     53000   1.0090927      0.0023323615   0.0013324753   22.095438      20.596935      1.4985027      0              75212.207    
     54000   0.97519627     0.0023323615   0.0013260734   22.070151      20.621984      1.4481665      0.026885444    76549.873    
     55000   1.1805087      0.0023323615  -0.001586238    22.424088      20.671033      1.7530554      0.024690954    76074.426    
     56000   0.98387121     0.0023323615   0.0037155145   22.104425      20.643376      1.4610487      0.01435493     75932.583    
     57000   1.0723812      0.0023323615  -0.0037916262   22.122726      20.53024       1.592486       0.013635549    76149.817    
     58000   1.0152349      0.0023323615   0.00021908047  22.082827      20.575203      1.5076238      0.00077375639  76131.763    
     59000   1.1424502      0.0023323615  -0.0052108657   22.30072       20.604182      1.6965385      0.013308184    76914.954    
     60000   1.0359703      0.0023323615  -0.00097887545  22.188218      20.649802      1.538416       0.00011346294  75242.257    
     61000   1.1646839      0.0023323615  -0.002085017    22.239945      20.51039       1.7295556      0.012918477    77334.975    
     62000   1.101836       0.0023323615   0.0010338878   22.171386      20.53516       1.6362265      0.001396566    76141.108    
     63000   0.96616435     0.0023323615   0.00097550571  21.903821      20.469067      1.4347541      0.013027663    77536.588    
     64000   1.0068907      0.0023323615  -0.0020278726   22.061652      20.566419      1.4952327      0.013750276    76128.216    
     65000   0.98723233     0.0023323615   0.0022441476   22.031073      20.565033      1.46604        0.0066686189   76783.602    
     66000   1.0273881      0.0023323615  -0.0003515278   22.183579      20.657908      1.5256713      0              74617.889    
     67000   0.96528212     0.0023323615  -0.00014822656  21.9396        20.506156      1.4334439      0.010365557    76204.991    
     68000   1.069702       0.0023323615   9.4754668e-05  22.081119      20.492611      1.5885075      0.00049153926  74003.239    
     69000   1.1229502      0.0023323615   0.0011504079   22.200329      20.532748      1.6675811      0.0068454249   76641.044    
     70000   1.0062775      0.0023323615  -0.00085311964  22.094021      20.599699      1.4943221      0.013222355    75152.349    
     71000   1.0906935      0.0023323615   0.00015260357  22.145362      20.525682      1.6196798      0.018338513    75785.329    
     72000   1.010401       0.0023323615  -6.0487182e-06  22.154105      20.653659      1.5004455      0.0013793953   74650.481    
     73000   1.1177599      0.0023323615  -0.0034084797   22.254435      20.594562      1.6598735      0.00011231735  77543.214    
     74000   0.9768019      0.0023323615   0.00016143893  22.07312       20.622569      1.4505508      0.0084515956   75617.683    
     75000   1.1360996      0.0023323615   0.002159116    22.161595      20.474487      1.6871079      0.0089909162   76199.87     
     76000   0.97379329     0.0023323615  -0.00068458621  21.988928      20.542845      1.446083       0              75071.637    
     77000   0.94876793     0.0023323615  -0.0016073976   21.923496      20.514575      1.4089204      0.017745108    75435.768    
     78000   0.83947996     0.0023323615  -0.00062768559  21.726727      20.480099      1.2466277      0.0054510099   76091.768    
     79000   1.0090614      0.0023323615  -0.00080262643  22.068192      20.569736      1.4984562      0.00023011166  76793.886    
     80000   1.1217643      0.0023323615  -0.0038177864   22.367902      20.702082      1.66582        0.032902439    75781.188    
     81000   1.0240158      0.0023323615   0.00023547123  22.031597      20.510933      1.5206635      0.0068767308   75559.004    
     82000   1.003236       0.0023323615  -0.0022802982   21.894199      20.404393      1.4898055      0.019136282    74586.211    
     83000   1.0554159      0.0023323615   0.004011718    22.104562      20.537269      1.5672927      0.0080869707   74346.048    
     84000   0.83527346     0.0023323615  -0.0034122221   21.874648      20.634267      1.2403811      0.0030083664   75520.983    
     85000   1.036002       0.0023323615   0.0013573923   21.962923      20.42446       1.5384629      0.015709144    76256.577    
     86000   0.9432002      0.0023323615  -0.0032183248   21.913588      20.512936      1.4006523      0.013730309    75958.469    
     87000   0.95566008     0.0023323615  -0.00049614223  21.91653       20.497375      1.4191552      0.0035862035   75269.153    
     88000   0.93373351     0.0023323615  -0.00097093893  21.870485      20.483891      1.3865943      0.0018212145   74906.726    
     89000   0.9684944      0.0023323615  -0.00047342045  21.973429      20.535215      1.4382142      0.00087524744  75023.95     
     90000   0.98293324     0.0023323615  -0.0032204602   22.050919      20.591263      1.4596559      0.015353933    76531.155    
     91000   1.0832827      0.0023323615   0.0048517083   22.11977       20.511095      1.6086749      0.0052867789   77509.075    
     92000   0.85899662     0.0023323615  -0.0013049519   21.765697      20.490087      1.27561        0.0024124001   76306.188    
     93000   0.96176266     0.0023323615  -4.4223672e-05  21.874222      20.446004      1.4282176      0.0045653365   76901.976    
     94000   0.96019503     0.0023323615   0.00024459347  21.944954      20.519064      1.4258896      3.8053462e-05  76398.414    
     95000   0.94702149     0.0023323615  -0.0033658915   21.86315       20.456823      1.4063269      0              76894.815    
     96000   0.91119348     0.0023323615  -0.0013197298   21.825018      20.471896      1.3531223      0.00043282989  75651.663    
     97000   1.0016687      0.0023323615  -0.0019514304   22.013024      20.525546      1.487478       0.0048369955   75111.802    
     98000   1.02143        0.0023323615  -0.0057874974   22.177965      20.661142      1.5168235      0              74051.173    
     99000   1.032786       0.0023323615   0.0018228259   21.975336      20.441649      1.5336871      7.1595851e-05  77130.296    
    100000   1.0594928      0.0023323615   0.0036169719   22.011024      20.437677      1.5733468      0.00032948157  75719.79     
    100362   1.1904942      0.0023323615  -0.00089755607  22.316856      20.548972      1.7678839      0.00063845255  75268.169    
Loop time of 1.32121 on 1 procs for 100000 steps with 100 atoms

Performance: 32697281.344 tau/day, 75688.151 timesteps/s
99.1% CPU use with 1 MPI tasks x 1 OpenMP threads

MPI task timing breakdown:
Section |  min time  |  avg time  |  max time  |%varavg| %total
---------------------------------------------------------------
Pair    | 0.049227   | 0.049227   | 0.049227   |   0.0 |  3.73
Bond    | 0.12651    | 0.12651    | 0.12651    |   0.0 |  9.58
Neigh   | 0.80185    | 0.80185    | 0.80185    |   0.0 | 60.69
Comm    | 0.054898   | 0.054898   | 0.054898   |   0.0 |  4.16
Output  | 0.0010635  | 0.0010635  | 0.0010635  |   0.0 |  0.08
Modify  | 0.25357    | 0.25357    | 0.25357    |   0.0 | 19.19
Other   |            | 0.03409    |            |       |  2.58

Nlocal:            100 ave         100 max         100 min
Histogram: 1 0 0 0 0 0 0 0 0 0
Nghost:             60 ave          60 max          60 min
Histogram: 1 0 0 0 0 0 0 0 0 0
Neighs:             36 ave          36 max          36 min
Histogram: 1 0 0 0 0 0 0 0 0 0

Total # of neighbors = 36
Ave neighs/atom = 0.36
Ave special neighs/atom = 1.98
Neighbor list builds = 9821
Dangerous builds = 8265
unfix           nvtSoft
unfix           rampSoft
reset_timestep  0

write_data      ${outputfile_relaxed}
write_data      5_relaxed.data
System init for write_data ...
Generated 0 of 6 mixed pair_coeff terms from geometric mixing rule
WARNING: Communication cutoff 1.3 is shorter than a bond length based estimate of 1.7550000000000001. This may lead to errors. (src/comm.cpp:727)
WARNING: Not all mixed pair coeffs generated from mixing. Use write_data with 'pair ij' option to store all pair coeffs. (src/write_data.cpp:309)

###########################################################################
# Full LJ with Coulomb
######################################################################

# Cutoffs and parameters:
# - Values: Marcel Verkade's Bachelor Thesis
# - Mapping to atom groups: Patrick Onck's paper
# - 1: aliphatic, 2: aromatic, 3: anion, 4: cation
# pair_style	lj/cut/coul/cut <lj_cut_global> <coul_cut_global>
# pair_coeff	<type_1>  <type_2>  <eps>  <sigma>  <r_cut_lj>  <r_cut_coul>

# Problem: Onck's model is much more complex, and Marcel has no sigma reported
# Using sigma=1 randomly

variable		glob_ljeps equal 1.0
variable		glob_ljsig 	equal 1.0
variable		glob_coulcut equal 10.0
variable		att_ljcut equal 2.50
variable		rep_ljcut equal 1.12

pair_style		lj/cut/coul/cut 						${att_ljcut} 	${glob_coulcut}
pair_style		lj/cut/coul/cut 						2.5 	${glob_coulcut}
pair_style		lj/cut/coul/cut 						2.5 	10
pair_coeff		1 1 	${glob_ljeps} 	${glob_ljsig}	${att_ljcut} 	${glob_coulcut}
pair_coeff		1 1 	1 	${glob_ljsig}	${att_ljcut} 	${glob_coulcut}
pair_coeff		1 1 	1 	1	${att_ljcut} 	${glob_coulcut}
pair_coeff		1 1 	1 	1	2.5 	${glob_coulcut}
pair_coeff		1 1 	1 	1	2.5 	10
pair_coeff		1 2 	${glob_ljeps} 	${glob_ljsig}	${att_ljcut} 	${glob_coulcut}
pair_coeff		1 2 	1 	${glob_ljsig}	${att_ljcut} 	${glob_coulcut}
pair_coeff		1 2 	1 	1	${att_ljcut} 	${glob_coulcut}
pair_coeff		1 2 	1 	1	2.5 	${glob_coulcut}
pair_coeff		1 2 	1 	1	2.5 	10
pair_coeff		1 3 	${glob_ljeps} 	${glob_ljsig}	${rep_ljcut} 	${glob_coulcut}
pair_coeff		1 3 	1 	${glob_ljsig}	${rep_ljcut} 	${glob_coulcut}
pair_coeff		1 3 	1 	1	${rep_ljcut} 	${glob_coulcut}
pair_coeff		1 3 	1 	1	1.12 	${glob_coulcut}
pair_coeff		1 3 	1 	1	1.12 	10
pair_coeff		1 4 	${glob_ljeps} 	${glob_ljsig}	${rep_ljcut} 	${glob_coulcut}
pair_coeff		1 4 	1 	${glob_ljsig}	${rep_ljcut} 	${glob_coulcut}
pair_coeff		1 4 	1 	1	${rep_ljcut} 	${glob_coulcut}
pair_coeff		1 4 	1 	1	1.12 	${glob_coulcut}
pair_coeff		1 4 	1 	1	1.12 	10
pair_coeff		2 2 	${glob_ljeps} 	${glob_ljsig}	${att_ljcut} 	${glob_coulcut}
pair_coeff		2 2 	1 	${glob_ljsig}	${att_ljcut} 	${glob_coulcut}
pair_coeff		2 2 	1 	1	${att_ljcut} 	${glob_coulcut}
pair_coeff		2 2 	1 	1	2.5 	${glob_coulcut}
pair_coeff		2 2 	1 	1	2.5 	10
pair_coeff		2 3 	${glob_ljeps} 	${glob_ljsig}	${rep_ljcut} 	${glob_coulcut}
pair_coeff		2 3 	1 	${glob_ljsig}	${rep_ljcut} 	${glob_coulcut}
pair_coeff		2 3 	1 	1	${rep_ljcut} 	${glob_coulcut}
pair_coeff		2 3 	1 	1	1.12 	${glob_coulcut}
pair_coeff		2 3 	1 	1	1.12 	10
pair_coeff		2 4 	${glob_ljeps} 	${glob_ljsig}	${att_ljcut} 	${glob_coulcut}
pair_coeff		2 4 	1 	${glob_ljsig}	${att_ljcut} 	${glob_coulcut}
pair_coeff		2 4 	1 	1	${att_ljcut} 	${glob_coulcut}
pair_coeff		2 4 	1 	1	2.5 	${glob_coulcut}
pair_coeff		2 4 	1 	1	2.5 	10
pair_coeff		3 3 	${glob_ljeps} 	${glob_ljsig}	${rep_ljcut} 	${glob_coulcut}
pair_coeff		3 3 	1 	${glob_ljsig}	${rep_ljcut} 	${glob_coulcut}
pair_coeff		3 3 	1 	1	${rep_ljcut} 	${glob_coulcut}
pair_coeff		3 3 	1 	1	1.12 	${glob_coulcut}
pair_coeff		3 3 	1 	1	1.12 	10
pair_coeff		3 4 	${glob_ljeps} 	${glob_ljsig}	${att_ljcut} 	${glob_coulcut}
pair_coeff		3 4 	1 	${glob_ljsig}	${att_ljcut} 	${glob_coulcut}
pair_coeff		3 4 	1 	1	${att_ljcut} 	${glob_coulcut}
pair_coeff		3 4 	1 	1	2.5 	${glob_coulcut}
pair_coeff		3 4 	1 	1	2.5 	10
pair_coeff		4 4 	${glob_ljeps} 	${glob_ljsig}	${rep_ljcut} 	${glob_coulcut}
pair_coeff		4 4 	1 	${glob_ljsig}	${rep_ljcut} 	${glob_coulcut}
pair_coeff		4 4 	1 	1	${rep_ljcut} 	${glob_coulcut}
pair_coeff		4 4 	1 	1	1.12 	${glob_coulcut}
pair_coeff		4 4 	1 	1	1.12 	10


fix             noDriftRot 	all momentum 10 linear 1 1 1 angular
fix             nvt1 		all nvt temp ${Temp} ${Temp} 0.5
fix             nvt1 		all nvt temp 1 ${Temp} 0.5
fix             nvt1 		all nvt temp 1 1 0.5

# dump          assemble 	all custom 1000 				${outputfile_selfasb} id type xu yu zu vx vy vz
dump            lindump 	all custom ${subsample_rate} 	${outputfile_trajlin} id type xu yu zu vx vy vz
dump            lindump 	all custom 1000 	${outputfile_trajlin} id type xu yu zu vx vy vz
dump            lindump 	all custom 1000 	6_b_trajlin.data id type xu yu zu vx vy vz

run             ${runtime}
run             1000000
Generated 0 of 6 mixed pair_coeff terms from geometric mixing rule
Neighbor list info ...
  update every 1 steps, delay 10 steps, check yes
  max neighbors/atom: 2000, page size: 100000
  master list distance cutoff = 10.3
  ghost atom cutoff = 10.3
  binsize = 5.15, bins = 7 7 7
  1 neighbor lists, perpetual/occasional/extra = 1 0 0
  (1) pair lj/cut/coul/cut, perpetual
      attributes: half, newton on
      pair build: half/bin/newton
      stencil: half/bin/3d
      bin: standard
Per MPI rank memory allocation (min/avg/max) = 7.712 | 7.712 | 7.712 Mbytes
   Step          Temp         Density         Press          TotEng         PotEng         KinEng         E_pair         S/CPU     
         0   1.1904942      0.0023323615  -0.0014524711   21.8552        20.087316      1.7678839     -0.46101807     0            
      1000   0.96187007     0.0023323615   0.0039433548   21.087663      19.659286      1.428377      -0.79168335     33374.482    
      2000   0.91619142     0.0023323615  -0.00060033898  20.949164      19.58862       1.3605443     -0.89431199     31147.341    
      3000   0.92894287     0.0023323615   0.0031190292   20.87482       19.49534       1.3794802     -0.91437973     27464.521    
      4000   0.93376721     0.0023323615   0.0027107501   20.893813      19.507168      1.3866443     -0.92659656     21852.048    
      5000   0.99449846     0.0023323615   0.004867254    20.804213      19.327383      1.4768302     -1.1135598      18841.36     
      6000   1.1780377      0.0023323615   0.0012966122   21.134877      19.385491      1.7493859     -1.1992728      18594.097    
      7000   0.95224228     0.0023323615   0.0020815574   20.564583      19.150503      1.4140798     -1.3554369      18476.084    
      8000   0.97690453     0.0023323615  -0.001086002    20.573628      19.122924      1.4507032     -1.4557965      18515.07     
      9000   1.0050267      0.0023323615   0.0017762001   21.006937      19.514473      1.4924647     -1.1531077      18507.678    
     10000   1.0745541      0.0023323615   0.001476291    20.682096      19.086383      1.5957128     -1.3707205      18356.288    
     11000   1.0242274      0.0023323615   0.00073685674  21.148395      19.627418      1.5209777     -0.83907665     18487.042    
     12000   0.85603324     0.0023323615  -0.00030816519  20.727802      19.456593      1.2712094     -0.95878052     18720.272    
     13000   0.94142388     0.0023323615   0.0021063293   20.542655      19.14464       1.3980145     -1.1976393      18764.365    
     14000   1.1199805      0.0023323615   0.0013537693   20.7994        19.136229      1.6631711     -1.2922427      18583.511    
     15000   1.0985488      0.0023323615  -0.0019255943   20.921793      19.290448      1.631345      -1.2132068      18543.992    
     16000   1.1120704      0.0023323615  -0.0046811797   20.832333      19.180908      1.6514246     -1.3939657      18444.101    
     17000   0.90723885     0.0023323615   0.0038521782   20.417425      19.070175      1.3472497     -1.3259127      18453.14     
     18000   1.0003935      0.0023323615   0.00051411601  20.773935      19.288351      1.4855844     -1.3070349      18608.928    
     19000   1.0158598      0.0023323615  -0.00081885158  20.87317       19.364618      1.5085519     -1.1014558      18552.544    
     20000   0.98813553     0.0023323615  -0.0024826736   20.457904      18.990522      1.4673813     -1.4807009      18619.561    
     21000   0.94288146     0.0023323615  -0.0076471502   20.624364      19.224185      1.400179      -1.3429604      18548.2      
     22000   1.0125898      0.0023323615   0.0043720129   20.373983      18.870288      1.5036959     -1.6843513      18514.616    
     23000   1.0493737      0.0023323615  -5.9913797e-05  20.713796      19.155476      1.5583199     -1.3772217      18484.96     
     24000   0.99970352     0.0023323615  -0.001684557    20.782033      19.297473      1.4845597     -1.1774701      18502.436    
     25000   0.77138355     0.0023323615   0.0013858149   20.591401      19.445896      1.1455046     -1.1498301      18510.929    
     26000   0.93684868     0.0023323615   0.0041330687   20.504833      19.113613      1.3912203     -1.3316563      18429.542    
     27000   1.0063944      0.0023323615   0.0051783275   20.707149      19.212653      1.4944956     -1.2015203      18521.814    
     28000   0.89612902     0.0023323615   0.00089877835  20.53681       19.206059      1.3307516     -1.1862401      18569.871    
     29000   0.84393657     0.0023323615  -0.00051598175  20.355369      19.102124      1.2532458     -1.4448521      18388.06     
     30000   1.1303687      0.0023323615  -0.0015028942   20.943094      19.264496      1.6785976     -1.3117489      18394.152    
     31000   1.0135806      0.0023323615  -0.0055388246   20.65847       19.153303      1.5051671     -1.337357       18224.809    
     32000   1.1443983      0.0023323615   0.0016414417   20.986756      19.287324      1.6994315     -1.246877       18438.101    
     33000   1.0585123      0.0023323615   0.0010653764   20.649893      19.078003      1.5718908     -1.3498702      18550.672    
     34000   0.93272987     0.0023323615   0.0024143053   20.691748      19.306644      1.3851038     -1.2403341      18502.721    
     35000   1.2192765      0.0023323615  -0.0031513656   21.186511      19.375885      1.8106255     -1.180142       18857.696    
     36000   0.87858719     0.0023323615  -0.0019851932   20.630724      19.326022      1.304702      -1.2284943      18610.475    
     37000   0.96480065     0.0023323615  -0.0011116495   20.754738      19.32201       1.432729      -1.2107965      18484.207    
     38000   1.0114993      0.0023323615   0.0037957949   20.8709        19.368823      1.5020764     -1.1704545      18387.372    
     39000   1.0383698      0.0023323615   0.0012156695   20.932786      19.390807      1.5419791     -1.1504556      18442.942    
     40000   1.2074445      0.0023323615  -0.00075643434  20.987031      19.193976      1.7930551     -1.2948145      18620.37     
     41000   1.0242002      0.0023323615   0.0017197279   20.603071      19.082134      1.5209372     -1.397978       18493.529    
     42000   0.93133381     0.0023323615  -0.0044503344   20.653903      19.270872      1.3830307     -1.2869599      18343.331    
     43000   0.9115932      0.0023323615   0.0016789298   20.539368      19.185653      1.3537159     -1.2805687      18495.743    
     44000   0.97976458     0.0023323615  -0.0033766229   20.624005      19.169054      1.4549504     -1.2923322      18484.748    
     45000   0.97474843     0.0023323615  -0.00042746206  20.713937      19.266435      1.4475014     -1.3116413      18374.161    
     46000   0.98064573     0.0023323615  -0.0024935936   20.460099      19.00384       1.4562589     -1.481276       18324.445    
     47000   1.0214857      0.0023323615  -0.0036177121   20.724683      19.207777      1.5169063     -1.3188697      18318.277    
     48000   1.005465       0.0023323615   0.00083469806  20.831004      19.337888      1.4931155     -1.2856426      18538.946    
     49000   1.0661998      0.0023323615   0.00083888393  20.561025      18.977719      1.5833067     -1.4735557      18630.818    
     50000   0.95384043     0.0023323615   0.00048448585  20.226007      18.809554      1.416453      -1.7515986      18475.927    
     51000   0.98356559     0.0023323615   0.00016234536  20.690531      19.229936      1.4605949     -1.3554455      18304.403    
     52000   1.0736726      0.0023323615  -0.0046396979   20.918248      19.323844      1.5944038     -1.2514365      18357.892    
     53000   1.0589969      0.0023323615   0.0027305786   20.521157      18.948547      1.5726104     -1.5164645      18342.933    
     54000   1.1062237      0.0023323615   0.0067568687   20.669284      19.026542      1.6427422     -1.4547472      18156.885    
     55000   1.0246127      0.0023323615   0.0021700257   21.07371       19.55216       1.5215499     -1.1420736      18447.073    
     56000   0.98329565     0.0023323615   0.0010926442   20.803211      19.343017      1.460194      -1.1822001      18409.85     
     57000   0.97850546     0.0023323615  -0.0020236986   20.6896        19.236519      1.4530806     -1.2919491      18511.945    
     58000   1.0272638      0.0023323615   0.0016049777   21.066571      19.541084      1.5254868     -0.98225091     18521.302    
     59000   1.0109199      0.0023323615  -0.0019571383   20.881867      19.380651      1.501216      -1.1209007      18673.537    
     60000   1.1005345      0.0023323615  -0.0040055681   20.926292      19.291998      1.6342938     -1.2356159      18544.844    
     61000   0.97258174     0.0023323615   0.00092880756  20.977025      19.532741      1.4442839     -1.0321814      18504.511    
     62000   1.083346       0.0023323615   0.0035187459   20.80001       19.191242      1.6087689     -1.2585241      18591.971    
     63000   1.0090756      0.0023323615   0.0008701918   20.743251      19.244774      1.4984773     -1.1639496      18555.534    
     64000   0.86979159     0.0023323615  -0.0033371251   20.687654      19.396014      1.2916405     -1.200445       18433.589    
     65000   1.0354747      0.0023323615  -0.0044318687   20.921777      19.384097      1.53768       -1.3194503      18437.317    
     66000   1.0011831      0.0023323615  -3.2572476e-05  20.812224      19.325467      1.4867568     -1.300452       18557.349    
     67000   1.1271307      0.0023323615  -0.0025540275   21.049341      19.375552      1.6737891     -1.192244       18472.986    
     68000   0.98500951     0.0023323615  -0.0021141189   20.693624      19.230885      1.4627391     -1.3910924      18522.089    
     69000   0.99096998     0.0023323615   0.0041793974   20.373133      18.901543      1.4715904     -1.4826868      18423.293    
     70000   0.98589426     0.0023323615  -0.00023141385  20.490686      19.026633      1.464053      -1.3870958      18377.94     
     71000   0.95091912     0.0023323615  -0.0031669841   20.582694      19.170579      1.4121149     -1.3934229      18312.685    
     72000   0.95450223     0.0023323615   0.0010901888   20.864733      19.447297      1.4174358     -1.1860844      18410.458    
     73000   1.0239055      0.0023323615  -0.0032773977   20.96282       19.442321      1.5204996     -1.1177374      18713.393    
     74000   1.1380295      0.0023323615  -0.004090047    20.790382      19.100408      1.6899739     -1.4195722      18559.236    
     75000   1.0495639      0.0023323615   0.00049551532  20.677003      19.118401      1.5586023     -1.3574397      18311.771    
     76000   1.062918       0.0023323615  -0.0018718654   20.94355       19.365117      1.5784333     -1.2822381      18377.885    
     77000   1.0187958      0.0023323615   0.0019439586   21.091951      19.57904       1.5129117     -1.0743745      18367.503    
     78000   1.06455        0.0023323615   0.0031277103   20.691794      19.110937      1.5808568     -1.3590241      18389.689    
     79000   0.9780281      0.0023323615   0.0010373732   20.650549      19.198178      1.4523717     -1.2431878      18430.519    
     80000   0.97990649     0.0023323615  -0.0018494452   20.707715      19.252554      1.4551611     -1.3143307      18191.622    
     81000   1.0979685      0.0023323615  -0.0008152964   20.89709       19.266607      1.6304833     -1.3386006      18387.413    
     82000   0.9493593      0.0023323615   0.0011418345   20.605706      19.195908      1.4097986     -1.3687771      18291.793    
     83000   0.92892642     0.0023323615  -0.0060684687   20.617235      19.237779      1.3794557     -1.2034144      18322.551    
     84000   0.93653921     0.0023323615   0.00094144608  20.80002       19.409259      1.3907607     -1.0527605      18371.435    
     85000   0.87245275     0.0023323615  -0.0014200875   20.67733       19.381738      1.2955923     -1.1131891      18491.039    
     86000   0.96000211     0.0023323615  -0.0011760656   20.611434      19.18583       1.4256031     -1.1980004      18468.406    
     87000   1.0633578      0.0023323615  -0.0016694292   20.947922      19.368835      1.5790863     -1.2429448      19026.764    
     88000   1.0454963      0.0023323615  -0.004323215    21.079995      19.527433      1.552562      -0.9925267      19558.124    
     89000   0.90821152     0.0023323615  -0.0021857903   20.838048      19.489354      1.3486941     -0.93402829     18748.378    
     90000   0.96883629     0.0023323615  -0.0031247202   20.949513      19.510791      1.4387219     -1.0910883      18656.647    
     91000   0.96570502     0.0023323615   0.0018819363   20.927322      19.49325       1.434072      -1.0686686      18585.528    
     92000   0.89220758     0.0023323615  -0.0010430861   20.647216      19.322288      1.3249283     -1.2441276      18519.209    
     93000   1.0497916      0.0023323615   4.1578065e-05  20.884232      19.325292      1.5589405     -1.324266       18342.818    
     94000   1.0661741      0.0023323615   0.0025703222   20.737142      19.153874      1.5832686     -1.3102537      18449.716    
     95000   1.0784841      0.0023323615   0.00064370425  20.574977      18.973428      1.6015488     -1.484847       18541.595    
     96000   1.0007826      0.0023323615  -0.0032213346   20.547806      19.061644      1.4861622     -1.4322425      18398.916    
     97000   0.90456282     0.0023323615   0.002990273    20.774056      19.43078       1.3432758     -1.1505052      18475.756    
     98000   0.96158775     0.0023323615   0.0079748664   20.409775      18.981817      1.4279578     -1.5115591      18456.812    
     99000   1.0752122      0.0023323615  -0.0039429021   21.03466       19.437969      1.5966901     -1.2510303      18464.624    
    100000   0.97004668     0.0023323615   0.00079355829  20.623013      19.182493      1.4405193     -1.3881054      18474.296    
    101000   0.934064       0.0023323615   0.0045577456   20.559638      19.172553      1.387085      -1.4220686      18569.443    
    102000   1.0827706      0.0023323615  -0.00086839568  20.813584      19.205669      1.6079144     -1.4252008      18456.765    
    103000   0.91199426     0.0023323615   0.0028296323   20.582867      19.228555      1.3543115     -1.2946886      18416.837    
    104000   1.0370509      0.0023323615  -0.0021344708   20.727742      19.187721      1.5400206     -1.2755264      18368.916    
    105000   1.1412362      0.0023323615   0.0059686402   20.727849      19.033113      1.6947358     -1.381093       18441.47     
    106000   1.0604584      0.0023323615   8.9456544e-05  20.858439      19.283658      1.5747807     -1.2996672      18598.318    
    107000   0.86311933     0.0023323615   0.0010000251   20.543783      19.262051      1.2817322     -1.2187464      18825.213    
    108000   0.98649119     0.0023323615   0.0013751817   21.145194      19.680255      1.4649394     -1.0379342      18895.491    
    109000   1.0898534      0.0023323615   0.0023364363   20.934281      19.315848      1.6184322     -1.2116927      18624.995    
    110000   0.99504147     0.0023323615   0.0022617024   20.620029      19.142393      1.4776366     -1.2612909      18667.527    
    111000   1.0072165      0.0023323615  -0.00022860852  20.597326      19.101609      1.4957165     -1.3175215      18598.453    
    112000   0.94403424     0.0023323615  -0.0022999701   20.881746      19.479855      1.4018908     -1.0751228      18572.511    
    113000   1.2051107      0.0023323615   0.0020417803   21.158243      19.368653      1.7895894     -1.105983       18505.465    
    114000   0.94495564     0.0023323615   0.0052660145   20.706741      19.303482      1.4032591     -1.1610993      18716.814    
    115000   0.9590201      0.0023323615  -0.00026816186  20.707236      19.283092      1.4241448     -1.2265747      18740.525    
    116000   1.0205932      0.0023323615   0.0040261294   20.805238      19.289657      1.5155808     -1.244451       18598.38     
    117000   0.99557413     0.0023323615  -0.0035720539   20.788962      19.310534      1.4784276     -1.1861006      18654.607    
    118000   1.0026003      0.0023323615  -0.0018367202   21.026368      19.537506      1.4888614     -1.035084       18576.196    
    119000   0.82544526     0.0023323615  -0.00089770332  20.532637      19.30685       1.2257862     -1.1307396      18782.6      
    120000   1.0179591      0.0023323615   0.0020015437   20.80044       19.288771      1.5116692     -1.111465       18833.152    
    121000   1.0233048      0.0023323615   0.0011613272   20.663225      19.143617      1.5196077     -1.464101       18664.888    
    122000   0.93246061     0.0023323615   0.00046875398  20.723143      19.338439      1.384704      -1.1986902      18563.416    
    123000   1.0302704      0.0023323615   0.00014249619  20.988501      19.45855       1.5299516     -1.1347629      18639.582    
    124000   0.87264182     0.0023323615   0.0026202808   20.814031      19.518158      1.2958731     -1.2264782      18606.905    
    125000   0.95320938     0.0023323615   0.001288927    20.50886       19.093344      1.4155159     -1.3885732      18301.983    
    126000   0.93863873     0.0023323615  -0.0048515016   20.856413      19.462535      1.3938785     -1.0832867      18357.777    
    127000   0.91338825     0.0023323615  -0.00013708159  20.630348      19.273966      1.3563816     -1.232859       18475.568    
    128000   0.96585799     0.0023323615  -4.7615309e-05  20.845859      19.41156       1.4342991     -1.1185875      18544.251    
    129000   0.8385112      0.0023323615  -0.0015751798   20.599005      19.353816      1.2451891     -1.1053669      18528.911    
    130000   0.86908106     0.0023323615  -0.0030931688   20.828717      19.538131      1.2905854     -0.93793605     18551.737    
    131000   0.8257631      0.0023323615   0.0018603566   20.500502      19.274244      1.2262582     -1.2152068      18621.183    
    132000   1.0047937      0.0023323615   0.0057322375   20.70255       19.210432      1.4921187     -1.3006529      18677.877    
    133000   1.1180679      0.0023323615  -0.0018585167   20.788942      19.128612      1.6603308     -1.4245449      18529.774    
    134000   0.95572444     0.0023323615  -0.00043633876  20.612899      19.193648      1.4192508     -1.2306921      18471.571    
    135000   0.83797954     0.0023323615   0.0021931766   20.401529      19.15713       1.2443996     -1.3477266      18432.513    
    136000   1.1241568      0.0023323615   0.00068174766  20.920565      19.251193      1.6693728     -1.3668031      18537.301    
    137000   1.0710662      0.0023323615  -0.0014565493   20.727794      19.137261      1.5905332     -1.3280117      18494.372    
    138000   1.0274192      0.0023323615   0.00072212147  20.65478       19.129063      1.5257175     -1.3611486      18545.012    
    139000   1.0125269      0.0023323615  -0.00094543718  20.420676      18.917074      1.5036024     -1.6447578      18391.495    
    140000   1.0364096      0.0023323615   0.00097721168  20.890971      19.351902      1.5390683     -1.1132387      18484.416    
    141000   0.96763508     0.0023323615   0.0036103313   20.667921      19.230983      1.4369381     -1.2831339      18518.845    
    142000   0.98215005     0.0023323615   0.00065796828  20.652058      19.193565      1.4584928     -1.2206468      18551.868    
    143000   1.0462134      0.0023323615  -0.002065241    20.33336       18.779733      1.553627      -1.6628845      18427.211    
    144000   1.0289284      0.0023323615  -0.0048958733   20.907739      19.37978       1.5279587     -1.2207564      18266.563    
    145000   0.92630811     0.0023323615  -0.0013177382   20.800566      19.424998      1.3755675     -1.0669441      18460.731    
    146000   0.96977343     0.0023323615  -0.0020131286   20.638832      19.198718      1.4401135     -1.2604754      18674.858    
    147000   0.92271097     0.0023323615  -0.0011297792   21.031825      19.661599      1.3702258     -1.0025758      18550.475    
    148000   1.0399401      0.0023323615   0.00062403456  21.039499      19.495188      1.5443111     -1.2376555      18662.958    
    149000   0.89203847     0.0023323615   0.0011487508   20.783625      19.458948      1.3246771     -1.174627       18630.787    
    150000   0.96360236     0.0023323615   0.00043429759  20.286383      18.855433      1.4309495     -1.6153204      18491.155    
    151000   0.76865857     0.0023323615  -0.0031227221   20.102671      18.961213      1.141458      -1.5493092      18198.425    
    152000   1.0262527      0.0023323615  -0.00039099427  20.729949      19.205964      1.5239852     -1.3784563      18380.007    
    153000   1.0127772      0.0023323615  -0.0056717605   20.645489      19.141515      1.5039742     -1.3705845      18434.049    
    154000   0.83463818     0.0023323615  -0.0016936082   20.368992      19.129555      1.2394377     -1.2447586      18405.882    
    155000   0.80515459     0.0023323615  -0.0032503361   20.333093      19.137438      1.1956546     -1.3903831      18556.676    
    156000   0.95677142     0.0023323615   0.00064607738  20.552788      19.131982      1.4208056     -1.3229645      18396.688    
    157000   0.97939474     0.0023323615  -5.5975937e-05  20.669197      19.214796      1.4544012     -1.3413439      18325.414    
    158000   1.0434668      0.0023323615   0.0014918718   20.827174      19.277625      1.5495482     -1.2203882      18546.053    
    159000   1.0650177      0.0023323615   7.48495e-05    20.597105      19.015554      1.5815513     -1.461196       18394.678    
    160000   0.91914311     0.0023323615  -0.0009638939   20.676393      19.311465      1.3649275     -1.2408494      18425.395    
    161000   1.0340073      0.0023323615   0.00073952925  20.873844      19.338343      1.5355009     -1.2267973      18477.825    
    162000   1.0663256      0.0023323615  -0.0005338353   20.755187      19.171694      1.5834935     -1.2044198      18483.3      
    163000   0.87502137     0.0023323615  -0.0019002792   20.159445      18.860038      1.2994067     -1.6088486      18345.236    
    164000   1.024067       0.0023323615  -0.0021129134   20.452521      18.931781      1.5207396     -1.4918523      18390.14     
    165000   0.94574612     0.0023323615  -0.0034357659   20.395943      18.99151       1.404433      -1.5897768      18403.951    
    166000   0.95150884     0.0023323615  -0.0026238437   20.765437      19.352447      1.4129906     -1.2230123      18358.537    
    167000   0.96328757     0.0023323615  -0.00034365748  20.371414      18.940932      1.430482      -1.5576432      18316.94     
    168000   1.0156504      0.0023323615   0.0024568766   20.637002      19.128761      1.5082409     -1.3217746      18355.508    
    169000   1.1932573      0.0023323615  -0.00071154274  20.689871      18.917884      1.7719871     -1.4929145      18391.59     
    170000   1.0639129      0.0023323615   0.0029314817   20.631917      19.052006      1.5799107     -1.4941671      18538.699    
    171000   1.1018072      0.0023323615   0.00087975708  20.975455      19.339271      1.6361836     -1.3096752      18434.906    
    172000   1.0247417      0.0023323615  -0.0010132092   20.628101      19.106359      1.5217414     -1.3865466      18522.299    
    173000   1.1105344      0.0023323615   0.00098267878  20.872722      19.223579      1.6491436     -1.2623545      18451.002    
    174000   1.0555348      0.0023323615   0.0022142455   21.101591      19.534121      1.5674692     -1.0687536      18775.357    
    175000   1.0299502      0.0023323615  -0.0037050536   21.045823      19.516347      1.5294761     -0.98247039     19172.247    
    176000   1.0815389      0.0023323615  -0.00028410418  21.180916      19.574831      1.6060852     -0.94728759     18822.447    
    177000   0.87952722     0.0023323615  -0.002710228    20.767851      19.461753      1.3060979     -1.0647236      18675.707    
    178000   1.0278462      0.0023323615  -0.00029374724  20.905936      19.379584      1.5263516     -1.113113       18790.27     
    179000   1.1592389      0.0023323615  -0.00041811785  21.036398      19.314928      1.7214697     -1.2150027      18493.879    
    180000   1.0578206      0.0023323615   0.0018692894   20.722344      19.15148       1.5708636     -1.3384165      18369.751    
    181000   1.0757086      0.0023323615  -0.00094615458  20.973867      19.37644       1.5974272     -1.2073398      18445.802    
    182000   1.0536815      0.0023323615   0.0012391781   20.590307      19.02559       1.564717      -1.3855612      18392.857    
    183000   1.0168739      0.0023323615  -0.0016986277   20.997676      19.487618      1.5100577     -1.0949757      18425.075    
    184000   0.91289282     0.0023323615  -0.0011982179   20.651295      19.29565       1.3556458     -1.1284351      18669.922    
    185000   1.0092982      0.0023323615  -0.002246592    20.892797      19.393989      1.4988078     -1.1332418      18698.879    
    186000   0.96388309     0.0023323615   0.0012306073   20.710882      19.279516      1.4313664     -1.3041367      18498.571    
    187000   1.0841546      0.0023323615  -0.0058138065   20.857429      19.247459      1.6099696     -1.2702751      18352.62     
    188000   1.0318612      0.0023323615   0.0033301341   21.015823      19.483509      1.5323138     -1.0034875      18644.784    
    189000   1.0091835      0.0023323615   0.0033934699   20.682563      19.183926      1.4986374     -1.3408343      18622.517    
    190000   0.9442296      0.0023323615  -0.0018790392   20.526746      19.124565      1.402181      -1.3949023      18359.198    
    191000   0.93937417     0.0023323615   0.001127811    20.715298      19.320327      1.3949706     -1.2973111      18406.36     
    192000   1.010536       0.0023323615  -0.0012989659   20.732497      19.231851      1.500646      -1.1508539      18458.539    
    193000   1.0587609      0.0023323615   6.1605012e-05  20.907381      19.335121      1.57226       -1.1790504      18562.505    
    194000   0.98753383     0.0023323615  -0.00010112342  20.914676      19.448188      1.4664877     -1.0309735      18610.597    
    195000   0.88511502     0.0023323615  -0.0012550367   20.48638       19.171984      1.3143958     -1.2176067      18656.912    
    196000   0.92827439     0.0023323615  -0.0039898239   20.842856      19.464368      1.3784875     -1.1426488      18513.219    
    197000   1.0231147      0.0023323615  -0.0045496595   20.840473      19.321147      1.5193253     -1.230441       18553.213    
    198000   1.0262723      0.0023323615  -0.0021469787   20.822081      19.298066      1.5240144     -1.1846514      18577.081    
    199000   0.97596779     0.0023323615  -0.00083425388  20.819695      19.370383      1.4493122     -1.1458139      18557.311    
    200000   1.0357308      0.0023323615   0.0024055652   20.790355      19.252295      1.5380603     -1.296989       18479.676    
    201000   0.91241637     0.0023323615   0.0028247783   20.544849      19.189911      1.3549383     -1.2016907      18751.411    
    202000   0.9839341      0.0023323615   0.0055866206   20.700732      19.23959       1.4611421     -1.3037992      18817.71     
    203000   0.78192893     0.0023323615   0.00034192281  20.601373      19.440209      1.1611645     -1.2422594      18687.231    
    204000   1.0361413      0.0023323615  -0.00028864168  20.913095      19.374425      1.5386698     -1.0439107      18609.865    
    205000   0.90979943     0.0023323615  -0.0022947545   20.557968      19.206916      1.3510521     -1.3815632      18548.559    
    206000   0.91747648     0.0023323615   0.0018699243   20.390749      19.028296      1.3624526     -1.5606699      18470.412    
    207000   1.0478759      0.0023323615  -5.4835721e-05  20.804982      19.248887      1.5560956     -1.336275       18419.781    
    208000   0.97523329     0.0023323615  -0.001002311    20.604027      19.155805      1.4482214     -1.3652639      18324.714    
    209000   0.96815309     0.0023323615  -0.00045278131  20.706546      19.268839      1.4377073     -1.4158967      18479.488    
    210000   0.92822852     0.0023323615  -0.0021287611   20.761911      19.383491      1.3784194     -1.1953941      18352.471    
    211000   0.97470954     0.0023323615   0.0045820085   20.692325      19.244881      1.4474437     -1.3140476      18427.616    
    212000   0.93027223     0.0023323615   0.001613178    20.544895      19.163441      1.3814543     -1.3529034      18404.687    
    213000   1.063922       0.0023323615   0.0031610807   20.735006      19.155082      1.5799242     -1.3718501      18583.608    
    214000   0.97920313     0.0023323615  -0.0020236852   20.399777      18.945661      1.4541166     -1.4073486      18466.137    
    215000   0.93207343     0.0023323615  -0.0029837646   20.63257       19.248441      1.384129      -1.2189402      18529.083    
    216000   0.9972239      0.0023323615   0.0058597619   20.833117      19.352239      1.4808775     -1.2047792      18621.353    
    217000   0.914199       0.0023323615   0.0024033114   20.373582      19.015997      1.3575855     -1.426967       18477.326    
    218000   0.98590579     0.0023323615  -0.0036135849   20.715333      19.251263      1.4640701     -1.2712331      18627.025    
    219000   0.99792063     0.0023323615   0.0040310668   20.464668      18.982756      1.4819121     -1.4919125      18674.32     
    220000   0.9127364      0.0023323615  -0.003820701    20.508685      19.153272      1.3554136     -1.3712399      18505.602    
    221000   0.98651148     0.0023323615   0.0010828603   20.531542      19.066572      1.4649695     -1.4652228      18465.85     
    222000   1.0146728      0.0023323615  -0.0011834373   20.569631      19.062842      1.5067891     -1.4159155      18512.484    
    223000   0.9413487      0.0023323615  -0.0028897139   20.624678      19.226776      1.3979028     -1.2572459      18683.866    
    224000   1.0654113      0.0023323615  -0.00092322015  20.835918      19.253783      1.5821358     -1.2387344      18650.233    
    225000   1.05203        0.0023323615   0.00058269217  20.833281      19.271017      1.5622645     -1.3575223      18492.382    
    226000   1.1416426      0.0023323615  -0.0033639098   21.055145      19.359806      1.6953393     -1.3331503      18509.219    
    227000   1.0799651      0.0023323615   0.0013223105   21.009556      19.405808      1.6037481     -1.2670585      18374.242    
    228000   1.1155308      0.0023323615  -0.0014610541   20.785661      19.129098      1.6565632     -1.4028317      18485.392    
    229000   1.2253755      0.0023323615  -0.0056819174   21.060554      19.240872      1.8196827     -1.3980841      18478.281    
    230000   0.98750758     0.0023323615   0.0030975891   20.607181      19.140733      1.4664488     -1.3543769      18476.293    
    231000   1.0373832      0.0023323615   0.0014914655   20.749219      19.208705      1.540514      -1.2613498      18549.355    
    232000   0.93750366     0.0023323615   0.00042266306  20.36837       18.976177      1.3921929     -1.5081245      18528.701    
    233000   0.98237339     0.0023323615  -0.0014090709   20.666651      19.207826      1.4588245     -1.26146        18469.12     
    234000   0.99868971     0.0023323615   0.0043339073   20.497895      19.014841      1.4830542     -1.4388191      18506.103    
    235000   0.86186025     0.0023323615  -0.0034611035   20.25931       18.979448      1.2798625     -1.4711558      18384.181    
    236000   1.0828817      0.0023323615   0.0016014113   20.594456      18.986377      1.6080793     -1.5473285      18267.897    
    237000   0.97597625     0.0023323615   0.0026067084   20.450679      19.001355      1.4493247     -1.4557783      18203.36     
    238000   1.0156306      0.0023323615  -0.0023928157   20.754805      19.246594      1.5082115     -1.1857828      18627.553    
    239000   0.91484204     0.0023323615  -0.0010360361   21.063356      19.704816      1.3585404     -0.87254623     18848.59     
    240000   1.0335621      0.0023323615   0.0017674422   21.081859      19.547019      1.5348397     -1.0853771      18766.444    
    241000   0.92960285     0.0023323615   0.0019317744   21.094151      19.713691      1.3804602     -0.93657026     18552.199    
    242000   0.99291878     0.0023323615   0.00092004956  20.895195      19.420711      1.4744844     -1.0670162      18642.726    
    243000   1.0823721      0.0023323615  -0.00073931254  21.041941      19.434618      1.6073225     -1.101622       18761.569    
    244000   1.1313984      0.0023323615   0.0022367427   20.779702      19.099576      1.6801266     -1.3841275      18684.206    
    245000   1.0698385      0.0023323615   0.0043989526   20.631432      19.042722      1.5887101     -1.4304887      18450.671    
    246000   1.032742       0.0023323615  -0.0027667784   20.874463      19.340842      1.5336219     -1.1224121      18571.665    
    247000   0.98013904     0.0023323615   0.0033259168   20.802524      19.347018      1.4555065     -1.1229503      18744.403    
    248000   0.99194558     0.0023323615  -0.001051798    20.699016      19.225977      1.4730392     -1.3477885      18485.463    
    249000   0.99323307     0.0023323615  -0.0030937801   20.805857      19.330906      1.4749511     -1.3018612      18191.821    
    250000   1.0148773      0.0023323615   0.0011998764   20.744963      19.23787       1.5070928     -1.2832295      18238.695    
    251000   1.0929547      0.0023323615  -0.00020094691  20.74176       19.118722      1.6230378     -1.4125073      18198.777    
    252000   0.8888741      0.0023323615   0.00086630601  20.555283      19.235305      1.319978      -1.2416983      18425.504    
    253000   0.96790001     0.0023323615  -0.00068739246  20.679332      19.242         1.4373315     -1.3272193      18343.938    
    254000   1.0232152      0.0023323615  -0.00034031804  20.734683      19.215209      1.5194746     -1.2314348      18311.301    
    255000   1.0951621      0.0023323615   0.0011631056   21.252482      19.626166      1.6263158     -1.043345       18383.318    
    256000   0.99821661     0.0023323615  -0.00042659628  20.752521      19.270169      1.4823517     -1.1906778      18361.955    
    257000   0.94471387     0.0023323615  -0.0022649844   20.919754      19.516854      1.4029001     -0.97465233     18508.639    
    258000   1.0924369      0.0023323615   0.00043391786  21.074981      19.452713      1.6222688     -1.1793675      18567.098    
    259000   1.0196235      0.0023323615   0.0022666149   20.694962      19.180821      1.5141409     -1.3826517      18323.658    
    260000   1.0297292      0.0023323615  -0.00063876436  20.935067      19.405919      1.5291479     -1.1343832      18363.86     
    261000   1.0133735      0.0023323615   0.00027841547  20.614801      19.109942      1.5048597     -1.3609189      18443.361    
    262000   1.0512709      0.0023323615   0.0042012332   20.882742      19.321605      1.5611373     -1.2068662      18251.649    
    263000   1.0901696      0.0023323615   0.0019832172   20.8004        19.181499      1.6189018     -1.3349461      18282.161    
    264000   1.0670106      0.0023323615  -0.00068660913  20.951286      19.366776      1.5845108     -1.1698393      18303.695    
    265000   0.96632977     0.0023323615  -0.0036276102   20.790744      19.355744      1.4349997     -1.2397292      18204.475    
    266000   1.0425158      0.0023323615  -0.0002719781   20.933795      19.385659      1.548136      -1.2501348      18251.816    
    267000   1.0245071      0.0023323615  -0.0036930945   20.835106      19.313713      1.521393      -1.2540931      18321.657    
    268000   1.0229053      0.0023323615   0.0036328548   20.73708       19.218066      1.5190144     -1.3676934      18302.668    
    269000   1.1279383      0.0023323615   0.0050940181   20.684592      19.009603      1.6749883     -1.3545049      18274.623    
    270000   0.97596914     0.0023323615  -0.00085078207  20.541185      19.091871      1.4493142     -1.4448525      18297.672    
    271000   0.92726034     0.0023323615   0.0016373602   20.32342       18.946439      1.3769816     -1.5007302      18148.295    
    272000   0.98163275     0.0023323615  -0.0037318017   20.297609      18.839884      1.4577246     -1.6150134      17898.82     
    273000   1.1326302      0.0023323615   0.00075423374  20.686348      19.004393      1.6819558     -1.6538778      18014.58     
    274000   0.94293462     0.0023323615   0.001491499    20.569056      19.168798      1.4002579     -1.4925075      18035.165    
    275000   0.94494392     0.0023323615   0.0017219115   20.615867      19.212625      1.4032417     -1.3497505      18259.642    
    276000   1.0086556      0.0023323615   0.00042753644  20.515364      19.017511      1.4978535     -1.4756493      18371.911    
    277000   1.0074472      0.0023323615  -0.0031539256   20.902116      19.406057      1.496059      -1.2263869      18181.098    
    278000   1.131827       0.0023323615  -0.00039005134  20.871942      19.191179      1.6807631     -1.3401521      18239.279    
    279000   1.0195735      0.0023323615  -0.00011319721  20.8086        19.294533      1.5140666     -1.2515358      18465.41     
    280000   0.98500416     0.0023323615   0.00017313531  20.503083      19.040352      1.4627312     -1.4394417      18326.07     
    281000   0.83779764     0.0023323615   0.0039397761   20.214815      18.970686      1.2441295     -1.5082133      18116.669    
    282000   0.98927175     0.0023323615  -0.00076331103  20.612492      19.143423      1.4690685     -1.4372829      18163.579    
    283000   0.94427187     0.0023323615   0.0017196285   20.511938      19.109695      1.4022437     -1.4592167      18248.522    
    284000   0.93068883     0.0023323615  -0.00046006502  20.824256      19.442183      1.3820729     -1.2227873      18286.204    
    285000   0.93766971     0.0023323615  -0.0017165987   20.511324      19.118885      1.3924395     -1.3097924      18490.662    
    286000   1.0502877      0.0023323615   0.002925807    20.947318      19.387641      1.5596773     -1.127894       18559.13     
    287000   1.0594027      0.0023323615   7.8312234e-05  20.739828      19.166615      1.573213      -1.3905552      18402.746    
    288000   0.87429583     0.0023323615  -0.00029839129  20.398844      19.100515      1.2983293     -1.3354365      18343.321    
    289000   0.94822628     0.0023323615   0.0024236457   20.713011      19.304895      1.408116      -1.1655174      18455.843    
    290000   0.98130507     0.0023323615   0.0018311755   20.422654      18.965416      1.457238      -1.5088827      18319.054    
    291000   1.0054574      0.0023323615   0.00245409     20.750665      19.257561      1.4931042     -1.2730115      18349.347    
    292000   0.97072727     0.0023323615   0.0038852463   20.478167      19.036637      1.44153       -1.3891469      18171.42     
    293000   1.0828758      0.0023323615   0.0026282492   20.656692      19.048621      1.6080706     -1.4083483      18333.213    
    294000   1.0822346      0.0023323615   0.0032168548   20.844298      19.237179      1.6071184     -1.3084745      18340.442    
    295000   1.0599025      0.0023323615  -0.00089042375  20.538741      18.964786      1.5739552     -1.5205451      18215.672    
    296000   1.0725086      0.0023323615   0.002230321    20.71737       19.124695      1.5926753     -1.4511292      18243.876    
    297000   0.99014637     0.0023323615  -0.00088287287  20.632491      19.162124      1.4703674     -1.4640679      18263.154    
    298000   1.0138842      0.0023323615   0.0017891986   20.47015       18.964532      1.5056181     -1.5384351      18117.201    
    299000   1.098365       0.0023323615  -0.0024913814   21.009438      19.378366      1.631072      -1.1433906      18242.442    
    300000   1.0689303      0.0023323615  -0.00046212195  20.689467      19.102106      1.5873616     -1.400385       18332.422    
    301000   1.0561096      0.0023323615   0.00069749507  20.538728      18.970406      1.5683227     -1.5799901      18128.472    
    302000   0.94916543     0.0023323615  -0.0022978717   20.750214      19.340704      1.4095107     -1.2297654      18184.801    
    303000   1.109487       0.0023323615   0.0033015254   20.871229      19.223641      1.6475882     -1.2525933      18223.261    
    304000   0.96298515     0.0023323615  -0.0028458978   20.494582      19.064549      1.430033      -1.4732488      18213.415    
    305000   0.93061852     0.0023323615   0.00077057663  20.607967      19.225998      1.3819685     -1.4219056      18187.373    
    306000   1.0988716      0.0023323615   0.0010198806   20.457718      18.825894      1.6318243     -1.5359839      18144.095    
    307000   0.94059571     0.0023323615  -0.0030024138   20.380565      18.98378       1.3967846     -1.5202168      18200.924    
    308000   0.85439995     0.0023323615   0.0029671833   20.416242      19.147458      1.2687839     -1.2816806      18204.542    
    309000   1.0050651      0.0023323615   0.00061665093  20.73099       19.238469      1.4925216     -1.3503426      18282.549    
    310000   1.1150694      0.0023323615   0.0014292623   20.766171      19.110293      1.6558781     -1.4174074      18257.906    
    311000   0.97082407     0.0023323615  -0.00053597533  20.699338      19.257664      1.4416738     -1.3248402      18212.239    
    312000   1.030216       0.0023323615  -0.00037387126  20.784626      19.254755      1.5298707     -1.2491191      18339.893    
    313000   1.0662899      0.0023323615   0.0016495864   20.932858      19.349417      1.5834405     -1.1285637      18377.378    
    314000   1.01306        0.0023323615  -0.00029843177  20.832827      19.328433      1.5043941     -1.1742315      18431.271    
    315000   0.91492        0.0023323615   0.0052795059   20.70195       19.343293      1.3586562     -1.1759157      18623.417    
    316000   1.0153449      0.0023323615   0.0028231907   20.88661       19.378823      1.5077872     -1.1269384      18537.686    
    317000   0.883545       0.0023323615   0.00038467537  20.557841      19.245777      1.3120643     -1.2549629      18395.858    
    318000   1.1113175      0.0023323615  -0.0024415141   20.917075      19.266769      1.6503065     -1.1955593      18514.266    
    319000   1.0999088      0.0023323615   0.0035991126   20.877624      19.244259      1.6333645     -1.3295287      18446.415    
    320000   0.90877303     0.0023323615   0.0015537726   20.550001      19.200473      1.3495279     -1.3151204      18239.369    
    321000   0.9493123      0.0023323615  -0.0032286735   20.841184      19.431456      1.4097288     -1.1154112      18337.777    
    322000   0.98038345     0.0023323615  -0.001664027    20.788606      19.332736      1.4558694     -1.2193595      18326.134    
    323000   0.84373845     0.0023323615  -0.00071938291  20.979564      19.726612      1.2529516     -0.85124266     18563.783    
    324000   1.0466434      0.0023323615   0.0019967257   20.910983      19.356717      1.5542655     -1.1582956      18645.731    
    325000   0.99768398     0.0023323615  -0.0018228548   20.69889       19.21733       1.4815607     -1.2934518      18478.055    
    326000   0.96850553     0.0023323615  -6.4343905e-05  20.730618      19.292388      1.4382307     -1.2949628      18408.193    
    327000   0.94034955     0.0023323615   0.0019361181   20.637238      19.240818      1.3964191     -1.3215319      18345.549    
    328000   0.9253289      0.0023323615  -0.00076602344  20.786149      19.412036      1.3741134     -1.0913343      18331.667    
    329000   0.82750141     0.0023323615  -0.0002696426   20.477114      19.248274      1.2288396     -1.2555441      18412.343    
    330000   0.97423442     0.0023323615   0.00039862445  20.722217      19.275479      1.4467381     -1.2822579      18323.846    
    331000   1.0131343      0.0023323615  -0.00051897964  20.648943      19.144439      1.5045044     -1.3193752      18318.761    
    332000   0.89907396     0.0023323615  -0.00094855513  20.472676      19.137552      1.3351248     -1.3344306      18293.617    
    333000   0.95351438     0.0023323615   0.0011142989   20.610636      19.194667      1.4159688     -1.3100213      18325.515    
    334000   1.0272918      0.0023323615   0.00029995028  20.796597      19.271068      1.5255283     -1.2137235      18381.199    
    335000   0.83393482     0.0023323615  -0.0019389211   20.486362      19.247969      1.2383932     -1.2385584      18385.99     
    336000   0.97434195     0.0023323615   0.00083805892  20.65513       19.208232      1.4468978     -1.2991544      18251.032    
    337000   1.0876832      0.0023323615   0.0035136402   20.739638      19.124429      1.6152095     -1.3631789      18345.579    
    338000   0.94396113     0.0023323615  -0.004398699    20.760658      19.358876      1.4017823     -1.3073457      18307.122    
    339000   0.99206645     0.0023323615   0.0042090705   20.985278      19.512059      1.4732187     -1.1529778      18320.944    
    340000   1.0477955      0.0023323615   0.00055999317  20.779979      19.224003      1.5559763     -1.3030178      18279.108    
    341000   1.0264788      0.0023323615  -0.0047899985   20.729406      19.205085      1.524321      -1.4186141      18207.986    
    342000   0.93979521     0.0023323615   0.0011848567   20.55086       19.155264      1.3955959     -1.3807313      18191.377    
    343000   1.0698634      0.0023323615   0.0022445259   20.442654      18.853907      1.5887471     -1.6190454      18111.79     
    344000   0.94740533     0.0023323615  -0.00060669051  20.542291      19.135394      1.4068969     -1.3531719      18198.76     
    345000   1.1677763      0.0023323615   0.003302224    20.956927      19.22278       1.7341478     -1.3136325      18129.917    
    346000   0.98137807     0.0023323615   0.0013989263   20.736721      19.279375      1.4573464     -1.3069061      18328.456    
    347000   0.92825956     0.0023323615  -0.0048161506   20.693494      19.315028      1.3784654     -1.2166636      18327.19     
    348000   0.90601678     0.0023323615  -0.0040085613   20.426815      19.08138       1.3454349     -1.3574585      18381.757    
    349000   1.138103       0.0023323615   0.0018508087   20.780178      19.090095      1.690083      -1.4661765      18191.185    
    350000   1.1259301      0.0023323615  -0.0013951191   21.043528      19.371522      1.6720062     -1.1566826      18310.32     
    351000   1.0248563      0.0023323615   0.0040334112   20.871807      19.349895      1.5219116     -1.135692       18353.821    
    352000   0.99883518     0.0023323615  -0.002867879    20.777732      19.294462      1.4832702     -1.1573379      18441.916    
    353000   0.95032196     0.0023323615  -0.0013647536   20.680011      19.268783      1.4112281     -1.195685       18208.534    
    354000   1.096359       0.0023323615   0.00064040262  20.950743      19.32265       1.6280932     -1.1574451      18390.512    
    355000   0.9848624      0.0023323615   0.00084169677  21.101542      19.639021      1.4625207     -0.98485422     18384.676    
    356000   1.0517381      0.0023323615   0.0015588427   20.882862      19.321031      1.5618311     -1.2495519      18322.302    
    357000   0.94370824     0.0023323615  -0.0010988318   20.636897      19.23549       1.4014067     -1.3459321      18229.558    
    358000   0.92177239     0.0023323615   0.0016189503   20.460951      19.092119      1.368832      -1.4298016      18336.325    
    359000   1.0854526      0.0023323615  -0.0013663603   20.851881      19.239984      1.6118972     -1.2202642      18202.56     
    360000   1.1249684      0.0023323615  -0.00042664136  20.97025       19.299672      1.670578      -1.246092       18384.456    
    361000   1.0433196      0.0023323615  -0.00048513457  21.115266      19.565936      1.5493296     -0.97700322     18557.963    
    362000   1.0154204      0.0023323615  -0.001833822    21.001188      19.493289      1.5078993     -1.0597498      18527.814    
    363000   1.1321823      0.0023323615  -0.00018287556  21.025528      19.344237      1.6812908     -1.1651295      18501.205    
    364000   0.9479733      0.0023323615  -0.0021674671   20.950755      19.543015      1.4077403     -1.1804969      18389.072    
    365000   1.0537024      0.0023323615  -0.0016889041   20.782345      19.217597      1.564748      -1.3619101      18354.921    
    366000   0.97896385     0.0023323615   0.002473617    20.592956      19.139195      1.4537613     -1.5472761      18226.216    
    367000   0.95516084     0.0023323615   0.0048585158   20.53988       19.121466      1.4184139     -1.4043921      18254.503    
    368000   0.95414175     0.0023323615  -0.0029375522   20.716446      19.299546      1.4169005     -1.235656       18226.353    
    369000   0.9663293      0.0023323615  -0.0068653212   20.761316      19.326317      1.434999      -1.2698863      18349.721    
    370000   0.94641776     0.0023323615  -0.0013211732   20.738846      19.333416      1.4054304     -1.2160194      18298.138    
    371000   0.95843838     0.0023323615  -0.000769329    20.387034      18.963753      1.423281      -1.4180023      18235.267    
    372000   1.0841118      0.0023323615   0.0051620144   20.662812      19.052906      1.609906      -1.4385836      18194.394    
    373000   1.1246777      0.0023323615  -0.00039157975  20.804146      19.134         1.6701463     -1.4546282      18134.456    
    374000   0.91550694     0.0023323615  -0.0043362153   20.727742      19.368214      1.3595278     -1.2409422      18156.172    
    375000   0.99356239     0.0023323615   0.0035264765   20.63968       19.16424       1.4754402     -1.3251566      18403.224    
    376000   0.92101906     0.0023323615   0.0037304382   20.382958      19.015245      1.3677133     -1.4291246      18235.846    
    377000   1.0082832      0.0023323615  -0.001166763    20.455992      18.958692      1.4973006     -1.5052574      18148.077    
    378000   0.90256197     0.0023323615   0.00043178581  20.571458      19.231154      1.3403045     -1.2170512      18111.136    
    379000   1.0638097      0.0023323615   0.003882439    20.813456      19.233699      1.5797574     -1.3599928      18274.52     
    380000   0.93349821     0.0023323615  -0.0021804681   20.820826      19.434581      1.3862448     -1.0566853      18250.114    
    381000   0.94711056     0.0023323615  -0.00082066217  20.725345      19.318886      1.4064592     -1.1838038      18451.067    
    382000   1.0724702      0.0023323615   0.0011200603   20.918651      19.326033      1.5926182     -1.2426657      18365.273    
    383000   1.2400131      0.0023323615   0.0057106514   21.068269      19.22685       1.8414194     -1.3763136      18450.947    
    384000   0.89786601     0.0023323615   0.0021092958   20.316368      18.983037      1.333331      -1.6080554      18339.444    
    385000   1.0158442      0.0023323615  -0.0014134548   20.544709      19.03618       1.5085286     -1.4812093      18188.94     
    386000   0.93445811     0.0023323615  -0.0014868212   20.59016       19.202489      1.3876703     -1.3618191      18381.737    
    387000   0.94278896     0.0023323615   0.0014989038   20.536173      19.136132      1.4000416     -1.2327667      18479.341    
    388000   0.93684579     0.0023323615  -0.0023621609   20.312503      18.921287      1.391216      -1.5148171      18353.861    
    389000   1.0393564      0.0023323615   0.0015036592   20.769413      19.225968      1.5434443     -1.1928704      18474.132    
    390000   0.92683528     0.0023323615   0.0030252924   20.622654      19.246304      1.3763504     -1.3622641      18272.368    
    391000   0.98848322     0.0023323615  -0.003483241    20.743425      19.275527      1.4678976     -1.4516758      18512.858    
    392000   1.026858       0.0023323615  -0.0014139381   20.825886      19.301002      1.5248841     -1.2513903      18558.829    
    393000   0.91689984     0.0023323615  -0.00018794908  20.690048      19.328452      1.3615963     -1.247549       18493.526    
    394000   0.94741187     0.0023323615   0.0042228195   20.78014       19.373233      1.4069066     -1.1370251      18631.813    
    395000   1.0497239      0.0023323615   0.00030235829  20.783017      19.224177      1.55884       -1.2662307      18540.141    
    396000   1.1576587      0.0023323615  -0.0018811779   21.101785      19.382662      1.7191232     -1.1765139      18393.908    
    397000   0.93566816     0.0023323615  -0.0050861075   21.016595      19.627128      1.3894672     -1.0656504      18681.422    
    398000   1.08334        0.0023323615  -0.0016743175   21.260156      19.651396      1.6087599     -0.95674051     18743.333    
    399000   1.0710948      0.0023323615  -0.00051835217  20.976067      19.385491      1.5905758     -1.1833922      18802.417    
    400000   0.95304673     0.0023323615   0.00089943819  20.842981      19.427706      1.4152744     -1.2778159      18440.918    
    401000   0.93601402     0.0023323615  -0.0018370525   20.542795      19.152814      1.3899808     -1.3631405      18369.301    
    402000   0.93699773     0.0023323615  -0.0018614486   20.47825       19.086809      1.3914416     -1.4223391      18500.574    
    403000   0.95308498     0.0023323615  -0.0057709036   20.817993      19.402661      1.4153312     -1.2920145      18425.174    
    404000   0.99217468     0.0023323615  -0.00084557677  20.869347      19.395967      1.4733794     -1.1207637      18505.798    
    405000   1.0370112      0.0023323615  -0.0021217064   20.673555      19.133594      1.5399616     -1.2896355      18420.886    
    406000   1.0629885      0.0023323615  -0.0016058349   20.731613      19.153075      1.5785379     -1.3029255      18446.398    
    407000   1.236316       0.0023323615  -0.00033246443  21.351887      19.515958      1.8359292     -1.1407844      18559.557    
    408000   0.98169761     0.0023323615  -0.0011185295   20.607094      19.149273      1.4578209     -1.3860328      18477.367    
    409000   0.96201317     0.0023323615   0.0016916897   20.576406      19.147816      1.4285896     -1.3126559      18825.035    
    410000   0.84813581     0.0023323615  -0.00067412937  20.679437      19.419956      1.2594817     -1.0822869      18990.711    
    411000   1.018557       0.0023323615   0.0017734199   20.494403      18.981846      1.5125571     -1.3638966      18691.928    
    412000   0.79244053     0.0023323615   0.0026091681   20.626661      19.449887      1.1767742     -1.1848407      18552.241    
    413000   0.98635069     0.0023323615  -0.0028114307   20.780227      19.315496      1.4647308     -1.2206019      18618.884    
    414000   0.96521744     0.0023323615   0.0020422439   20.579516      19.146168      1.4333479     -1.3520861      18630.074    
    415000   0.84406641     0.0023323615  -0.0018444231   20.71412       19.460681      1.2534386     -1.0539285      18711.621    
    416000   0.94194805     0.0023323615  -0.0039876249   20.842016      19.443223      1.3987929     -1.247459       18520.196    
    417000   0.83295811     0.0023323615   0.0032672894   20.443921      19.206978      1.2369428     -1.2553412      18382.353    
    418000   0.98355643     0.0023323615   0.00039433173  20.92306       19.462478      1.4605813     -1.2898849      18321.566    
    419000   0.90642745     0.0023323615   0.0014134392   20.427586      19.081542      1.3460448     -1.4779073      18411.786    
    420000   0.92816251     0.0023323615  -0.0012489059   20.923661      19.54534       1.3783213     -1.2048494      18402.661    
    421000   0.91097222     0.0023323615   0.002160101    20.690757      19.337963      1.3527938     -1.2242151      18443.879    
    422000   0.95765334     0.0023323615   0.00083069144  20.873578      19.451463      1.4221152     -1.1736279      18586.203    
    423000   0.83801389     0.0023323615   0.00059788273  20.278037      19.033586      1.2444506     -1.4812073      18519.477    
    424000   1.0251188      0.0023323615   0.0016351786   20.584354      19.062053      1.5223014     -1.4443195      18476.618    
    425000   1.0255727      0.0023323615  -0.0024496679   21.009295      19.486319      1.5229755     -1.181364       18454.87     
    426000   0.88883483     0.0023323615  -0.0033949859   20.316559      18.996639      1.3199197     -1.4711669      18436.871    
    427000   1.1100748      0.0023323615   0.0044538294   20.839315      19.190853      1.6484611     -1.3484866      18491.604    
    428000   1.0487879      0.0023323615   0.0013994517   20.845567      19.288117      1.55745       -1.2109481      18623.195    
    429000   0.9053613      0.0023323615  -0.0031793797   20.708438      19.363976      1.3444615     -1.1446334      18542.825    
    430000   0.97852942     0.0023323615  -0.0023218693   20.642977      19.189861      1.4531162     -1.2187899      18430.338    
    431000   1.0108036      0.0023323615  -0.0035616686   20.733884      19.23284       1.5010434     -1.3131388      18713.698    
    432000   0.99291883     0.0023323615   0.00029310775  20.840731      19.366246      1.4744845     -1.2182107      18533.827    
    433000   1.0285057      0.0023323615  -0.00072613388  20.916138      19.388807      1.527331      -1.1736612      18458.99     
    434000   1.0925635      0.0023323615  -0.0016068991   20.713029      19.090572      1.6224569     -1.3561453      18434.43     
    435000   0.88576758     0.0023323615  -9.4137436e-05  20.492094      19.176729      1.3153649     -1.3699364      18384.757    
    436000   1.0356504      0.0023323615  -0.0012360755   20.936872      19.398931      1.5379408     -1.1277557      18535.848    
    437000   1.1242184      0.0023323615   0.0016953911   20.902405      19.23294       1.6694644     -1.2313311      18496.926    
    438000   1.0209923      0.0023323615  -0.0018929901   20.767507      19.251333      1.5161736     -1.2103157      18572.491    
    439000   0.92453858     0.0023323615  -0.0024822732   20.630563      19.257623      1.3729398     -1.2495328      18525.121    
    440000   1.1122721      0.0023323615  -0.0017981391   20.864884      19.21316       1.6517241     -1.2235374      18621.225    
    441000   1.0325296      0.0023323615  -0.0038640301   20.950206      19.416899      1.5333065     -1.1905462      18880.49     
    442000   1.0822007      0.0023323615  -0.0012355275   21.007682      19.400614      1.607068      -1.0649916      19165.415    
    443000   1.18546        0.0023323615  -0.0011689197   21.17324       19.412832      1.7604081     -1.1609021      18803.137    
    444000   1.074317       0.0023323615  -0.00027479346  20.994633      19.399272      1.5953607     -1.2122511      18717.144    
    445000   1.0460417      0.0023323615  -0.0019883023   20.80902       19.255648      1.5533719     -1.3180194      18922.892    
    446000   0.96914589     0.0023323615  -0.0031885672   20.755733      19.316552      1.4391817     -1.2058354      18739.258    
    447000   0.85990839     0.0023323615  -0.00049783598  20.56117       19.284206      1.276964      -1.3143538      18492.293    
    448000   0.86088759     0.0023323615   0.0014308033   20.690207      19.411789      1.2784181     -1.1459659      18664.165    
    449000   0.99204048     0.0023323615  -0.0036169844   20.675549      19.202369      1.4731801     -1.3532361      18687.966    
    450000   0.96535541     0.0023323615  -0.0020759628   20.457785      19.024232      1.4335528     -1.4583672      18413.838    
    451000   0.88748479     0.0023323615   0.0024150912   20.604656      19.286741      1.3179149     -1.2329852      18457.338    
    452000   0.91563194     0.0023323615   0.0014858811   20.759796      19.400082      1.3597134     -1.0992427      18673.523    
    453000   0.9543997      0.0023323615   0.0025991623   20.729299      19.312016      1.4172836     -1.142723       18571.955    
    454000   0.90907757     0.0023323615  -0.0016688634   20.699664      19.349684      1.3499802     -1.0398314      18478.944    
    455000   0.97667712     0.0023323615   0.0041382145   20.869185      19.41882       1.4503655     -1.0978508      18527.497    
    456000   0.84027615     0.0023323615  -0.00013139126  20.543596      19.295786      1.2478101     -1.2156222      18601.285    
    457000   0.98549393     0.0023323615  -0.00095738948  20.811827      19.348368      1.4634585     -1.1709094      18497.567    
    458000   1.0696198      0.0023323615   0.0004455379   20.844416      19.256031      1.5883854     -1.4068621      18625.328    
    459000   0.99268149     0.0023323615   0.0022559524   20.75812       19.283988      1.474132      -1.3431227      18558.722    
    460000   0.97969569     0.0023323615  -0.0052477738   20.623912      19.169064      1.4548481     -1.3848509      18374.144    
    461000   1.0554129      0.0023323615   0.0028534412   20.653388      19.0861        1.5672882     -1.4393883      18338.39     
    462000   1.1159299      0.0023323615  -0.0019002501   20.827745      19.170589      1.6571558     -1.400427       18379.875    
    463000   0.99924708     0.0023323615  -0.0042493954   20.919159      19.435277      1.4838819     -1.1917968      18421.709    
    464000   1.0109402      0.0023323615   0.0025758798   20.739181      19.237935      1.5012461     -1.2693143      18511.382    
    465000   1.1354901      0.0023323615   0.00028389037  21.055109      19.368907      1.6862028     -1.0749934      18759.559    
    466000   1.0319881      0.0023323615  -0.00047945634  20.908457      19.375955      1.5325024     -1.1004764      18699.52     
    467000   1.0357905      0.0023323615  -0.00043796556  20.652167      19.114018      1.5381489     -1.4627132      18380.136    
    468000   1.007522       0.0023323615  -0.0021049947   20.402008      18.905837      1.4961702     -1.5489085      18342.943    
    469000   0.96563375     0.0023323615  -0.0010565313   20.580062      19.146096      1.4339661     -1.3975423      18402.97     
    470000   1.0404805      0.0023323615  -0.00084905387  20.43868       18.893567      1.5451136     -1.5203257      18356.234    
    471000   1.0730924      0.0023323615  -0.00032402595  21.023255      19.429713      1.5935422     -1.1592471      18362.712    
    472000   1.1491724      0.0023323615  -9.5068141e-05  20.661981      18.95546       1.706521      -1.4656182      18426.708    
    473000   1.0594472      0.0023323615   0.0013977841   20.67507       19.101791      1.5732791     -1.3412102      18383.988    
    474000   1.1092564      0.0023323615  -0.0010669559   20.59501       18.947764      1.6472457     -1.429083       18330.176    
    475000   0.97087619     0.0023323615  -0.00086997476  20.789672      19.347921      1.4417511     -1.1460664      18260.882    
    476000   1.1017238      0.0023323615  -0.0023805679   20.91616       19.280101      1.6360598     -1.2785913      18397.851    
    477000   0.90883899     0.0023323615   0.0021347025   20.755252      19.405626      1.3496259     -1.1514367      18508.241    
    478000   1.0934259      0.0023323615  -0.0016149518   20.66773       19.043993      1.6237374     -1.4281131      18511.132    
    479000   0.97358262     0.0023323615  -0.0011434265   20.608887      19.163116      1.4457702     -1.2980138      18314.257    
    480000   0.90519692     0.0023323615  -0.0020613129   20.4167        19.072482      1.3442174     -1.4018915      18342.448    
    481000   1.0504112      0.0023323615   0.0010441389   20.77069       19.21083       1.5598606     -1.32142        18341.285    
    482000   0.8838058      0.0023323615  -0.0030826741   20.443808      19.131357      1.3124516     -1.4129791      18289.263    
    483000   1.0021992      0.0023323615  -0.0041308139   20.868597      19.380331      1.4882659     -1.2342812      18557.925    
    484000   1.041568       0.0023323615   0.00415956     20.793625      19.246897      1.5467284     -1.3077824      18552.975    
    485000   0.9987628      0.0023323615   0.0018995978   20.711248      19.228086      1.4831628     -1.3051529      18539.563    
    486000   1.0467163      0.0023323615   0.0016569097   20.84545       19.291077      1.5543737     -1.3147797      18536.055    
    487000   0.86666162     0.0023323615   0.0006512328   20.642456      19.355464      1.2869925     -1.1724679      18634.345    
    488000   0.98806743     0.0023323615   0.0039339899   20.676346      19.209066      1.4672801     -1.3455115      18555.662    
    489000   0.94899545     0.0023323615  -0.0061543922   20.679292      19.270033      1.4092582     -1.3022406      18447.346    
    490000   1.0856246      0.0023323615  -0.0025018795   20.935876      19.323724      1.6121526     -1.1500401      18499.59     
    491000   0.95731669     0.0023323615  -0.0008906583   20.4201        18.998485      1.4216153     -1.4427257      18718.446    
    492000   1.0473281      0.0023323615   0.00093017031  20.496169      18.940886      1.5552822     -1.4663755      18451.428    
    493000   1.0411234      0.0023323615   0.00072531001  20.714355      19.168286      1.5460682     -1.3254123      18318.513    
    494000   0.86193423     0.0023323615  -0.0016758022   20.241694      18.961722      1.2799723     -1.6069488      18271.054    
    495000   0.99136822     0.0023323615  -0.0014239435   20.843845      19.371663      1.4721818     -1.1507872      18333.574    
    496000   0.97040071     0.0023323615   0.0015258031   20.369236      18.928191      1.4410451     -1.5619159      18446.667    
    497000   0.95384694     0.0023323615  -0.0028586239   20.721183      19.30472       1.4164627     -1.2005711      18464.204    
    498000   0.97278378     0.0023323615   0.00075997575  20.40688       18.962296      1.4445839     -1.4229472      18491.08     
    499000   0.96112738     0.0023323615   0.00169338     20.705182      19.277908      1.4272742     -1.1860371      18486.528    
    500000   0.90873104     0.0023323615   0.0009004255   20.57421       19.224744      1.3494656     -1.3069536      18667.677    
    501000   0.99504138     0.0023323615   0.0010784045   20.949104      19.471467      1.4776365     -1.1290132      18597.649    
    502000   1.050536       0.0023323615   0.0040689116   20.720198      19.160152      1.560046      -1.3498338      18534.712    
    503000   0.9736448      0.0023323615  -0.0027388779   20.642999      19.197136      1.4458625     -1.251936       18403.476    
    504000   1.0062645      0.0023323615   0.002083933    21.063626      19.569323      1.4943028     -0.95433985     18604.668    
    505000   0.88486191     0.0023323615  -0.00015497445  20.728803      19.414783      1.3140199     -1.0328962      18797.917    
    506000   0.96236646     0.0023323615  -0.00031960924  20.790422      19.361308      1.4291142     -1.1395671      18860.198    
    507000   1.171692       0.0023323615  -0.0015170811   21.100043      19.360081      1.7399626     -1.0892436      18657.975    
    508000   1.0947848      0.0023323615   0.0049384057   20.967232      19.341477      1.6257555     -1.17028        18674.169    
    509000   1.0331083      0.0023323615  -0.0013516529   20.742175      19.208009      1.5341659     -1.2723685      18551.723    
    510000   1.0713217      0.0023323615   0.0051633118   20.831026      19.240113      1.5909127     -1.3115446      18603.507    
    511000   0.95983399     0.0023323615  -0.0015404708   20.729298      19.303944      1.4253535     -1.3343123      18584.411    
    512000   1.1596461      0.0023323615  -0.00081927441  21.021973      19.299899      1.7220744     -1.1910257      18473.113    
    513000   1.0694642      0.0023323615  -0.0028792436   21.040215      19.45206       1.5881544     -1.0248166      18727.107    
    514000   1.0434424      0.0023323615   0.0025656681   20.781004      19.231492      1.5495119     -1.2387029      18578.727    
    515000   1.1040095      0.0023323615  -0.0010212268   20.794175      19.154721      1.639454      -1.3625123      18515.623    
    516000   0.94189044     0.0023323615   0.00070653357  20.348882      18.950175      1.3987073     -1.5992068      18405.478    
    517000   1.0171608      0.0023323615  -0.00012070032  20.628177      19.117693      1.5104838     -1.3603117      18292.719    
    518000   0.98506304     0.0023323615   0.0019118766   20.826956      19.364137      1.4628186     -1.2463302      18357.588    
    519000   0.93622936     0.0023323615   0.0011001258   20.839559      19.449258      1.3903006     -1.0931381      18482.13     
    520000   1.0517912      0.0023323615  -0.0014529629   20.657391      19.095481      1.5619099     -1.4192232      18455.201    
    521000   0.9696831      0.0023323615  -0.0021291869   20.639762      19.199783      1.4399794     -1.3527022      18391.865    
    522000   1.0109844      0.0023323615   0.0031602546   20.809007      19.307695      1.5013119     -1.1863522      18546.17     
    523000   0.96568658     0.0023323615  -0.00075944591  20.638956      19.204912      1.4340446     -1.2513422      18558.281    
    524000   0.89210644     0.0023323615   0.0024299413   20.506129      19.181351      1.3247781     -1.3424785      18414.714    
    525000   1.0304188      0.0023323615  -0.00053147588  20.533108      19.002936      1.5301719     -1.5578568      18380.349    
    526000   1.009586       0.0023323615   0.00052314009  20.66059       19.161355      1.4992352     -1.2636494      18462.872    
    527000   0.97046652     0.0023323615   0.00015489096  20.660775      19.219632      1.4411428     -1.3112031      18421.29     
    528000   0.97679767     0.0023323615   0.00092619435  20.771652      19.321108      1.4505445     -1.3441298      18504.443    
    529000   1.1233278      0.0023323615   0.0020940948   20.962948      19.294806      1.6681418     -1.305632       18505.966    
    530000   1.0142774      0.0023323615   0.00071399545  20.765787      19.259585      1.5062019     -1.2474745      18490.045    
    531000   1.0870986      0.0023323615   0.0030178275   20.961929      19.347588      1.6143414     -1.201244       18415.584    
    532000   0.95511484     0.0023323615  -0.0015266704   20.734003      19.315658      1.4183455     -1.2630751      18501.784    
    533000   1.0302165      0.0023323615   0.0021511587   20.787761      19.257889      1.5298715     -1.2564929      18549.534    
    534000   1.0312519      0.0023323615   0.00039705762  20.787659      19.25625       1.531409      -1.3188988      18535.442    
    535000   1.0576653      0.0023323615   0.0020506      20.852933      19.282301      1.570633      -1.2528345      18507.4      
    536000   0.92121022     0.0023323615  -0.0017647892   20.547224      19.179227      1.3679972     -1.3001995      18480.528    
    537000   0.98865029     0.0023323615   0.0024806947   20.78477       19.316625      1.4681457     -1.2195336      18669.625    
    538000   1.1202425      0.0023323615   0.0022030514   20.861853      19.198293      1.6635602     -1.3059297      18470.006    
    539000   1.0557506      0.0023323615  -0.002005811    20.670938      19.103148      1.5677896     -1.4049584      18480.939    
    540000   0.95161683     0.0023323615   0.0028436808   20.754597      19.341446      1.413151      -1.1647577      18517.839    
    541000   0.97812954     0.0023323615  -0.00055449534  20.732872      19.28035       1.4525224     -1.2202364      18526.129    
    542000   1.0078736      0.0023323615   0.0023016187   20.63136       19.134667      1.4966923     -1.2811715      18617.133    
    543000   1.1537063      0.0023323615   0.0019334885   20.862242      19.148988      1.7132539     -1.4187361      18357.386    
    544000   1.028565       0.0023323615   0.0014635057   20.775021      19.247602      1.527419      -1.2446385      18329.769    
    545000   0.93450263     0.0023323615   0.0027433038   20.652142      19.264406      1.3877364     -1.2990705      18502.381    
    546000   1.0960938      0.0023323615  -0.00069256017  20.820211      19.192511      1.6276992     -1.4110954      18371.354    
    547000   1.1155821      0.0023323615   0.0042491634   20.782049      19.12541       1.6566394     -1.3630399      18288.123    
    548000   1.1011828      0.0023323615  -0.0019762347   20.886533      19.251277      1.6352564     -1.2897201      18410.448    
    549000   1.1417624      0.0023323615  -0.0012633656   20.848516      19.152998      1.6955171     -1.4417858      18265.049    
    550000   1.0887606      0.0023323615   0.0046069834   20.661856      19.045047      1.6168095     -1.4722181      18292.139    
    551000   0.99141157     0.0023323615  -0.0008516857   20.720782      19.248536      1.4722462     -1.3444452      18447.288    
    552000   1.0298388      0.0023323615   0.00050765404  20.780684      19.251373      1.5293107     -1.371658       18379.527    
    553000   1.0572608      0.0023323615   0.0032440019   20.708079      19.138046      1.5700323     -1.3249159      18484.235    
    554000   1.1268245      0.0023323615   0.0036439728   20.64558       18.972245      1.6733344     -1.5579938      18499.408    
    555000   1.0864939      0.0023323615   0.0019123983   20.849978      19.236534      1.6134434     -1.2834374      18589.235    
    556000   1.0861422      0.0023323615  -0.0044321686   20.808765      19.195843      1.6129212     -1.4523863      18477.637    
    557000   1.1152111      0.0023323615  -0.001731886    20.78629       19.130202      1.6560884     -1.4586241      18328.587    
    558000   1.0675075      0.0023323615  -0.0021399464   20.752385      19.167136      1.5852487     -1.3929201      18464.296    
    559000   0.94650535     0.0023323615  -0.0023666933   20.620093      19.214533      1.4055604     -1.4632893      18413.189    
    560000   0.97125982     0.0023323615   0.0017928458   20.873987      19.431666      1.4423208     -1.2490476      18465.939    
    561000   1.0718926      0.0023323615   0.00044117085  20.763111      19.171351      1.5917605     -1.2777214      18604.61     
    562000   0.97989355     0.0023323615   0.001688471    20.814306      19.359164      1.4551419     -1.2503927      18465.488    
    563000   0.96937077     0.0023323615   0.0013577634   20.455         19.015484      1.4395156     -1.5148379      18591.739    
    564000   1.0126262      0.0023323615   0.0010940394   20.891989      19.388239      1.5037499     -1.154637       18359.064    
    565000   1.0131794      0.0023323615  -0.0004796863   20.660812      19.156241      1.5045715     -1.3791536      18459.724    
    566000   1.0208815      0.0023323615  -0.00056265742  20.865776      19.349767      1.5160091     -1.2918809      18516.162    
    567000   1.0993112      0.0023323615   3.9333084e-05  20.741031      19.108554      1.6324772     -1.2884085      18499.322    
    568000   0.97441226     0.0023323615  -0.0012870514   20.698992      19.251989      1.4470022     -1.2927451      18488.052    
    569000   1.1139366      0.0023323615   0.0032209387   20.807859      19.153663      1.6541959     -1.2443473      18617.848    
    570000   1.0240451      0.0023323615   0.0010707805   20.535013      19.014306      1.520707      -1.491771       18415.101    
    571000   0.85521245     0.0023323615  -0.0028197618   20.305692      19.035701      1.2699905     -1.4029686      18352.188    
    572000   0.92691651     0.0023323615  -0.0027888323   20.460217      19.083746      1.376471      -1.3805534      18482.605    
    573000   0.97639573     0.0023323615  -0.00033827827  20.521525      19.071578      1.4499477     -1.4349733      18522.619    
    574000   0.89443295     0.0023323615  -0.0026320561   20.686263      19.35803       1.3282329     -1.3122137      18327.362    
    575000   0.95034152     0.0023323615   0.0016619946   20.537162      19.125905      1.4112572     -1.3820864      18351.273    
    576000   0.95058836     0.0023323615   0.0033488451   20.52525       19.113627      1.4116237     -1.4098667      18346.871    
    577000   1.166475       0.0023323615   0.001615867    20.905355      19.17314       1.7322154     -1.3451015      18400.327    
    578000   1.0889159      0.0023323615   0.0013853503   20.957108      19.340067      1.6170401     -1.2649806      18500.228    
    579000   0.93158698     0.0023323615   0.00021943253  20.658901      19.275495      1.3834067     -1.3183179      18464.344    
    580000   0.9709059      0.0023323615   0.00028452376  20.504648      19.062853      1.4417953     -1.4125934      18498.657    
    581000   1.0599555      0.0023323615  -0.0015148337   20.608522      19.034488      1.574034      -1.4113485      18268.088    
    582000   1.0596576      0.0023323615  -0.0013699132   20.589406      19.015815      1.5735915     -1.5476094      18203.978    
    583000   1.0998655      0.0023323615   0.0036426149   20.666574      19.033273      1.6333002     -1.5526548      18257.608    
    584000   1.1415865      0.0023323615  -0.0015399209   21.119126      19.42387       1.695256      -1.16771        18340.274    
    585000   0.99877965     0.0023323615   0.00039930491  20.642822      19.159634      1.4831878     -1.3192447      18515.533    
    586000   0.92959959     0.0023323615  -0.0026131055   20.735418      19.354963      1.3804554     -1.1954609      18513.593    
    587000   0.9442159      0.0023323615   0.00015736384  20.449634      19.047474      1.4021606     -1.4213148      18516.052    
    588000   0.95926046     0.0023323615  -0.002327841    20.951367      19.526865      1.4245018     -1.0932726      18533.951    
    589000   1.0038469      0.0023323615  -7.5793536e-05  20.767727      19.277014      1.4907127     -1.1950723      18601.174    
    590000   1.0975536      0.0023323615   0.0043608041   21.076954      19.447087      1.6298671     -1.208362       18735.926    
    591000   0.89508034     0.0023323615  -0.0004852639   20.719569      19.390375      1.3291943     -1.1555695      18588.187    
    592000   0.96307168     0.0023323615   0.0022458868   20.750314      19.320153      1.4301614     -1.2218417      18704.506    
    593000   0.93664668     0.0023323615  -0.0022473697   20.54804       19.15712       1.3909203     -1.3496582      18439.542    
    594000   1.0087415      0.0023323615   0.0032373765   20.434045      18.936064      1.4979812     -1.548336       18358.661    
    595000   0.97176276     0.0023323615   9.1691342e-05  20.696332      19.253264      1.4430677     -1.2753342      18385.13     
    596000   1.0635124      0.0023323615  -0.0020988398   20.851317      19.272001      1.5793159     -1.1590368      18661.272    
    597000   1.1915205      0.0023323615  -0.0024672968   21.082385      19.312977      1.7694079     -1.1364639      18440.55     
    598000   0.86916306     0.0023323615   0.0026748757   20.285037      18.99433       1.2907071     -1.4691813      18283.223    
    599000   1.130237       0.0023323615  -0.0028029238   20.664657      18.986255      1.6784019     -1.4697855      18396.308    
    600000   0.89686918     0.0023323615  -0.0019923339   20.674607      19.342756      1.3318507     -1.2182395      18429.062    
    601000   1.0506294      0.0023323615   0.0026173631   20.854583      19.294398      1.5601846     -1.2485399      18493.231    
    602000   0.93386219     0.0023323615  -0.00018671014  20.540144      19.153359      1.3867854     -1.2763664      18506.292    
    603000   0.99211272     0.0023323615  -0.0046485606   20.77633       19.303042      1.4732874     -1.2018532      18492.115    
    604000   1.0427759      0.0023323615   0.0013657711   20.65782       19.109298      1.5485223     -1.4744783      18404.429    
    605000   0.97311954     0.0023323615   0.0005856532   20.568228      19.123145      1.4450825     -1.3681059      18331.58     
    606000   0.96566949     0.0023323615   0.0024894539   20.553668      19.119649      1.4340192     -1.4050382      18396.434    
    607000   0.90143757     0.0023323615   0.00029061723  20.335388      18.996753      1.3386348     -1.5087236      18384.567    
    608000   0.93975932     0.0023323615   0.0014583192   20.642014      19.246472      1.3955426     -1.4608495      18327.221    
    609000   1.0906055      0.0023323615   0.0038206885   20.616063      18.996514      1.6195492     -1.4218881      18312.147    
    610000   1.1338989      0.0023323615  -0.0014596761   20.942549      19.258709      1.6838399     -1.3457881      18349.829    
    611000   1.0336883      0.0023323615   0.0020204687   20.852504      19.317477      1.5350271     -1.2776898      18432.047    
    612000   1.0515798      0.0023323615   0.0024557394   20.628909      19.067313      1.561596      -1.4893619      18411.158    
    613000   1.1191349      0.0023323615   0.0014296646   21.085791      19.423876      1.6619153     -1.0747198      18714.722    
    614000   1.1278998      0.0023323615   0.0023364447   21.137098      19.462167      1.6749312     -1.1758404      18829.073    
    615000   1.0172182      0.0023323615   0.00098214839  20.691306      19.180737      1.5105691     -1.3489262      18549.948    
    616000   0.9931928      0.0023323615   0.001372338    20.764186      19.289295      1.4748913     -1.1323349      18733.201    
    617000   0.81160091     0.0023323615  -0.00056976228  20.471279      19.266052      1.2052273     -1.2761126      18402.003    
    618000   1.0739595      0.0023323615   0.00067463277  21.084918      19.490088      1.5948298     -1.0849771      18628.308    
    619000   0.98215113     0.0023323615  -0.0010920469   20.558398      19.099904      1.4584944     -1.3889331      18473.469    
    620000   1.0112583      0.0023323615  -0.0035467257   20.816628      19.31491       1.5017185     -1.1676337      18332.482    
    621000   0.98906062     0.0023323615  -0.0021707521   20.717024      19.248269      1.468755      -1.2495583      18651.086    
    622000   1.0401467      0.0023323615  -0.0014229451   20.584616      19.039998      1.5446179     -1.4498689      18389.418    
    623000   0.94092351     0.0023323615  -0.0015091426   20.53388       19.136609      1.3972714     -1.3921739      18283.899    
    624000   1.0423539      0.0023323615   0.0058102958   20.999048      19.451153      1.5478955     -1.1400379      18369.271    
    625000   0.89056003     0.0023323615  -0.0012606227   20.776998      19.454516      1.3224816     -1.1919425      18612.631    
    626000   1.0258897      0.0023323615   0.0012568759   21.014841      19.491394      1.5234462     -1.0857323      18932.881    
    627000   1.0565931      0.0023323615  -0.0023323039   21.122011      19.55297       1.5690408     -1.0515316      18726.868    
    628000   1.0247983      0.0023323615  -0.0010361275   20.923108      19.401283      1.5218255     -1.1116463      18555.245    
    629000   1.0363786      0.0023323615  -0.00060998265  20.770708      19.231685      1.5390223     -1.322597       18530.146    
    630000   0.91581028     0.0023323615   0.0013446145   20.52927       19.169291      1.3599783     -1.3349198      18348.773    
    631000   1.0116203      0.0023323615   0.0045776982   20.758905      19.256648      1.5022562     -1.1550867      18722.073    
    632000   0.98565467     0.0023323615  -0.0024679566   21.040022      19.576325      1.4636972     -1.0196615      19133.206    
    633000   1.0506421      0.0023323615  -0.00061074526  20.961817      19.401613      1.5602036     -1.0498105      18671.581    
    634000   1.0186116      0.0023323615  -0.00078133489  21.076397      19.563759      1.5126382     -0.97859659     18550.168    
    635000   0.9851085      0.0023323615   0.00013170674  20.980642      19.517755      1.4628861     -0.94998587     19028.306    
    636000   0.85344487     0.0023323615  -0.00061804573  20.925579      19.658214      1.2673656     -0.95740062     19464.509    
    637000   0.97982523     0.0023323615   0.00048063414  20.811986      19.356946      1.4550405     -1.0882086      19461.64     
    638000   0.84011436     0.0023323615  -0.0032905037   20.361838      19.114268      1.2475698     -1.2220451      19019.466    
    639000   0.92002089     0.0023323615  -0.00027752476  20.816521      19.45029       1.366231      -1.1097628      18684.314    
    640000   0.98337664     0.0023323615   0.0050686601   20.918839      19.458525      1.4603143     -1.1092248      18680.712    
    641000   0.96677373     0.0023323615   0.00025419645  20.583886      19.148227      1.435659      -1.3479924      18451.002    
    642000   1.0746867      0.0023323615   0.00080993506  20.595941      19.000031      1.5959098     -1.3237157      18576.656    
    643000   1.0416389      0.0023323615  -0.00034037916  20.920597      19.373763      1.5468337     -1.1618256      18582.77     
    644000   0.92259865     0.0023323615  -0.00193252     21.181725      19.811666      1.370059      -0.84619504     18748.35     
    645000   1.0535748      0.0023323615   0.0021838675   20.978559      19.414         1.5645586     -0.98578266     19177.817    
    646000   0.84436825     0.0023323615  -0.00071074387  20.792792      19.538905      1.2538869     -1.0920833      18787.603    
    647000   0.96170967     0.0023323615   0.0011496452   20.826271      19.398132      1.4281389     -1.1904766      18662.242    
    648000   1.04563        0.0023323615   4.4602935e-05  20.772803      19.220042      1.5527606     -1.207501       18637.01     
    649000   0.96522682     0.0023323615   0.001131044    20.772234      19.338872      1.4333618     -1.3906409      18438.152    
    650000   0.93152438     0.0023323615  -0.001697982    20.702329      19.319015      1.3833137     -1.1726199      18447.537    
    651000   0.87971543     0.0023323615   0.0013065036   20.630007      19.32363       1.3063774     -1.2433333      18578.098    
    652000   1.0921865      0.0023323615   0.00097529974  20.915983      19.294086      1.621897      -1.2214331      18616.147    
    653000   1.0626757      0.0023323615  -0.0019322803   20.799778      19.221705      1.5780734     -1.3926065      18563.727    
    654000   1.0121389      0.0023323615  -0.0028779327   20.780464      19.277438      1.5030263     -1.3923869      18365.817    
    655000   0.99082207     0.0023323615  -0.0036443804   20.768794      19.297424      1.4713708     -1.2416461      18234.367    
    656000   1.0332973      0.0023323615   0.0035682057   20.740167      19.20572       1.5344465     -1.2311582      18422.327    
    657000   1.034439       0.0023323615  -0.0024555372   20.937332      19.40119       1.5361419     -1.0926501      18416.838    
    658000   0.93653667     0.0023323615  -0.0051822212   20.621716      19.230959      1.390757      -1.3180685      18362.319    
    659000   1.0031049      0.0023323615  -0.0015412981   20.73224       19.24263       1.4896108     -1.3308481      18257.348    
    660000   1.024073       0.0023323615   0.0028459576   20.722651      19.201903      1.5207484     -1.2230757      18340.675    
    661000   1.0773786      0.0023323615   0.0022018948   20.91598       19.316073      1.5999072     -1.2136606      18494.492    
    662000   1.0739483      0.0023323615   0.0034902197   20.917354      19.322541      1.5948132     -1.2350673      18480.241    
    663000   0.99827829     0.0023323615   0.0038931049   20.46709       18.984647      1.4824433     -1.5142037      18261.45     
    664000   1.021123       0.0023323615   0.0030519509   20.819216      19.302849      1.5163677     -1.2169788      18356.329    
    665000   1.1079863      0.0023323615   0.0010705721   20.650596      19.005236      1.6453596     -1.3821318      18454.116    
    666000   0.97005747     0.0023323615  -0.0022014365   20.910741      19.470206      1.4405353     -1.1058502      18810.373    
    667000   1.0779698      0.0023323615   0.00047746968  20.757305      19.15652       1.6007851     -1.4461305      18540.62     
    668000   1.0156201      0.0023323615  -0.0025611644   20.823213      19.315017      1.5081958     -1.1800485      18555.4      
    669000   1.0089281      0.0023323615  -0.0018944772   20.611337      19.113078      1.4982582     -1.4250842      18598.172    
    670000   1.0319498      0.0023323615   0.0097344967   20.914121      19.381675      1.5324455     -1.1289742      18604.252    
    671000   1.1640567      0.0023323615  -0.00088316822  21.170541      19.441917      1.7286243     -1.0757414      18722.4      
    672000   0.99396296     0.0023323615  -0.0044707755   21.070969      19.594934      1.476035      -0.97367327     18995.247    
    673000   0.97298319     0.0023323615  -0.004493233    20.736924      19.292044      1.44488       -1.2007082      18958.727    
    674000   0.94639985     0.0023323615   0.00037735296  20.889898      19.484495      1.4054038     -1.1638741      18720.194    
    675000   1.1125116      0.0023323615   0.00048329616  20.982777      19.330697      1.6520798     -1.1914571      18611.673    
    676000   1.074276       0.0023323615  -0.0035827076   20.757655      19.162355      1.5952998     -1.2673468      18482.735    
    677000   0.8948282      0.0023323615  -0.0033114904   20.777833      19.449013      1.3288199     -1.0584322      18479.704    
    678000   1.0672443      0.0023323615   0.0037460974   20.744325      19.159467      1.5848578     -1.30377        18481.332    
    679000   0.91574751     0.0023323615   0.0007747482   20.431529      19.071644      1.359885      -1.3653084      18553.703    
    680000   0.96410944     0.0023323615   0.00027313905  20.74633       19.314627      1.4317025     -1.2189022      18426.225    
    681000   0.92798475     0.0023323615  -5.6778417e-05  20.799716      19.421659      1.3780574     -1.1839935      18563.061    
    682000   0.99051657     0.0023323615  -0.00058187654  20.590058      19.119141      1.4709171     -1.3842235      18395.488    
    683000   1.0150141      0.0023323615   0.0034789006   20.739382      19.232086      1.5072959     -1.2969324      18380.677    
    684000   0.98599705     0.0023323615   0.0031833064   20.514867      19.050661      1.4642056     -1.4393664      18355.383    
    685000   0.83838484     0.0023323615  -0.0013692457   20.10815       18.863149      1.2450015     -1.5661601      18329.449    
    686000   1.0002256      0.0023323615   0.0031565018   20.646335      19.161         1.485335      -1.3772292      18382.949    
    687000   1.1300819      0.0023323615   0.002921544    20.898922      19.22075       1.6781717     -1.4369078      18350.602    
    688000   0.96877173     0.0023323615   0.0043109138   20.492304      19.053678      1.438626      -1.502254       18451.305    
    689000   1.0062725      0.0023323615  -0.0026333507   20.860673      19.366359      1.4943147     -1.3563022      18429.597    
    690000   0.96704424     0.0023323615   0.0016331406   20.807659      19.371598      1.4360607     -1.1933027      18429.263    
    691000   0.91772519     0.0023323615  -0.00136394     20.417701      19.05488       1.3628219     -1.3640168      18551.13     
    692000   1.0486819      0.0023323615   0.0015709661   20.88572       19.328427      1.5572927     -1.1762989      18511.743    
    693000   1.0522575      0.0023323615  -0.0027342065   20.650327      19.087725      1.5626024     -1.3251626      18401.996    
    694000   1.1684547      0.0023323615   0.0047488317   21.258882      19.523727      1.7351552     -1.1556543      18433.926    
    695000   1.0022597      0.0023323615  -7.6406051e-05  20.869431      19.381076      1.4883556     -1.273622       18537.703    
    696000   0.90911548     0.0023323615  -0.0017284915   20.79266       19.442623      1.3500365     -1.1020312      18724.068    
    697000   1.1635767      0.0023323615   0.00092628278  20.795607      19.067696      1.7279113     -1.4315059      18466.165    
    698000   1.0446327      0.0023323615  -0.0034818562   20.704936      19.153657      1.5512795     -1.3717392      18471.452    
    699000   0.98919866     0.0023323615  -0.0005307523   20.682492      19.213532      1.46896       -1.2860321      18373.663    
    700000   1.0915341      0.0023323615  -0.0030133327   21.096267      19.475338      1.6209282     -1.1973344      18401.603    
    701000   0.93418091     0.0023323615  -0.0021092018   20.578874      19.191615      1.3872587     -1.4057963      18432.881    
    702000   0.93451392     0.0023323615  -0.00035030867  20.796729      19.408975      1.3877532     -1.1474745      18379.005    
    703000   0.95021466     0.0023323615  -0.0035035205   20.72751       19.316441      1.4110688     -1.2360387      18562.63     
    704000   0.79706499     0.0023323615  -0.0012994108   20.556871      19.37323       1.1836415     -1.1555688      18661.823    
    705000   1.0147031      0.0023323615   0.0023302061   20.733247      19.226413      1.5068342     -1.2787486      18570.245    
    706000   0.93924556     0.0023323615   0.0020189036   20.649466      19.254686      1.3947797     -1.3167506      18617.536    
    707000   1.0309168      0.0023323615  -0.0015681903   20.676472      19.145561      1.5309114     -1.5393651      18544.757    
    708000   0.88435554     0.0023323615   0.0029640651   20.564361      19.251093      1.313268      -1.2723704      18375.778    
    709000   0.84527892     0.0023323615  -0.00059430563  20.590067      19.334828      1.2552392     -1.1623437      18495.089    
    710000   0.90572045     0.0023323615   0.0018517296   20.556367      19.211372      1.3449949     -1.332962       18553.334    
    711000   1.1109853      0.0023323615   0.0067108093   20.947015      19.297202      1.6498132     -1.3588159      18417.415    
    712000   0.95380377     0.0023323615   0.00231258     20.631352      19.214954      1.4163986     -1.2885881      18419.686    
    713000   0.9090214      0.0023323615  -0.0022650084   20.487166      19.137269      1.3498968     -1.4480068      18469.896    
    714000   1.0475441      0.0023323615  -0.00078341466  21.077451      19.521848      1.555603      -1.0568348      18460.376    
    715000   1.0202775      0.0023323615  -0.00069794297  20.890534      19.375422      1.515112      -1.1267264      18712.178    
    716000   0.9296136      0.0023323615  -0.0019546452   20.69256       19.312083      1.3804762     -1.2386971      18660.1      
    717000   0.96743951     0.0023323615   0.0038985331   20.642141      19.205494      1.4366477     -1.2347126      18387.755    
    718000   0.84527122     0.0023323615  -0.0048738467   20.45037       19.195142      1.2552278     -1.239356       18450.862    
    719000   1.0721929      0.0023323615   0.00085612318  20.74413       19.151923      1.5922064     -1.3223319      18485.484    
    720000   0.878631       0.0023323615   0.0059896599   20.662925      19.358158      1.304767      -1.1495976      18504.319    
    721000   0.92784079     0.0023323615  -0.0056790807   20.557475      19.179632      1.3778436     -1.3613799      18521.491    
    722000   1.01219        0.0023323615  -0.00062846155  20.771622      19.26852       1.5031021     -1.2471611      18467.877    
    723000   1.0877332      0.0023323615  -0.0010743033   21.030388      19.415104      1.6152838     -0.98565665     18506.131    
    724000   0.97805017     0.0023323615  -0.00081216249  21.010808      19.558404      1.4524045     -0.95626889     18682.95     
    725000   1.2030082      0.0023323615   0.0023270416   20.972255      19.185788      1.7864672     -1.2588822      18637.758    
    726000   0.98792166     0.0023323615  -0.0024571259   20.851358      19.384294      1.4670637     -1.3422318      18414.772    
    727000   1.1863151      0.0023323615   0.0055146401   20.983878      19.2222        1.761678      -1.3763849      18311.405    
    728000   0.99434704     0.0023323615  -0.00084210369  20.801233      19.324627      1.4766054     -1.26181        18374.455    
    729000   1.0083789      0.0023323615  -0.0066842703   20.850888      19.353445      1.4974426     -1.1702921      18407.328    
    730000   0.98655839     0.0023323615  -0.00091354395  20.604813      19.139774      1.4650392     -1.3467745      18430.396    
    731000   1.1126389      0.0023323615   0.00031989228  20.986951      19.334682      1.6522688     -1.315088       18465.939    
    732000   1.0777019      0.0023323615  -0.0054763269   20.814582      19.214195      1.6003872     -1.2778916      18335.291    
    733000   0.96355507     0.0023323615   0.0026541726   20.794498      19.363618      1.4308793     -1.2573486      18403.903    
    734000   1.0059554      0.0023323615  -0.0033903486   20.810338      19.316494      1.4938437     -1.3510242      18403.259    
    735000   0.99468244     0.0023323615  -0.00092170196  20.685164      19.208061      1.4771034     -1.2470074      18447.861    
    736000   0.88176987     0.0023323615   0.0026503537   20.7419        19.432472      1.3094283     -1.1400989      18449.433    
    737000   0.91931623     0.0023323615  -0.0017775489   20.603709      19.238524      1.3651846     -1.2930699      18345.596    
    738000   0.98840982     0.0023323615   0.0042961619   20.578619      19.11083       1.4677886     -1.3878409      18321.257    
    739000   0.8109243      0.0023323615  -0.00033524407  20.037115      18.832893      1.2042226     -1.6128408      18241.712    
    740000   0.94322298     0.0023323615  -0.003919011    20.506888      19.106202      1.4006861     -1.4070998      18296.132    
    741000   1.0259716      0.0023323615  -8.3315089e-05  20.865918      19.34235       1.5235679     -1.1968429      18398.458    
    742000   1.0808118      0.0023323615  -0.0009588966   21.028942      19.423937      1.6050055     -1.1842025      18764.366    
    743000   1.0125851      0.0023323615   0.0036978286   20.887538      19.383849      1.5036888     -1.108815       18499.422    
    744000   1.0203062      0.0023323615  -0.0012770389   20.67897       19.163815      1.5151547     -1.3449467      18453.478    
    745000   1.0744491      0.0023323615  -0.00056336211  20.570125      18.974568      1.595557      -1.4860949      18391.329    
    746000   1.0187926      0.0023323615   0.0016007037   20.569447      19.05654       1.5129069     -1.4238739      18382.716    
    747000   0.859716       0.0023323615   0.00030318727  20.416517      19.139839      1.2766783     -1.3210868      18360.496    
    748000   1.0092923      0.0023323615  -0.00079134759  20.687545      19.188746      1.4987991     -1.3297311      18291.632    
    749000   0.98341291     0.0023323615  -0.00054389432  20.455457      18.995089      1.4603682     -1.5481158      18286.961    
    750000   0.96901734     0.0023323615  -0.0041188036   21.032902      19.593911      1.4389908     -1.0451701      18435.986    
    751000   1.0215104      0.0023323615  -0.00073511072  20.997192      19.480249      1.5169429     -1.0212642      18509.412    
    752000   0.93800231     0.0023323615   0.00022853046  20.571027      19.178093      1.3929334     -1.3369381      18531.109    
    753000   0.85866264     0.0023323615  -0.00027070485  20.387643      19.112529      1.275114      -1.3592355      18348.578    
    754000   0.88557077     0.0023323615  -0.00055931627  20.514668      19.199595      1.3150726     -1.418404       18231.486    
    755000   0.89682032     0.0023323615   0.00037082392  20.457561      19.125783      1.3317782     -1.2741008      18310.81     
    756000   0.97604861     0.0023323615  -0.001702106    20.528202      19.07877       1.4494322     -1.3858521      18518.406    
    757000   1.0594157      0.0023323615  -0.0010406407   20.682906      19.109674      1.5732323     -1.4137734      18234.587    
    758000   0.93434469     0.0023323615   0.0034115166   20.677217      19.289715      1.3875019     -1.277015       18265.243    
    759000   0.92849853     0.0023323615   0.0031623535   20.548397      19.169577      1.3788203     -1.3518318      18343.213    
    760000   1.0192649      0.0023323615  -0.0037647615   20.861248      19.34764       1.5136084     -1.1750296      18442.703    
    761000   1.2105399      0.0023323615  -0.00018415236  20.978074      19.180423      1.7976518     -1.2719549      18438.942    
    762000   0.96882809     0.0023323615   0.005475266    20.756432      19.317722      1.4387097     -1.1432141      18465.352    
    763000   1.0416071      0.0023323615  -0.00071398773  20.823061      19.276274      1.5467865     -1.2037871      18503.808    
    764000   1.1610313      0.0023323615   0.0014199602   20.613272      18.88914       1.7241314     -1.5347956      18350.359    
    765000   1.093128       0.0023323615   0.0014794286   20.831537      19.208242      1.6232951     -1.4019481      18342.829    
    766000   0.8761961      0.0023323615   0.00065718938  20.462832      19.161681      1.3011512     -1.3238183      18386.284    
    767000   0.93528736     0.0023323615   0.0010115121   20.379642      18.99074       1.3889017     -1.4597472      18302.55     
    768000   0.88882151     0.0023323615   0.0013533617   20.705237      19.385337      1.3198999     -1.2398404      18382.014    
    769000   1.0342106      0.0023323615   0.0021868833   20.777145      19.241342      1.5358027     -1.2945899      18400.181    
    770000   0.93693046     0.0023323615   0.0038343366   20.750024      19.358683      1.3913417     -1.1593948      18406.296    
    771000   0.96468284     0.0023323615  -0.0029749867   20.67255       19.239996      1.432554      -1.1655806      18272.643    
    772000   1.0066513      0.0023323615  -0.0010447728   20.753265      19.258388      1.4948771     -1.1638749      18417.46     
    773000   1.0824495      0.0023323615   0.0017747261   20.975989      19.368551      1.6074376     -1.0302257      18685.108    
    774000   0.91879796     0.0023323615  -0.0037633502   20.568813      19.204398      1.364415      -1.2024631      18943.719    
    775000   1.0766742      0.0023323615  -0.0021057017   21.122145      19.523284      1.5988612     -1.0982842      18779.578    
    776000   1.0826552      0.0023323615   0.0064878383   20.743006      19.135263      1.6077429     -1.3284519      18642.43     
    777000   1.0092771      0.0023323615  -0.0027433812   20.83489       19.336114      1.4987765     -1.1899034      18567.681    
    778000   0.96559419     0.0023323615   0.0027387686   20.74662       19.312713      1.4339074     -1.2457904      18421.518    
    779000   1.1060942      0.0023323615  -0.00048440141  20.828895      19.186345      1.6425498     -1.2398515      18618.606    
    780000   1.0700852      0.0023323615   0.0023375357   20.893456      19.304379      1.5890766     -1.2101589      18570.462    
    781000   0.92378578     0.0023323615   0.004165188    20.903123      19.531301      1.3718219     -1.0595569      18603.857    
    782000   1.0054832      0.0023323615  -0.0018829853   20.578916      19.085773      1.4931426     -1.3714479      18388.056    
    783000   1.1054365      0.0023323615   0.0052487727   21.006224      19.364651      1.6415731     -1.1147593      18404.161    
    784000   1.0330342      0.0023323615   0.0020812045   20.525655      18.9916        1.5340558     -1.5132515      18337.157    
    785000   1.0809954      0.0023323615   0.0012966984   21.078749      19.473471      1.6052781     -1.1475063      18268.99     
    786000   0.98621344     0.0023323615  -0.0019817735   20.854073      19.389546      1.464527      -1.2188165      18434.903    
    787000   1.0679236      0.0023323615   0.0056756111   20.902196      19.31633       1.5858666     -1.1960638      18557.228    
    788000   0.90578477     0.0023323615   0.00071078335  20.45641       19.11132       1.3450904     -1.3712829      18309.994    
    789000   1.0883352      0.0023323615  -8.6508183e-05  20.831758      19.21558       1.6161778     -1.3519995      18315.83     
    790000   0.99122316     0.0023323615   0.002848479    20.776261      19.304295      1.4719664     -1.2503817      18464.242    
    791000   1.1254352      0.0023323615   0.0045218552   21.088214      19.416943      1.6712713     -1.0969439      18538.712    
    792000   1.1091714      0.0023323615   0.0005799492   20.828094      19.180975      1.6471196     -1.3174855      18581.902    
    793000   0.89231589     0.0023323615  -0.0016699234   20.380194      19.055105      1.3250891     -1.3347392      18378.176    
    794000   1.0650536      0.0023323615  -0.00070176377  20.731789      19.150185      1.5816046     -1.2536408      18459.806    
    795000   0.90962794     0.0023323615  -0.0026237911   20.7797        19.428902      1.3507975     -1.1965893      18486.569    
    796000   0.89709483     0.0023323615   0.0013026407   20.508588      19.176402      1.3321858     -1.2754095      18514.826    
    797000   1.1019393      0.0023323615   5.3341605e-05  20.630239      18.99386       1.6363798     -1.4644511      18422.382    
    798000   1.1091934      0.0023323615   0.00091820665  20.855492      19.20834       1.6471522     -1.2904225      18441.62     
    799000   1.1265873      0.0023323615  -0.00080329197  20.900076      19.227093      1.6729821     -1.3142746      18488.847    
    800000   1.0650892      0.0023323615   0.0024846307   20.551124      18.969467      1.5816574     -1.4195456      18551.64     
    801000   1.061094       0.0023323615  -0.0045248763   20.677474      19.101749      1.5757246     -1.4235987      18584.988    
    802000   1.0453862      0.0023323615   0.0022297276   20.661152      19.108754      1.5523985     -1.566882       18262.288    
    803000   1.0105571      0.0023323615   0.0028430992   20.71389       19.213213      1.5006773     -1.2180707      18314.906    
    804000   0.91186098     0.0023323615   0.0019478892   20.737825      19.383711      1.3541136     -1.1439744      18537.307    
    805000   0.99981271     0.0023323615  -0.0033204213   20.558085      19.073363      1.4847219     -1.3811307      18343.206    
    806000   0.93825767     0.0023323615   0.00029467334  20.386596      18.993284      1.3933126     -1.5249714      18434.498    
    807000   0.79708344     0.0023323615   0.00017418079  20.428669      19.245         1.1836689     -1.2933579      18420.155    
    808000   0.98609329     0.0023323615  -0.00098437102  20.476298      19.01195       1.4643485     -1.4398097      18371.553    
    809000   1.0760158      0.0023323615  -0.00089403128  20.700188      19.102304      1.5978834     -1.3803557      18502.165    
    810000   1.0276899      0.0023323615  -0.0029286998   20.952262      19.426143      1.5261194     -1.0575624      18522.625    
    811000   1.0437985      0.0023323615   0.0038312901   20.742587      19.192546      1.5500408     -1.3142911      18675.98     
    812000   0.98279022     0.0023323615  -0.0037472376   21.048564      19.58912       1.4594435     -0.9372626      18496.168    
    813000   0.95857845     0.0023323615   0.0015985917   20.684932      19.261443      1.423489      -1.3162061      18505.691    
    814000   0.91482846     0.0023323615  -0.0034808203   20.454603      19.096083      1.3585203     -1.3694287      18387.111    
    815000   0.93266282     0.0023323615  -0.00083493065  20.591261      19.206256      1.3850043     -1.3522013      18472.631    
    816000   1.1854254      0.0023323615   0.0014687008   21.194441      19.434085      1.7603567     -1.10546        18573.237    
    817000   0.96863073     0.0023323615   0.0011656218   20.680604      19.242188      1.4384166     -1.1920835      18792.735    
    818000   0.93691349     0.0023323615  -0.00062505876  20.96241       19.571094      1.3913165     -0.8691448      18612.196    
    819000   0.87379485     0.0023323615  -0.0038108995   20.748633      19.451048      1.2975854     -1.1889779      18504.487    
    820000   0.94974735     0.0023323615  -0.0018437571   20.529576      19.119201      1.4103748     -1.4040818      18427.548    
    821000   1.1063705      0.0023323615   0.002010374    20.97378       19.33082       1.6429603     -1.2573843      18431.046    
    822000   1.0533992      0.0023323615   0.00023073498  20.699721      19.135423      1.5642978     -1.3129274      18498.623    
    823000   1.1289212      0.0023323615   0.0031285553   21.013347      19.336899      1.676448      -1.2533362      18431.761    
    824000   1.1060445      0.0023323615   0.0016333493   20.884007      19.241531      1.6424761     -1.3667947      18431.863    
    825000   1.0307669      0.0023323615  -0.0011551211   20.774661      19.243972      1.5306888     -1.1376807      18473.294    
    826000   1.0387974      0.0023323615   0.0012014852   20.900768      19.358153      1.5426141     -1.1681936      19198.714    
    827000   0.92702503     0.0023323615   0.0026314935   20.66188       19.285248      1.3766322     -1.2011901      19109.645    
    828000   0.89153241     0.0023323615  -0.0029963063   20.656425      19.3325        1.3239256     -1.1684884      18516.695    
    829000   0.88580867     0.0023323615  -0.00037215557  20.741539      19.426113      1.3154259     -1.1716842      18690.29     
    830000   0.90498912     0.0023323615  -0.0047194347   20.576538      19.23263       1.3439088     -1.2589663      18506.951    
    831000   0.96582618     0.0023323615  -0.0021574384   20.59582       19.161568      1.4342519     -1.489706       18291.207    
    832000   1.0111928      0.0023323615   0.0001890759   20.300741      18.79912       1.5016213     -1.6041306      18228.426    
    833000   0.97083224     0.0023323615   0.0022193407   20.860554      19.418868      1.4416859     -1.149456       18225.341    
    834000   0.87593988     0.0023323615  -0.0030835951   20.719189      19.418418      1.3007707     -1.0410599      18492.121    
    835000   1.0767596      0.0023323615   0.000777493    21.134679      19.535691      1.5989881     -1.0111463      18524.152    
    836000   0.98210466     0.0023323615   0.00028052756  20.798037      19.339611      1.4584254     -1.2103396      18506.741    
    837000   0.95100424     0.0023323615  -0.002286009    20.780576      19.368335      1.4122413     -1.0855708      18488.446    
    838000   0.91042129     0.0023323615  -0.0020682782   20.381399      19.029423      1.3519756     -1.4042291      18445.798    
    839000   1.1533951      0.0023323615   0.001909241    21.072896      19.360104      1.7127917     -1.0929289      18522.402    
    840000   1.0779553      0.0023323615  -0.0011729708   20.736012      19.135248      1.6007637     -1.3609703      18414.684    
    841000   0.98231886     0.0023323615  -0.0039333375   20.479518      19.020774      1.4587435     -1.5910802      18289.668    
    842000   0.96924417     0.0023323615   0.0019171996   20.633783      19.194455      1.4393276     -1.384834       18452.827    
    843000   0.93092374     0.0023323615   0.0004745407   20.554224      19.171803      1.3824218     -1.4127217      18502.748    
    844000   1.0536832      0.0023323615   0.0021368922   20.684329      19.119609      1.5647195     -1.2914313      18346.389    
    845000   0.8308898      0.0023323615  -0.0024279235   20.485861      19.25199       1.2338713     -1.3735524      18392.691    
    846000   1.0180032      0.0023323615  -0.0037626455   20.735345      19.22361       1.5117347     -1.2247748      18224.413    
    847000   1.0943834      0.0023323615   0.0023383209   20.853407      19.228247      1.6251593     -1.3081969      18483.937    
    848000   0.99628062     0.0023323615  -0.0016268946   20.616026      19.136549      1.4794767     -1.4856754      18508.536    
    849000   1.0186919      0.0023323615   0.00048294171  20.738529      19.225772      1.5127574     -1.3645918      18254.747    
    850000   0.92763522     0.0023323615  -0.0044416395   20.602687      19.225149      1.3775383     -1.3308813      18308.167    
    851000   0.86874604     0.0023323615  -0.0052453611   20.721479      19.431391      1.2900879     -1.1035408      18423.439    
    852000   0.94073967     0.0023323615  -0.0020195044   20.607695      19.210696      1.3969984     -1.2901386      18349.053    
    853000   1.1016225      0.0023323615  -0.0018746461   20.939495      19.303585      1.6359094     -1.1530466      18567.823    
    854000   0.95146927     0.0023323615   0.0053339593   20.699804      19.286872      1.4129319     -1.2913939      18662.637    
    855000   0.94446091     0.0023323615  -0.00064105497  20.78927       19.386746      1.4025245     -1.1314877      18450.517    
    856000   1.005715       0.0023323615  -0.00045606172  20.816327      19.32284       1.4934867     -1.113641       18433.5      
    857000   0.97923383     0.0023323615   0.0033069167   20.734267      19.280105      1.4541622     -1.2003949      18395.6      
    858000   0.99590193     0.0023323615   0.00039018697  20.575998      19.097083      1.4789144     -1.3355858      18437.958    
    859000   0.91228156     0.0023323615  -0.0030831148   20.833195      19.478457      1.3547381     -1.1617233      18482.996    
    860000   0.96251128     0.0023323615  -0.0012804472   20.549007      19.119678      1.4293292     -1.4562118      18505.239    
    861000   0.98169478     0.0023323615   0.0022216111   20.886861      19.429044      1.4578167     -1.2430454      18651.919    
    862000   0.93704498     0.0023323615   0.00086193556  20.41651       19.024998      1.3915118     -1.4917854      18467.778    
    863000   1.1020098      0.0023323615   0.001445106    20.619494      18.983009      1.6364845     -1.5550709      18368.182    
    864000   1.1017632      0.0023323615  -0.001845906    20.782997      19.146879      1.6361184     -1.3668068      18366.243    
    865000   1.1448132      0.0023323615   0.0009208865   20.899131      19.199083      1.7000476     -1.3313188      18372.429    
    866000   0.94571266     0.0023323615   0.0022811717   20.429321      19.024938      1.4043833     -1.4417183      18349.269    
    867000   0.9152339      0.0023323615   0.0032212605   20.307866      18.948743      1.3591223     -1.6034776      18307.31     
    868000   0.98996377     0.0023323615  -0.00055001741  20.395538      18.925442      1.4700962     -1.5491217      18236.099    
    869000   1.0951156      0.0023323615  -0.0018378152   20.841419      19.215172      1.6262467     -1.2354721      18279.717    
    870000   1.0750039      0.0023323615   0.00045643223  20.647548      19.051167      1.5963807     -1.4357475      18411.334    
    871000   1.0102749      0.0023323615   0.0014843518   20.713207      19.212949      1.5002582     -1.2119253      18464.733    
    872000   0.99936856     0.0023323615  -0.0031981901   21.06482       19.580758      1.4840623     -1.0436921      18529.891    
    873000   1.0886407      0.0023323615   4.4632107e-05  20.839368      19.222736      1.6166315     -1.2669861      18490.751    
    874000   0.99346873     0.0023323615  -0.0029381443   20.772941      19.29764       1.4753011     -1.2260725      18406.622    
    875000   1.0604788      0.0023323615  -0.0012504085   20.706345      19.131534      1.574811      -1.3344846      18524.805    
    876000   1.0493365      0.0023323615   0.0026990756   20.805845      19.247581      1.5582648     -1.3086074      18494.869    
    877000   0.82968044     0.0023323615  -0.0014531517   20.52714       19.295064      1.2320754     -1.381638       18453.594    
    878000   0.87100025     0.0023323615  -0.0032997975   20.762749      19.469313      1.2934354     -1.1971279      18621.475    
    879000   0.99843589     0.0023323615   0.0031950792   20.926739      19.444061      1.4826773     -1.1838302      18573.565    
    880000   1.0721318      0.0023323615  -0.003128426    20.810533      19.218418      1.5921157     -1.349116       18536.815    
    881000   1.0047634      0.0023323615   0.0013695728   20.782042      19.289969      1.4920736     -1.1870538      18533.03     
    882000   1.0270951      0.0023323615  -3.9160881e-05  20.768305      19.243069      1.5252362     -1.1907723      18699.295    
    883000   1.0202157      0.0023323615  -0.00088527238  20.702916      19.187896      1.5150203     -1.3347166      18648.529    
    884000   0.98707862     0.0023323615   0.0014673716   20.741236      19.275425      1.4658118     -1.3067797      18525.365    
    885000   0.94759946     0.0023323615   0.0012825845   20.642982      19.235797      1.4071852     -1.3248817      18501.465    
    886000   0.93672265     0.0023323615   0.0021593886   20.828864      19.437831      1.3910331     -1.0574922      18490.295    
    887000   0.94326362     0.0023323615  -0.0018129127   20.87866       19.477913      1.4007465     -1.2073641      18598.841    
    888000   0.97177566     0.0023323615  -0.00035658521  20.513064      19.069977      1.4430869     -1.3726151      18352.707    
    889000   0.82531901     0.0023323615  -0.00026638007  20.345481      19.119883      1.2255987     -1.3432526      18408.642    
    890000   0.97012084     0.0023323615  -0.0031448251   20.826288      19.385658      1.4406294     -1.1558606      18491.333    
    891000   1.1088111      0.0023323615   0.0030793317   20.83992       19.193335      1.6465845     -1.2922469      18496.271    
    892000   1.110903       0.0023323615  -0.0029511123   21.107223      19.457532      1.649691      -1.1078073      18607.665    
    893000   1.0241867      0.0023323615  -0.0045196387   21.02587       19.504953      1.5209173     -1.0843345      18532.437    
    894000   1.0424135      0.0023323615   0.0034525606   21.126901      19.578917      1.5479841     -0.96856147     18735.026    
    895000   1.0683507      0.0023323615   0.0017257241   20.796418      19.209917      1.5865007     -1.2442777      18713.793    
    896000   0.95326896     0.0023323615  -0.0033892846   20.733648      19.318043      1.4156044     -1.148177       18382.258    
    897000   1.166575       0.0023323615  -0.0022087113   20.900387      19.168023      1.7323639     -1.2862486      18495.068    
    898000   1.1203683      0.0023323615   0.0011834064   20.670356      19.006609      1.6637469     -1.5275847      18451.124    
    899000   1.0464683      0.0023323615  -0.0030260422   20.743323      19.189318      1.5540055     -1.2578247      18463.432    
    900000   1.1637635      0.0023323615  -0.00030023004  20.826929      19.09874       1.7281888     -1.3768423      18468.611    
    901000   0.96947175     0.0023323615  -0.00091845603  20.679876      19.24021       1.4396656     -1.2165311      18451.643    
    902000   1.1321244      0.0023323615   0.0043335623   21.07569       19.394485      1.6812048     -1.1899775      18439.351    
    903000   1.0728072      0.0023323615  -0.0014279307   20.797806      19.204687      1.5931188     -1.1412088      18377.621    
    904000   0.96440134     0.0023323615  -0.00400389     20.765842      19.333706      1.432136      -1.1894547      18400.683    
    905000   1.0242484      0.0023323615   0.0010148979   20.58146       19.060451      1.5210088     -1.3672372      18409.321    
    906000   1.0202471      0.0023323615  -0.00021213844  20.659149      19.144082      1.5150669     -1.5617962      18393.569    
    907000   1.1631172      0.0023323615  -0.00055521438  20.708464      18.981235      1.727229      -1.5132639      18277.217    
    908000   0.86929586     0.0023323615   0.0015859688   20.376329      19.085425      1.2909044     -1.3517612      18475.359    
    909000   1.0241909      0.0023323615  -0.00068556741  20.663498      19.142575      1.5209235     -1.3515485      18281.123    
    910000   0.99607678     0.0023323615   0.0023844637   20.787741      19.308567      1.479174      -1.1984463      18340.385    
    911000   0.94636338     0.0023323615   0.00066918158  20.67739       19.272041      1.4053496     -1.2388355      18565.088    
    912000   1.0011199      0.0023323615  -0.0037032472   20.532671      19.046008      1.4866631     -1.4252949      18409.898    
    913000   1.0683075      0.0023323615   0.0011212017   20.930852      19.344415      1.5864366     -1.2760529      18306.498    
    914000   0.95187006     0.0023323615   0.0049055582   20.476051      19.062523      1.413527      -1.4471221      18349.711    
    915000   0.95414266     0.0023323615  -0.0003948708   20.709962      19.29306       1.4169019     -1.2344267      18346.365    
    916000   0.88684095     0.0023323615  -0.0039605577   20.82714       19.510181      1.3169588     -1.0988329      18379.804    
    917000   1.0722523      0.0023323615   0.00017477635  20.674889      19.082594      1.5922947     -1.3928909      18347.269    
    918000   0.96521399     0.0023323615  -0.00073305352  20.794187      19.360844      1.4333428     -1.1392365      18481.096    
    919000   0.9391458      0.0023323615   0.0044648572   20.559064      19.164432      1.3946315     -1.2442064      18663.233    
    920000   0.92675806     0.0023323615   0.0022286936   20.766121      19.389886      1.3762357     -1.1323207      18652.345    
    921000   1.0439001      0.0023323615   6.5988127e-05  20.738685      19.188494      1.5501916     -1.2962606      18517.237    
    922000   1.0676054      0.0023323615   0.003145628    20.853905      19.268511      1.5853941     -1.2045415      18539.432    
    923000   1.0292974      0.0023323615   2.0520047e-05  20.97109       19.442584      1.5285067     -1.18283        18415.17     
    924000   0.95563181     0.0023323615   0.0038785709   20.36803       18.948917      1.4191132     -1.4633836      18571.827    
    925000   0.93595072     0.0023323615  -0.0017674085   20.790481      19.400594      1.3898868     -1.0622931      18442.209    
    926000   1.0099313      0.0023323615   0.0037065173   20.992815      19.493067      1.4997479     -1.0500912      18687.92     
    927000   1.0202576      0.0023323615  -0.0021965767   20.408928      18.893846      1.5150825     -1.5214292      18372.013    
    928000   0.90322428     0.0023323615  -0.00075853633  20.554807      19.213519      1.3412881     -1.3241853      18173.646    
    929000   0.88612509     0.0023323615  -0.0025659078   20.847902      19.532007      1.3158958     -1.0509168      18558.801    
    930000   0.89552163     0.0023323615   0.0007238885   20.683676      19.353826      1.3298496     -1.1501778      18591.742    
    931000   0.93592882     0.0023323615  -0.0024301997   20.724085      19.334231      1.3898543     -1.1570654      18575.01     
    932000   1.0365389      0.0023323615  -0.0038288794   20.804571      19.265311      1.5392602     -1.2769828      18361.823    
    933000   1.0245405      0.0023323615   0.0010429408   20.85325       19.331807      1.5214427     -1.1517633      18332.644    
    934000   0.87945015     0.0023323615  -0.0046207297   20.304765      18.998782      1.3059835     -1.5172849      18504.666    
    935000   1.1440719      0.0023323615   0.0010981288   20.574354      18.875407      1.6989468     -1.5626342      18328.244    
    936000   1.0112625      0.0023323615  -0.00093164974  20.666146      19.164422      1.5017248     -1.3988917      18288.6      
    937000   1.0406816      0.0023323615  -0.0011099005   20.783101      19.237688      1.5454121     -1.3701308      18293.896    
    938000   1.0612801      0.0023323615   0.0031317932   20.667739      19.091738      1.5760009     -1.3863586      18323.379    
    939000   0.94130214     0.0023323615   0.00022650863  20.422535      19.024702      1.3978337     -1.4920925      18301.789    
    940000   1.018244       0.0023323615   0.00136206     20.616136      19.104044      1.5120923     -1.4058964      18466.455    
    941000   1.0700138      0.0023323615   0.00050602712  20.848101      19.25913       1.5889705     -1.3036387      18497.659    
    942000   0.95843924     0.0023323615   0.00037390945  20.511103      19.087821      1.4232823     -1.330909       18242.232    
    943000   0.90594497     0.0023323615   0.00034945237  20.381414      19.036086      1.3453283     -1.4135396      18317.101    
    944000   1.0851076      0.0023323615  -0.0014933448   21.063553      19.452168      1.6113848     -1.1348535      18481.541    
    945000   1.1753772      0.0023323615  -0.003625349    20.83079       19.085355      1.7454351     -1.4595227      18144.583    
    946000   1.0046378      0.0023323615   0.0020734263   20.702883      19.210996      1.4918871     -1.1975659      18197.022    
    947000   1.0420621      0.0023323615   0.00086496267  20.967483      19.420021      1.5474622     -1.1171004      18317.975    
    948000   1.1019051      0.0023323615   0.0012930477   20.948205      19.311876      1.6363291     -1.168256       18482.722    
    949000   0.8978017      0.0023323615  -0.0024317293   20.614367      19.281131      1.3332355     -1.2399991      18370.15     
    950000   0.99165422     0.0023323615   0.0017788319   20.532774      19.060168      1.4726065     -1.5082132      18463.593    
    951000   0.96477365     0.0023323615  -0.00032945246  20.560364      19.127675      1.4326889     -1.3639798      18369.004    
    952000   1.0893718      0.0023323615   0.0014967932   21.144297      19.52658       1.6177171     -0.99289419     18541.14     
    953000   1.0497383      0.0023323615   0.0016583728   20.614056      19.055194      1.5588613     -1.4597781      18543.896    
    954000   1.0879874      0.0023323615   0.0031775272   20.820338      19.204677      1.6156612     -1.300341       18380.051    
    955000   1.0936875      0.0023323615  -0.0025093117   20.735359      19.111233      1.6241259     -1.4078119      18292.9      
    956000   1.038531       0.0023323615   0.0030033384   21.016299      19.47408       1.5422185     -1.1126849      18282.962    
    957000   1.0448355      0.0023323615  -0.003877808    20.627819      19.076239      1.5515807     -1.3814187      18377.168    
    958000   0.95316152     0.0023323615  -0.0024882638   21.059251      19.643806      1.4154449     -1.114171       18498.167    
    959000   0.88037668     0.0023323615   0.0010404616   20.569406      19.262047      1.3073594     -1.2973121      18555.062    
    960000   0.91373141     0.0023323615  -0.00029155416  20.568425      19.211533      1.3568911     -1.1632145      18394.735    
    961000   1.1127435      0.0023323615   0.0023490655   20.870135      19.217711      1.6524241     -1.254797       18495.161    
    962000   0.99705089     0.0023323615  -0.001277589    20.725012      19.244392      1.4806206     -1.3000493      18514.514    
    963000   0.93919902     0.0023323615  -0.0013750331   20.848171      19.45346       1.3947105     -1.1000248      18398.611    
    964000   1.0035262      0.0023323615   0.0013095404   20.887917      19.397681      1.4902364     -1.2180541      18354.614    
    965000   1.0115108      0.0023323615   0.0018411881   20.929885      19.427791      1.5020936     -1.0349678      18783.155    
    966000   0.8774286      0.0023323615   0.0011190206   20.769344      19.466363      1.3029815     -1.134211       19455.923    
    967000   0.93692807     0.0023323615   0.0016998743   20.751036      19.359697      1.3913382     -1.1516915      20430.762    
    968000   0.96930546     0.0023323615  -0.0039263325   20.949914      19.510496      1.4394186     -1.1423255      20001.941    
    969000   0.90258828     0.0023323615  -0.0023872168   20.75282       19.412477      1.3403436     -1.1377359      19461.932    
    970000   1.1061769      0.0023323615   0.003536741    21.011463      19.368791      1.6426728     -1.0697277      18796.833    
    971000   1.0335947      0.0023323615  -1.845283e-05   20.876227      19.341339      1.5348881     -1.2502765      18457.771    
    972000   1.0476607      0.0023323615  -0.00081054634  20.797651      19.241875      1.5557761     -1.3009064      18377.902    
    973000   0.97873512     0.0023323615  -0.0037517092   21.230014      19.776592      1.4534217     -0.91276588     18441.051    
    974000   1.0898084      0.0023323615  -0.00067147518  20.535243      18.916878      1.6183655     -1.4898218      18380.925    
    975000   0.87389228     0.0023323615  -0.00207573     20.44585       19.14812       1.29773       -1.4040063      18353.234    
    976000   1.0687649      0.0023323615  -0.0018118099   20.814567      19.227452      1.5871159     -1.2943844      18471.486    
    977000   0.94487354     0.0023323615   0.0003124311   20.63775       19.234613      1.4031372     -1.2895294      18470.997    
    978000   0.94812976     0.0023323615  -0.00040491762  20.612912      19.20494       1.4079727     -1.2399999      18489.354    
    979000   0.86721346     0.0023323615   0.0031274836   20.416687      19.128875      1.287812      -1.2860141      18455.474    
    980000   0.99594032     0.0023323615   0.0013809885   20.832817      19.353846      1.4789714     -1.1143927      18382.242    
    981000   0.88410504     0.0023323615  -0.00080253353  20.764151      19.451255      1.312896      -1.150268       18764.439    
    982000   1.0865096      0.0023323615  -0.00082547513  20.882638      19.269171      1.6134668     -1.3734527      19199.756    
    983000   0.96696822     0.0023323615   0.0015387467   20.760809      19.324861      1.4359478     -1.1996127      18766.783    
    984000   0.96115217     0.0023323615  -0.0020165993   20.801155      19.373844      1.427311      -1.1631854      18581.449    
    985000   0.97066199     0.0023323615  -0.002717068    20.668873      19.22744       1.4414331     -1.2938166      18419.737    
    986000   1.1098584      0.0023323615  -0.0017574574   20.730315      19.082176      1.6481397     -1.3089144      18497.649    
    987000   0.97613341     0.0023323615   0.0004976648   20.862174      19.412616      1.4495581     -1.1265638      18534.134    
    988000   0.94983674     0.0023323615  -0.00039124864  20.750097      19.33959       1.4105076     -1.0875827      18642.51     
    989000   1.1165498      0.0023323615   0.00082587523  21.218675      19.560599      1.6580764     -1.0793694      18737.903    
    990000   1.0346277      0.0023323615   0.0033964336   20.947846      19.411424      1.5364221     -1.0736715      18814.702    
    991000   0.96187277     0.0023323615   0.0029674281   20.848012      19.419631      1.4283811     -1.2049734      18761.664    
    992000   1.0146578      0.0023323615  -0.0028421659   20.739307      19.23254       1.5067669     -1.3260092      18576.946    
    993000   0.91991538     0.0023323615  -0.0027652585   20.579864      19.21379       1.3660743     -1.3356106      19859.715    
    994000   0.89779937     0.0023323615   0.00016834908  20.58688       19.253648      1.3332321     -1.2724334      19936.233    
    995000   1.0251191      0.0023323615   0.0011711321   20.739977      19.217675      1.5223019     -1.264694       18993.068    
    996000   1.0141173      0.0023323615  -0.00056703837  20.646774      19.14081       1.5059642     -1.3799623      19882.613    
    997000   0.98331234     0.0023323615  -0.0013312673   20.724904      19.264685      1.4602188     -1.2100831      19706.696    
    998000   1.0631125      0.0023323615   0.0085418693   20.865789      19.287067      1.578722      -1.2532289      18721.072    
    999000   1.0081753      0.0023323615   0.0010040773   20.622131      19.12499       1.4971404     -1.4242082      18512.673    
   1000000   1.0343642      0.0023323615   0.0012088609   20.996324      19.460293      1.5360308     -1.2285375      18536.991    
Loop time of 54.0308 on 1 procs for 1000000 steps with 100 atoms

Performance: 7995440.636 tau/day, 18507.964 timesteps/s
99.5% CPU use with 1 MPI tasks x 1 OpenMP threads

MPI task timing breakdown:
Section |  min time  |  avg time  |  max time  |%varavg| %total
---------------------------------------------------------------
Pair    | 45.005     | 45.005     | 45.005     |   0.0 | 83.30
Bond    | 1.2675     | 1.2675     | 1.2675     |   0.0 |  2.35
Neigh   | 3.8058     | 3.8058     | 3.8058     |   0.0 |  7.04
Comm    | 1.3797     | 1.3797     | 1.3797     |   0.0 |  2.55
Output  | 0.212      | 0.212      | 0.212      |   0.0 |  0.39
Modify  | 2.0065     | 2.0065     | 2.0065     |   0.0 |  3.71
Other   |            | 0.3542     |            |       |  0.66

Nlocal:            100 ave         100 max         100 min
Histogram: 1 0 0 0 0 0 0 0 0 0
Nghost:            360 ave         360 max         360 min
Histogram: 1 0 0 0 0 0 0 0 0 0
Neighs:           4851 ave        4851 max        4851 min
Histogram: 1 0 0 0 0 0 0 0 0 0

Total # of neighbors = 4851
Ave neighs/atom = 48.51
Ave special neighs/atom = 1.98
Neighbor list builds = 97809
Dangerous builds = 79342

write_data      ${outputfile_assembled} nofix nocoeff
write_data      7_assembled.data nofix nocoeff
System init for write_data ...
Generated 0 of 6 mixed pair_coeff terms from geometric mixing rule

Total wall time: 0:00:55
