LAMMPS (23 Jun 2022 - Update 1)
OMP_NUM_THREADS environment is not set. Defaulting to 1 thread. (src/comm.cpp:98)
  using 1 OpenMP thread(s) per MPI task


variable        runtime equal 1000000
variable		subsample_rate equal 1000

variable		outputfile_created string '3_created.data'
variable		outputfile_relaxed string '5_relaxed.data'
variable		outputfile_selfasb string '6_a_self_assemble.lammpstrj'
variable		outputfile_trajlin string '6_b_trajlin.data'
variable		outputfile_assembled string '7_assembled.data'

units           lj
atom_style      full
dimension       3
boundary        p p p
timestep        0.005

read_data       ${outputfile_created}
read_data       3_created.data
Reading data file ...
  orthogonal box = (0 0 0) to (35 35 35)
  1 by 1 by 1 MPI processor grid
  reading atoms ...
  100 atoms
  reading velocities ...
  100 velocities
  scanning bonds ...
  1 = max bonds/atom
  reading bonds ...
  99 bonds
Finding 1-2 1-3 1-4 neighbors ...
  special bond factors lj:    0        0        0       
  special bond factors coul:  0        0        0       
     2 = max # of 1-2 neighbors
     2 = max # of 1-3 neighbors
     4 = max # of 1-4 neighbors
     6 = max # of special neighbors
  special bonds CPU = 0.000 seconds
  read_data CPU = 0.006 seconds

bond_style      fene
bond_coeff      * 30.0 1.5 1.0 1.0
special_bonds   fene
Finding 1-2 1-3 1-4 neighbors ...
  special bond factors lj:    0        1        1       
  special bond factors coul:  0        1        1       
     2 = max # of 1-2 neighbors
     6 = max # of special neighbors
  special bonds CPU = 0.000 seconds

variable        Temp equal 1.0
variable        velSeed equal 926458

velocity        all create ${Temp} ${velSeed}
velocity        all create 1 ${velSeed}
velocity        all create 1 926458

### Output
thermo_style    custom step temp density press etotal pe ke epair spcpu
thermo          1000

###########################################################################
# Soft relaxation (to remove overlaps of particles)
######################################################################

pair_style      soft 1.0
pair_coeff      * * 0.0
variable        prefactor equal ramp(0,300)
fix             rampSoft all adapt 1 pair soft a * * v_prefactor

minimize        0.0 1.0e-8 1000 100000
WARNING: Using 'neigh_modify every 1 delay 0 check yes' setting during minimization (src/min.cpp:187)
Generated 0 of 6 mixed pair_coeff terms from geometric mixing rule
Neighbor list info ...
  update every 1 steps, delay 0 steps, check yes
  max neighbors/atom: 2000, page size: 100000
  master list distance cutoff = 1.3
  ghost atom cutoff = 1.3
  binsize = 0.65, bins = 54 54 54
  1 neighbor lists, perpetual/occasional/extra = 1 0 0
  (1) pair soft, perpetual
      attributes: half, newton on
      pair build: half/bin/newton
      stencil: half/bin/3d
      bin: standard
WARNING: Communication cutoff 1.3 is shorter than a bond length based estimate of 1.7550000000000001. This may lead to errors. (src/comm.cpp:727)
Per MPI rank memory allocation (min/avg/max) = 8.346 | 8.346 | 8.346 Mbytes
   Step          Temp         Density         Press          TotEng         PotEng         KinEng         E_pair         S/CPU     
         0   1              0.0023323615  -0.0039617958   21.524174      20.039174      1.485          0              0            
       362   1              0.0023323615   0.0023090379   21.485548      20.000548      1.485          0              66370.347    
Loop time of 0.00545673 on 1 procs for 362 steps with 100 atoms

94.0% CPU use with 1 MPI tasks x 1 OpenMP threads

Minimization stats:
  Stopping criterion = force tolerance
  Energy initial, next-to-last, final = 
      20.0391741078675   20.0005480767337   20.0005480767337
  Force two-norm initial, final = 11.878422 7.9509778e-09
  Force max component initial, final = 6.6117807 1.3572772e-09
  Final line search alpha, max atom move = 1 1.3572772e-09
  Iterations, force evaluations = 362 738

MPI task timing breakdown:
Section |  min time  |  avg time  |  max time  |%varavg| %total
---------------------------------------------------------------
Pair    | 0.00021395 | 0.00021395 | 0.00021395 |   0.0 |  3.92
Bond    | 0.0023519  | 0.0023519  | 0.0023519  |   0.0 | 43.10
Neigh   | 0.0017198  | 0.0017198  | 0.0017198  |   0.0 | 31.52
Comm    | 0.00018017 | 0.00018017 | 0.00018017 |   0.0 |  3.30
Output  | 0          | 0          | 0          |   0.0 |  0.00
Modify  | 0          | 0          | 0          |   0.0 |  0.00
Other   |            | 0.000991   |            |       | 18.16

Nlocal:            100 ave         100 max         100 min
Histogram: 1 0 0 0 0 0 0 0 0 0
Nghost:             20 ave          20 max          20 min
Histogram: 1 0 0 0 0 0 0 0 0 0
Neighs:              0 ave           0 max           0 min
Histogram: 1 0 0 0 0 0 0 0 0 0

Total # of neighbors = 0
Ave neighs/atom = 0
Ave special neighs/atom = 1.98
Neighbor list builds = 17
Dangerous builds = 0

fix             nvtSoft all nvt temp ${Temp} ${Temp} 0.5
fix             nvtSoft all nvt temp 1 ${Temp} 0.5
fix             nvtSoft all nvt temp 1 1 0.5
run             100000
Generated 0 of 6 mixed pair_coeff terms from geometric mixing rule
WARNING: Communication cutoff 1.3 is shorter than a bond length based estimate of 1.7550000000000001. This may lead to errors. (src/comm.cpp:727)
Per MPI rank memory allocation (min/avg/max) = 7.221 | 7.221 | 7.221 Mbytes
   Step          Temp         Density         Press          TotEng         PotEng         KinEng         E_pair         S/CPU     
       362   1              0.0023323615   0.0023090379   21.485548      20.000548      1.485          0              0            
      1000   0.90989032     0.0023323615  -0.0021940042   21.776974      20.425787      1.3511871      0.00036425437  77056.22     
      2000   0.86546688     0.0023323615   0.0034714157   21.677128      20.39191       1.2852183      0.0025814786   77499.753    
      3000   0.98199538     0.0023323615   0.0028144228   21.866132      20.407869      1.4582631      0.0011756043   74576.755    
      4000   1.004495       0.0023323615  -0.0014058211   21.945624      20.453949      1.4916751      0.011986179    74550.629    
      5000   1.1222705      0.0023323615   0.0044495116   21.986385      20.319813      1.6665718      0.0050317639   74459.094    
      6000   1.0538243      0.0023323615   0.0023957538   21.985713      20.420784      1.564929       0.012100514    75500.89     
      7000   1.0210598      0.0023323615  -0.00038820026  21.904665      20.388391      1.5162738      0              77467.207    
      8000   0.94819751     0.0023323615   0.0024943091   21.747889      20.339816      1.4080733      0              77535.927    
      9000   0.92364502     0.0023323615   0.0020053029   21.724166      20.352554      1.3716129      1.7780894e-05  76459.462    
     10000   0.86685188     0.0023323615   0.00078277366  21.644879      20.357604      1.287275       0.0098636418   76671.541    
     11000   1.0057103      0.0023323615   0.00010113276  21.8558        20.362321      1.4934798      0.020705341    76509.812    
     12000   0.97901664     0.0023323615  -0.0026996968   21.871206      20.417366      1.4538397      0.0052928539   76280.42     
     13000   0.97718436     0.0023323615  -6.1641422e-06  21.963706      20.512587      1.4511188      0.025022446    76174.121    
     14000   1.0530014      0.0023323615  -0.0009993112   21.947994      20.384287      1.5637071      0.0020860456   75363.845    
     15000   0.99094527     0.0023323615   0.0011068478   21.895146      20.423592      1.4715537      0.0015091113   76577.019    
     16000   0.91285091     0.0023323615  -0.00025424173  21.87524       20.519657      1.3555836      0.0047853639   76074.495    
     17000   0.82806978     0.0023323615  -0.00054698156  21.701984      20.472301      1.2296836      0              76159.067    
     18000   1.043278       0.0023323615  -6.6143919e-05  22.003299      20.454031      1.5492679      0.0034319132   77134.294    
     19000   1.0879249      0.0023323615  -0.0017804642   21.998985      20.383416      1.6155685      0.015376175    75692.984    
     20000   1.1144506      0.0023323615   0.0025198298   22.190904      20.535944      1.6549592      0              76429.6      
     21000   1.0427751      0.0023323615   0.0011345349   22.099492      20.550971      1.548521       0.00040047813  75654.548    
     22000   1.0586695      0.0023323615   0.0017882747   22.05673       20.484606      1.5721242      0              76199.591    
     23000   1.0058426      0.0023323615  -0.0055245362   21.954628      20.460951      1.4936763      0.0027619031   75839.758    
     24000   0.98273442     0.0023323615   0.0015147357   21.862067      20.402707      1.4593606      0              75933.915    
     25000   0.95835343     0.0023323615   0.0017808774   21.937761      20.514606      1.4231548      0.00020839942  75994.974    
     26000   0.93993778     0.0023323615  -0.0021777292   21.884849      20.489042      1.3958076      0.0088889834   76383.16     
     27000   0.9308188      0.0023323615  -0.00011239942  21.842252      20.459986      1.3822659      0.021612409    75670.205    
     28000   1.0149581      0.0023323615   0.0041996387   21.906846      20.399633      1.5072129      0.0064059022   76274.765    
     29000   0.92841138     0.0023323615  -2.5398808e-05  21.987185      20.608494      1.3786909      0.0046112484   76105.76     
     30000   1.021043       0.0023323615   0.001589158    22.097958      20.581709      1.5162489      0.016799508    73704.786    
     31000   1.0465985      0.0023323615  -0.0021744286   22.037917      20.483718      1.5541987      0.0057879149   76522.593    
     32000   0.98907108     0.0023323615  -0.0015558606   22.044089      20.575318      1.4687705      0.009448173    74622.249    
     33000   1.0918536      0.0023323615  -0.0025643847   22.039275      20.417873      1.6214025      0              75276.321    
     34000   0.99801543     0.0023323615   0.0016279766   21.932339      20.450286      1.4820529      0.017384617    77317.605    
     35000   1.0352271      0.0023323615  -0.0052971711   22.076004      20.538692      1.5373122      0.00010473809  76018.295    
     36000   1.1141579      0.0023323615  -0.00093279925  22.222491      20.567966      1.6545245      0.00033678641  77140.97     
     37000   1.0369415      0.0023323615   0.00013065175  22.217841      20.677983      1.5398581      0.013788831    76118.585    
     38000   1.0515596      0.0023323615   0.0021717558   22.070766      20.5092        1.561566       0.0067894678   76812.207    
     39000   1.0238495      0.0023323615   0.00026414509  22.040141      20.519725      1.5204165      0.00044464649  75915.03     
     40000   1.0749111      0.0023323615  -0.0026849368   22.039327      20.443084      1.596243       0.012651334    74452.264    
     41000   0.99070886     0.0023323615  -0.0030385564   22.03241       20.561207      1.4712027      0.00092855646  77481.456    
     42000   0.95315224     0.0023323615   0.0019788197   21.965263      20.549832      1.4154311      0.020233689    69914.542    
     43000   1.0644183      0.0023323615  -0.0011168725   22.287172      20.706511      1.5806611      0.039694129    75438.687    
     44000   1.0253747      0.0023323615  -0.006676522    22.066233      20.543552      1.5226814      0              75310.341    
     45000   0.94179556     0.0023323615  -0.0047206018   21.970644      20.572077      1.3985664      0.019869988    75738.131    
     46000   1.0083495      0.0023323615  -0.0017646918   21.972114      20.474715      1.497399       0.00026040605  75896.904    
     47000   0.98767959     0.0023323615  -0.00080218158  22.091674      20.62497       1.4667042      0.024266258    75426.835    
     48000   1.1473449      0.0023323615  -0.0025885687   22.080512      20.376705      1.7038072      0.00065962995  76030.861    
     49000   1.0679312      0.0023323615   0.0017688272   21.970482      20.384604      1.5858779      0.014142422    77157.725    
     50000   0.9581935      0.0023323615   0.0014398836   21.955202      20.532284      1.4229173      0.0055011948   76699.41     
     51000   1.0215759      0.0023323615  -0.00093292688  21.934681      20.41764       1.5170402      0              75936.233    
     52000   0.98079591     0.0023323615   0.0040701936   21.977374      20.520892      1.4564819      0.0020862422   76858.64     
     53000   1.0090927      0.0023323615   0.0013324753   22.095438      20.596935      1.4985027      0              76039.544    
     54000   0.97519627     0.0023323615   0.0013260734   22.070151      20.621984      1.4481665      0.026885444    77158.148    
     55000   1.1805087      0.0023323615  -0.001586238    22.424088      20.671033      1.7530554      0.024690954    76570.904    
     56000   0.98387121     0.0023323615   0.0037155145   22.104425      20.643376      1.4610487      0.01435493     76065.161    
     57000   1.0723812      0.0023323615  -0.0037916262   22.122726      20.53024       1.592486       0.013635549    76925.929    
     58000   1.0152349      0.0023323615   0.00021908047  22.082827      20.575203      1.5076238      0.00077375639  76636.28     
     59000   1.1424502      0.0023323615  -0.0052108657   22.30072       20.604182      1.6965385      0.013308184    77404.611    
     60000   1.0359703      0.0023323615  -0.00097887545  22.188218      20.649802      1.538416       0.00011346294  75389.117    
     61000   1.1646839      0.0023323615  -0.002085017    22.239945      20.51039       1.7295556      0.012918477    78178.821    
     62000   1.101836       0.0023323615   0.0010338878   22.171386      20.53516       1.6362265      0.001396566    76895.708    
     63000   0.96616435     0.0023323615   0.00097550571  21.903821      20.469067      1.4347541      0.013027663    78219.438    
     64000   1.0068907      0.0023323615  -0.0020278726   22.061652      20.566419      1.4952327      0.013750276    76743.468    
     65000   0.98723233     0.0023323615   0.0022441476   22.031073      20.565033      1.46604        0.0066686189   77165.9      
     66000   1.0273881      0.0023323615  -0.0003515278   22.183579      20.657908      1.5256713      0              75056.964    
     67000   0.96528212     0.0023323615  -0.00014822656  21.9396        20.506156      1.4334439      0.010365557    77303.416    
     68000   1.069702       0.0023323615   9.4754668e-05  22.081119      20.492611      1.5885075      0.00049153926  74419.895    
     69000   1.1229502      0.0023323615   0.0011504079   22.200329      20.532748      1.6675811      0.0068454249   77289.53     
     70000   1.0062775      0.0023323615  -0.00085311964  22.094021      20.599699      1.4943221      0.013222355    75750.89     
     71000   1.0906935      0.0023323615   0.00015260357  22.145362      20.525682      1.6196798      0.018338513    76470.647    
     72000   1.010401       0.0023323615  -6.0487182e-06  22.154105      20.653659      1.5004455      0.0013793953   75437.896    
     73000   1.1177599      0.0023323615  -0.0034084797   22.254435      20.594562      1.6598735      0.00011231735  78229.797    
     74000   0.9768019      0.0023323615   0.00016143893  22.07312       20.622569      1.4505508      0.0084515956   76226.246    
     75000   1.1360996      0.0023323615   0.002159116    22.161595      20.474487      1.6871079      0.0089909162   76991.617    
     76000   0.97379329     0.0023323615  -0.00068458621  21.988928      20.542845      1.446083       0              76179.704    
     77000   0.94876793     0.0023323615  -0.0016073976   21.923496      20.514575      1.4089204      0.017745108    76105.644    
     78000   0.83947996     0.0023323615  -0.00062768559  21.726727      20.480099      1.2466277      0.0054510099   76583.365    
     79000   1.0090614      0.0023323615  -0.00080262643  22.068192      20.569736      1.4984562      0.00023011166  77118.382    
     80000   1.1217643      0.0023323615  -0.0038177864   22.367902      20.702082      1.66582        0.032902439    76483.947    
     81000   1.0240158      0.0023323615   0.00023547123  22.031597      20.510933      1.5206635      0.0068767308   75163.737    
     82000   1.003236       0.0023323615  -0.0022802982   21.894199      20.404393      1.4898055      0.019136282    75127.585    
     83000   1.0554159      0.0023323615   0.004011718    22.104562      20.537269      1.5672927      0.0080869707   74968.24     
     84000   0.83527346     0.0023323615  -0.0034122221   21.874648      20.634267      1.2403811      0.0030083664   76383.743    
     85000   1.036002       0.0023323615   0.0013573923   21.962923      20.42446       1.5384629      0.015709144    76966.03     
     86000   0.9432002      0.0023323615  -0.0032183248   21.913588      20.512936      1.4006523      0.013730309    76959.674    
     87000   0.95566008     0.0023323615  -0.00049614223  21.91653       20.497375      1.4191552      0.0035862035   75999.952    
     88000   0.93373351     0.0023323615  -0.00097093893  21.870485      20.483891      1.3865943      0.0018212145   75681.046    
     89000   0.9684944      0.0023323615  -0.00047342045  21.973429      20.535215      1.4382142      0.00087524744  75877.692    
     90000   0.98293324     0.0023323615  -0.0032204602   22.050919      20.591263      1.4596559      0.015353933    77283.187    
     91000   1.0832827      0.0023323615   0.0048517083   22.11977       20.511095      1.6086749      0.0052867789   78177.898    
     92000   0.85899662     0.0023323615  -0.0013049519   21.765697      20.490087      1.27561        0.0024124001   76968.879    
     93000   0.96176266     0.0023323615  -4.4223672e-05  21.874222      20.446004      1.4282176      0.0045653365   77807.012    
     94000   0.96019503     0.0023323615   0.00024459347  21.944954      20.519064      1.4258896      3.8053462e-05  77283.36     
     95000   0.94702149     0.0023323615  -0.0033658915   21.86315       20.456823      1.4063269      0              77980.559    
     96000   0.91119348     0.0023323615  -0.0013197298   21.825018      20.471896      1.3531223      0.00043282989  76505.352    
     97000   1.0016687      0.0023323615  -0.0019514304   22.013024      20.525546      1.487478       0.0048369955   75706.015    
     98000   1.02143        0.0023323615  -0.0057874974   22.177965      20.661142      1.5168235      0              74841.925    
     99000   1.032786       0.0023323615   0.0018228259   21.975336      20.441649      1.5336871      7.1595851e-05  77978.735    
    100000   1.0594928      0.0023323615   0.0036169719   22.011024      20.437677      1.5733468      0.00032948157  76249.187    
    100362   1.1904942      0.0023323615  -0.00089755607  22.316856      20.548972      1.7678839      0.00063845255  75750.918    
Loop time of 1.31186 on 1 procs for 100000 steps with 100 atoms

Performance: 32930221.985 tau/day, 76227.366 timesteps/s
99.1% CPU use with 1 MPI tasks x 1 OpenMP threads

MPI task timing breakdown:
Section |  min time  |  avg time  |  max time  |%varavg| %total
---------------------------------------------------------------
Pair    | 0.049245   | 0.049245   | 0.049245   |   0.0 |  3.75
Bond    | 0.12566    | 0.12566    | 0.12566    |   0.0 |  9.58
Neigh   | 0.80515    | 0.80515    | 0.80515    |   0.0 | 61.37
Comm    | 0.054723   | 0.054723   | 0.054723   |   0.0 |  4.17
Output  | 0.0011429  | 0.0011429  | 0.0011429  |   0.0 |  0.09
Modify  | 0.24323    | 0.24323    | 0.24323    |   0.0 | 18.54
Other   |            | 0.03271    |            |       |  2.49

Nlocal:            100 ave         100 max         100 min
Histogram: 1 0 0 0 0 0 0 0 0 0
Nghost:             60 ave          60 max          60 min
Histogram: 1 0 0 0 0 0 0 0 0 0
Neighs:             36 ave          36 max          36 min
Histogram: 1 0 0 0 0 0 0 0 0 0

Total # of neighbors = 36
Ave neighs/atom = 0.36
Ave special neighs/atom = 1.98
Neighbor list builds = 9821
Dangerous builds = 8265
unfix           nvtSoft
unfix           rampSoft
reset_timestep  0

write_data      ${outputfile_relaxed}
write_data      5_relaxed.data
System init for write_data ...
Generated 0 of 6 mixed pair_coeff terms from geometric mixing rule
WARNING: Communication cutoff 1.3 is shorter than a bond length based estimate of 1.7550000000000001. This may lead to errors. (src/comm.cpp:727)
WARNING: Not all mixed pair coeffs generated from mixing. Use write_data with 'pair ij' option to store all pair coeffs. (src/write_data.cpp:309)

###########################################################################
# Full LJ with Coulomb
######################################################################

# Cutoffs and parameters:
# - Values: Marcel Verkade's Bachelor Thesis
# - Mapping to atom groups: Patrick Onck's paper
# - 1: aliphatic, 2: aromatic, 3: anion, 4: cation
# pair_style	lj/cut/coul/cut <lj_cut_global> <coul_cut_global>
# pair_coeff	<type_1>  <type_2>  <eps>  <sigma>  <r_cut_lj>  <r_cut_coul>

# Problem: Onck's model is much more complex, and Marcel has no sigma reported
# Using sigma=1 randomly

variable		glob_ljeps equal 1.0
variable		glob_ljsig 	equal 1.0
variable		glob_coulcut equal 10.0
variable		att_ljcut equal 2.50
variable		rep_ljcut equal 1.12

pair_style		lj/cut/coul/cut 						${att_ljcut} 	${glob_coulcut}
pair_style		lj/cut/coul/cut 						2.5 	${glob_coulcut}
pair_style		lj/cut/coul/cut 						2.5 	10
pair_coeff		1 1 	${glob_ljeps} 	${glob_ljsig}	${att_ljcut} 	${glob_coulcut}
pair_coeff		1 1 	1 	${glob_ljsig}	${att_ljcut} 	${glob_coulcut}
pair_coeff		1 1 	1 	1	${att_ljcut} 	${glob_coulcut}
pair_coeff		1 1 	1 	1	2.5 	${glob_coulcut}
pair_coeff		1 1 	1 	1	2.5 	10
pair_coeff		1 2 	${glob_ljeps} 	${glob_ljsig}	${att_ljcut} 	${glob_coulcut}
pair_coeff		1 2 	1 	${glob_ljsig}	${att_ljcut} 	${glob_coulcut}
pair_coeff		1 2 	1 	1	${att_ljcut} 	${glob_coulcut}
pair_coeff		1 2 	1 	1	2.5 	${glob_coulcut}
pair_coeff		1 2 	1 	1	2.5 	10
pair_coeff		1 3 	${glob_ljeps} 	${glob_ljsig}	${rep_ljcut} 	${glob_coulcut}
pair_coeff		1 3 	1 	${glob_ljsig}	${rep_ljcut} 	${glob_coulcut}
pair_coeff		1 3 	1 	1	${rep_ljcut} 	${glob_coulcut}
pair_coeff		1 3 	1 	1	1.12 	${glob_coulcut}
pair_coeff		1 3 	1 	1	1.12 	10
pair_coeff		1 4 	${glob_ljeps} 	${glob_ljsig}	${rep_ljcut} 	${glob_coulcut}
pair_coeff		1 4 	1 	${glob_ljsig}	${rep_ljcut} 	${glob_coulcut}
pair_coeff		1 4 	1 	1	${rep_ljcut} 	${glob_coulcut}
pair_coeff		1 4 	1 	1	1.12 	${glob_coulcut}
pair_coeff		1 4 	1 	1	1.12 	10
pair_coeff		2 2 	${glob_ljeps} 	${glob_ljsig}	${att_ljcut} 	${glob_coulcut}
pair_coeff		2 2 	1 	${glob_ljsig}	${att_ljcut} 	${glob_coulcut}
pair_coeff		2 2 	1 	1	${att_ljcut} 	${glob_coulcut}
pair_coeff		2 2 	1 	1	2.5 	${glob_coulcut}
pair_coeff		2 2 	1 	1	2.5 	10
pair_coeff		2 3 	${glob_ljeps} 	${glob_ljsig}	${rep_ljcut} 	${glob_coulcut}
pair_coeff		2 3 	1 	${glob_ljsig}	${rep_ljcut} 	${glob_coulcut}
pair_coeff		2 3 	1 	1	${rep_ljcut} 	${glob_coulcut}
pair_coeff		2 3 	1 	1	1.12 	${glob_coulcut}
pair_coeff		2 3 	1 	1	1.12 	10
pair_coeff		2 4 	${glob_ljeps} 	${glob_ljsig}	${att_ljcut} 	${glob_coulcut}
pair_coeff		2 4 	1 	${glob_ljsig}	${att_ljcut} 	${glob_coulcut}
pair_coeff		2 4 	1 	1	${att_ljcut} 	${glob_coulcut}
pair_coeff		2 4 	1 	1	2.5 	${glob_coulcut}
pair_coeff		2 4 	1 	1	2.5 	10
pair_coeff		3 3 	${glob_ljeps} 	${glob_ljsig}	${rep_ljcut} 	${glob_coulcut}
pair_coeff		3 3 	1 	${glob_ljsig}	${rep_ljcut} 	${glob_coulcut}
pair_coeff		3 3 	1 	1	${rep_ljcut} 	${glob_coulcut}
pair_coeff		3 3 	1 	1	1.12 	${glob_coulcut}
pair_coeff		3 3 	1 	1	1.12 	10
pair_coeff		3 4 	${glob_ljeps} 	${glob_ljsig}	${att_ljcut} 	${glob_coulcut}
pair_coeff		3 4 	1 	${glob_ljsig}	${att_ljcut} 	${glob_coulcut}
pair_coeff		3 4 	1 	1	${att_ljcut} 	${glob_coulcut}
pair_coeff		3 4 	1 	1	2.5 	${glob_coulcut}
pair_coeff		3 4 	1 	1	2.5 	10
pair_coeff		4 4 	${glob_ljeps} 	${glob_ljsig}	${rep_ljcut} 	${glob_coulcut}
pair_coeff		4 4 	1 	${glob_ljsig}	${rep_ljcut} 	${glob_coulcut}
pair_coeff		4 4 	1 	1	${rep_ljcut} 	${glob_coulcut}
pair_coeff		4 4 	1 	1	1.12 	${glob_coulcut}
pair_coeff		4 4 	1 	1	1.12 	10


fix             noDriftRot 	all momentum 10 linear 1 1 1 angular
fix             nvt1 		all nvt temp ${Temp} ${Temp} 0.5
fix             nvt1 		all nvt temp 1 ${Temp} 0.5
fix             nvt1 		all nvt temp 1 1 0.5

# dump          assemble 	all custom 1000 				${outputfile_selfasb} id type xu yu zu vx vy vz
dump            lindump 	all custom ${subsample_rate} 	${outputfile_trajlin} id type xu yu zu vx vy vz
dump            lindump 	all custom 1000 	${outputfile_trajlin} id type xu yu zu vx vy vz
dump            lindump 	all custom 1000 	6_b_trajlin.data id type xu yu zu vx vy vz

run             ${runtime}
run             1000000
Generated 0 of 6 mixed pair_coeff terms from geometric mixing rule
Neighbor list info ...
  update every 1 steps, delay 10 steps, check yes
  max neighbors/atom: 2000, page size: 100000
  master list distance cutoff = 10.3
  ghost atom cutoff = 10.3
  binsize = 5.15, bins = 7 7 7
  1 neighbor lists, perpetual/occasional/extra = 1 0 0
  (1) pair lj/cut/coul/cut, perpetual
      attributes: half, newton on
      pair build: half/bin/newton
      stencil: half/bin/3d
      bin: standard
Per MPI rank memory allocation (min/avg/max) = 7.712 | 7.712 | 7.712 Mbytes
   Step          Temp         Density         Press          TotEng         PotEng         KinEng         E_pair         S/CPU     
         0   1.1904942      0.0023323615  -0.0012225985   21.969655      20.201771      1.7678839     -0.3465629      0            
      1000   0.89785634     0.0023323615  -0.0001587291   21.393734      20.060418      1.3333167     -0.62020328     33724.825    
      2000   1.0009425      0.0023323615  -0.0031695246   21.331195      19.844795      1.4863997     -0.70777805     31212.941    
      3000   0.94239343     0.0023323615  -0.001810315    20.889029      19.489575      1.3994542     -0.95839428     26590.914    
      4000   0.90527894     0.0023323615   0.0021703299   20.648362      19.304023      1.3443392     -1.1477076      20890.44     
      5000   0.95587861     0.0023323615  -0.0030221149   20.978886      19.559407      1.4194797     -1.0036857      18883.679    
      6000   0.88816595     0.0023323615   0.00068543912  20.893195      19.574268      1.3189264     -0.970301       18826.083    
      7000   1.0695694      0.0023323615  -0.0024076601   21.266369      19.678058      1.5883106     -0.79041324     18942.869    
      8000   1.0902102      0.0023323615   0.0028452575   21.285901      19.666939      1.6189622     -0.9055887      19243.889    
      9000   1.0010559      0.0023323615  -0.00012695515  20.898051      19.411483      1.4865681     -1.0937649      18960.069    
     10000   1.0181104      0.0023323615  -0.0041756883   20.885082      19.373188      1.511894      -1.1669791      18774.082    
     11000   1.1559162      0.0023323615  -0.0044940082   20.851238      19.134702      1.7165355     -1.3919827      18757.091    
     12000   1.0772449      0.0023323615  -0.00013293759  20.879397      19.279688      1.5997086     -1.325404       18680.678    
     13000   1.0160178      0.0023323615   0.00058492016  20.698397      19.18961       1.5087864     -1.2580338      18518.65     
     14000   1.0578423      0.0023323615   0.0021690512   20.713363      19.142467      1.5708959     -1.3843282      18675.165    
     15000   0.95077481     0.0023323615  -0.001757597    20.708251      19.296351      1.4119006     -1.2007297      18634.961    
     16000   0.93140589     0.0023323615  -0.0011927159   20.829596      19.446458      1.3831377     -1.1015735      18839.524    
     17000   1.1080812      0.0023323615   0.0029701626   21.170872      19.525372      1.6455006     -1.0063605      18920.24     
     18000   0.92019658     0.0023323615   0.00048402479  20.357119      18.990627      1.3664919     -1.4982265      18713.68     
     19000   0.85709402     0.0023323615   0.0031168679   20.541782      19.268998      1.2727846     -1.2506328      18620.843    
     20000   0.98974637     0.0023323615   0.00097824761  20.8211        19.351327      1.4697734     -1.2180389      18664.996    
     21000   0.96039919     0.0023323615   0.0040553387   20.474585      19.048392      1.4261928     -1.3176132      18628.197    
     22000   0.9025114      0.0023323615   0.0080545223   20.455209      19.11498       1.3402294     -1.3796685      18616.279    
     23000   1.0349519      0.0023323615   0.0016140986   20.748764      19.21186       1.5369035     -1.2404528      18437.687    
     24000   0.99720559     0.0023323615   0.0031203058   20.874518      19.393667      1.4808503     -1.1004558      18629.699    
     25000   0.96820228     0.0023323615   0.0029899533   20.803659      19.365878      1.4377804     -1.1930087      18727.788    
     26000   0.88975171     0.0023323615   0.0027161941   20.661238      19.339957      1.3212813     -1.1886332      18576.373    
     27000   1.0010952      0.0023323615   0.00092454108  20.418213      18.931586      1.4866263     -1.5360634      18516.544    
     28000   1.1464775      0.0023323615  -0.0026129926   20.97943       19.27691       1.7025191     -1.2358272      18541.534    
     29000   1.1205807      0.0023323615  -0.0014690303   20.950552      19.286489      1.6640623     -1.2076616      18462.385    
     30000   0.90718973     0.0023323615  -0.0017665689   20.774363      19.427187      1.3471768     -1.0420549      18564.263    
     31000   1.1195493      0.0023323615   0.0037661133   20.959446      19.296916      1.6625307     -1.2118709      18621.243    
     32000   1.118751       0.0023323615   0.0010195078   21.003402      19.342057      1.6613453     -1.2412376      18539.099    
     33000   1.1534442      0.0023323615   0.0023491431   20.933044      19.220179      1.7128646     -1.3149653      18773.605    
     34000   1.1435184      0.0023323615  -6.5425017e-06  21.101123      19.402998      1.6981249     -1.1350677      18688.803    
     35000   1.0206412      0.0023323615   0.001145026    21.00548       19.489828      1.5156522     -1.007153       19051.884    
     36000   0.99036947     0.0023323615  -0.00024118036  20.912561      19.441862      1.4706987     -1.0612511      19679.412    
     37000   0.95301696     0.0023323615  -0.00064736478  20.884077      19.468847      1.4152302     -1.1135961      19613.725    
     38000   1.1213091      0.0023323615   0.00051700133  20.910903      19.245759      1.6651441     -1.117448       18723.889    
     39000   0.81626382     0.0023323615   0.0024908508   20.395674      19.183522      1.2121518     -1.3044422      18590.129    
     40000   1.0035113      0.0023323615  -0.0040730598   21.039483      19.549269      1.4902143     -1.1319933      18661.416    
     41000   0.93188914     0.0023323615  -0.0026288135   20.853111      19.469256      1.3838554     -1.1775449      18863.986    
     42000   1.0806005      0.0023323615   0.0018451914   20.934722      19.33003       1.6046918     -1.1398586      18981.858    
     43000   0.91678686     0.0023323615  -0.010017412    20.788789      19.42736       1.3614285     -1.268677       18779.31     
     44000   1.0721756      0.0023323615  -0.0038995895   20.782283      19.190102      1.5921808     -1.294942       18665.3      
     45000   0.94899585     0.0023323615  -0.0025989091   20.516589      19.107331      1.4092588     -1.3233576      18569.72     
     46000   0.95393259     0.0023323615   0.0012229619   20.717834      19.301244      1.4165899     -1.292897       18500.253    
     47000   0.98412568     0.0023323615   0.0029833666   20.775006      19.31358       1.4614266     -1.2841947      18560.67     
     48000   1.0251381      0.0023323615   7.4050866e-05  20.573962      19.051632      1.5223301     -1.3390263      18520.231    
     49000   0.96803858     0.0023323615   0.00025624368  20.95415       19.516613      1.4375373     -1.1679346      18500.472    
     50000   0.88079897     0.0023323615  -0.0041484548   20.347719      19.039732      1.3079865     -1.4200101      18504.54     
     51000   1.0855624      0.0023323615   0.0036409987   20.828855      19.216795      1.6120601     -1.1548151      18591.702    
     52000   0.95896601     0.0023323615  -0.0024623465   20.952129      19.528064      1.4240645     -1.0716985      18721.497    
     53000   1.1287211      0.0023323615   0.0014851384   21.154367      19.478216      1.6761509     -1.0704134      19166.329    
     54000   0.98167914     0.0023323615  -0.0052718863   21.150718      19.692925      1.4577935     -0.92327099     19250.232    
     55000   1.0940403      0.0023323615  -0.00013688733  21.296486      19.671836      1.6246499     -0.99631091     18782.989    
     56000   0.95795235     0.0023323615   0.0050546835   20.704654      19.282095      1.4225592     -1.073199       18525.82     
     57000   1.0535735      0.0023323615   0.0014919732   20.83856       19.274003      1.5645567     -1.2492469      18532.139    
     58000   0.99370416     0.0023323615   0.00081316151  20.539702      19.064051      1.4756507     -1.4054959      18504.609    
     59000   1.0573603      0.0023323615  -0.001873565    20.724665      19.154485      1.5701801     -1.3095125      18494.268    
     60000   1.0002594      0.0023323615   0.0022908881   20.470358      18.984972      1.4853852     -1.4118818      18407.808    
     61000   0.96347081     0.0023323615   0.00035214006  20.559769      19.129015      1.4307542     -1.3297599      18512.564    
     62000   0.90583423     0.0023323615   0.0028446462   20.559866      19.214702      1.3451638     -1.2091935      18609.338    
     63000   0.93830929     0.0023323615  -0.0030446348   20.588404      19.195014      1.3933893     -1.3151151      18342.834    
     64000   0.96132715     0.0023323615  -0.0012370368   20.617713      19.190142      1.4275708     -1.293957       18519.107    
     65000   1.0596771      0.0023323615   0.00085447979  20.643154      19.069533      1.5736205     -1.4382551      18476.979    
     66000   0.78099422     0.0023323615  -0.0014000505   20.668132      19.508355      1.1597764     -1.0352212      18464.397    
     67000   0.97244885     0.0023323615   0.0051767946   20.748793      19.304707      1.4440865     -1.2910345      18600.349    
     68000   1.1885677      0.0023323615   0.00029482898  21.174977      19.409954      1.765023      -1.2506604      18436.733    
     69000   1.0132824      0.0023323615   0.0017547709   20.751374      19.246649      1.5047244     -1.3049142      18540.752    
     70000   0.99546902     0.0023323615   0.001255949    20.73737       19.259098      1.4782715     -1.3486806      18609.543    
     71000   1.0556116      0.0023323615   0.00012121687  20.879613      19.31203       1.5675832     -1.16718        18619.725    
     72000   0.76413392     0.0023323615  -0.0015376036   20.675399      19.54066       1.1347389     -0.97947053     18624.999    
     73000   0.9683999      0.0023323615  -0.0010496012   20.76698       19.328906      1.4380738     -1.1924         18598.429    
     74000   0.99895364     0.0023323615  -0.00065099158  20.844815      19.361369      1.4834462     -1.2834777      18572.636    
     75000   1.1534321      0.0023323615  -0.0022355646   21.013789      19.300942      1.7128467     -1.0808305      18550.235    
     76000   0.97378511     0.0023323615  -0.0014676879   20.893205      19.447134      1.4460709     -1.0859271      18653.45     
     77000   0.96524205     0.0023323615  -0.00039312851  20.865563      19.432178      1.4333844     -1.2367185      18950.217    
     78000   0.95628392     0.0023323615  -0.0024490532   20.517775      19.097693      1.4200816     -1.3825404      18694        
     79000   1.169208       0.0023323615  -0.0034353915   21.026644      19.29037       1.7362738     -1.229369       18487.077    
     80000   1.0345345      0.0023323615  -0.001583688    20.929481      19.393197      1.5362837     -1.1289567      18561.229    
     81000   1.1133678      0.0023323615  -0.0025648973   21.092811      19.439459      1.6533512     -1.1161895      18676.42     
     82000   1.0759179      0.0023323615  -2.0670727e-05  21.029711      19.431973      1.5977381     -1.274124       18749.276    
     83000   1.0391149      0.0023323615   0.00041234076  21.007791      19.464706      1.5430857     -1.0176866      18717.562    
     84000   1.0869966      0.0023323615  -0.00053021222  21.171163      19.556973      1.6141899     -1.1313657      18624.036    
     85000   1.0963752      0.0023323615  -0.0031371998   20.878995      19.250878      1.6281171     -1.2664802      18620.353    
     86000   0.94198812     0.0023323615   0.00073756371  20.914687      19.515835      1.3988524     -1.0424795      18726.548    
     87000   0.90731179     0.0023323615   0.00083436866  20.406977      19.059619      1.347358      -1.4557879      18721.444    
     88000   1.0138042      0.0023323615   0.0014699342   20.646566      19.141067      1.5054992     -1.374377       18531        
     89000   0.95762771     0.0023323615  -4.1945589e-05  20.782999      19.360922      1.4220771     -1.275351       18507.776    
     90000   1.1153213      0.0023323615   0.00064155233  20.914837      19.258585      1.6562521     -1.2240163      18355.47     
     91000   1.0402302      0.0023323615   0.00022880023  20.79557       19.250828      1.5447419     -1.2090511      18287.63     
     92000   0.98965328     0.0023323615  -0.00019878004  20.41733       18.947695      1.4696351     -1.4300373      18339.639    
     93000   0.83693264     0.0023323615  -0.0031112236   20.792933      19.550088      1.242845      -1.0612039      18641.396    
     94000   0.95825802     0.0023323615   0.00076707102  20.55514       19.132127      1.4230132     -1.3525881      18737.239    
     95000   1.147926       0.0023323615   0.003126958    21.129999      19.425329      1.70467       -0.98695904     19107.847    
     96000   0.8988131      0.0023323615  -0.0027210067   21.041359      19.706622      1.3347374     -0.88064278     19484.237    
     97000   0.79904167     0.0023323615  -0.0045643496   20.516245      19.329669      1.1865769     -1.2630375      19461.412    
     98000   1.0486574      0.0023323615  -0.0025795622   21.182745      19.625489      1.5572563     -1.0532433      19030.942    
     99000   1.0012509      0.0023323615   0.00078612895  20.859473      19.372616      1.4868576     -1.3154879      18705.537    
    100000   1.049232       0.0023323615  -0.0015843817   20.593673      19.035563      1.5581095     -1.4777207      18576.605    
    101000   1.0087642      0.0023323615  -0.00034346303  20.938577      19.440562      1.4980148     -1.1417575      18635.26     
    102000   0.95766311     0.0023323615   0.0047762321   20.844101      19.421972      1.4221297     -1.1758305      18733.873    
    103000   0.87274624     0.0023323615  -0.0030091381   20.474079      19.178051      1.2960282     -1.2622541      18749.501    
    104000   1.0014217      0.0023323615   3.6677219e-05  20.713203      19.226091      1.4871112     -1.2810069      18615.776    
    105000   0.85488365     0.0023323615  -0.0024480801   20.554295      19.284793      1.2695022     -1.2285248      18619.287    
    106000   0.93231938     0.0023323615   0.00010179943  20.628803      19.244309      1.3844943     -1.3201234      18457.646    
    107000   1.005116       0.0023323615  -0.0022747607   20.619616      19.127018      1.4925972     -1.2845035      18503.703    
    108000   0.94908854     0.0023323615  -0.0052075321   20.684266      19.27487       1.4093965     -1.2890532      18661.698    
    109000   0.9758018      0.0023323615  -0.00030170439  20.763223      19.314158      1.4490657     -1.2453115      18554.852    
    110000   0.99086599     0.0023323615   0.0024315055   20.694955      19.223519      1.471436      -1.389291       18613.513    
    111000   1.1047653      0.0023323615  -0.00050547906  20.659778      19.019201      1.6405764     -1.6035012      18429.312    
    112000   1.0489459      0.0023323615  -0.0048997151   20.990273      19.432588      1.5576846     -1.1372444      18597.438    
    113000   1.066589       0.0023323615  -0.0033708337   21.076482      19.492597      1.5838847     -1.1187553      18659.898    
    114000   1.0043759      0.0023323615   0.0010760259   20.915863      19.424365      1.4914983     -1.1486265      18738.73     
    115000   1.0742453      0.0023323615   0.001260138    20.96623       19.370975      1.5952543     -1.15152        18796.214    
    116000   1.1117586      0.0023323615   0.0033834317   20.871657      19.220696      1.6509615     -1.3196692      18755.702    
    117000   1.0036146      0.0023323615   0.0025734014   20.914535      19.424167      1.4903677     -1.142006       18819.7      
    118000   1.0178086      0.0023323615   0.00063682641  21.084442      19.572996      1.5114458     -1.0621932      18663.275    
    119000   0.90375182     0.0023323615   0.001261274    20.467172      19.1251        1.3420715     -1.264796       18688.789    
    120000   0.98922896     0.0023323615  -0.0016212228   20.708902      19.239897      1.469005      -1.2521776      18655.437    
    121000   0.89508345     0.0023323615  -0.00044701948  20.75929       19.430091      1.3291989     -1.0987722      18738.794    
    122000   0.90961163     0.0023323615  -0.0027171641   20.72994       19.379167      1.3507733     -1.2191272      18634.161    
    123000   1.0299133      0.0023323615   0.00044365741  20.73616       19.206739      1.5294212     -1.2531626      18617.863    
    124000   0.95798149     0.0023323615   0.0032509933   20.530475      19.107872      1.4226025     -1.2780268      18581.619    
    125000   1.0972539      0.0023323615  -0.0027029869   20.888646      19.259224      1.629422      -1.2531456      18607.881    
    126000   0.97528643     0.0023323615   0.0012890839   20.63095       19.18265       1.4483004     -1.2444107      18714.066    
    127000   1.0415326      0.0023323615   0.0036697599   21.103022      19.556346      1.5466759     -1.0290667      18758.596    
    128000   0.99465089     0.0023323615   0.0011317699   20.822622      19.345565      1.4770566     -1.1014213      18904.344    
    129000   1.136238       0.0023323615  -0.0018768484   21.240606      19.553293      1.6873134     -1.0929405      18676.913    
    130000   0.88679777     0.0023323615  -0.0027625478   20.635848      19.318953      1.3168947     -1.1839593      18907.9      
    131000   1.0421503      0.0023323615  -0.0022819029   20.88636       19.338767      1.5475932     -1.1742252      19108.081    
    132000   1.0732923      0.0023323615   0.0012109895   21.305782      19.711943      1.593839      -0.92567845     18770.135    
    133000   0.93249237     0.0023323615  -0.0010210972   20.8308        19.446049      1.3847512     -1.1360649      18697.681    
    134000   1.0520109      0.0023323615  -0.002705225    20.768327      19.206091      1.5622362     -1.3183794      18565.52     
    135000   1.0032115      0.0023323615  -0.0029348709   20.653446      19.163677      1.489769      -1.2788525      18557.909    
    136000   0.96203246     0.0023323615  -0.0003019894   20.728893      19.300275      1.4286182     -1.2616301      18544.744    
    137000   0.9456824      0.0023323615  -0.0011612338   20.598787      19.194449      1.4043384     -1.312644       18666.438    
    138000   0.96495207     0.0023323615   0.0013133468   20.870368      19.437414      1.4329538     -1.1433236      18644.13     
    139000   0.95404362     0.0023323615  -0.0038731301   20.681077      19.264323      1.4167548     -1.2583647      18508.023    
    140000   0.9357166      0.0023323615  -0.0010253002   20.442728      19.053189      1.3895392     -1.5141704      18577.175    
    141000   0.84366813     0.0023323615   0.0017958741   20.588044      19.335197      1.2528472     -1.2087123      18617.033    
    142000   0.90680641     0.0023323615  -0.0011689376   20.442626      19.096018      1.3466075     -1.4080268      18492.657    
    143000   0.96007629     0.0023323615   0.0027235718   20.786471      19.360758      1.4257133     -1.1290677      18466.477    
    144000   1.1451226      0.0023323615   0.0011272336   20.868734      19.168226      1.7005071     -1.3220483      18440.02     
    145000   0.90282565     0.0023323615  -0.00054940337  20.711479      19.370783      1.3406961     -1.1246917      18636.742    
    146000   0.996704       0.0023323615  -0.00025878769  20.927924      19.447818      1.4801054     -1.1421915      18531.186    
    147000   1.0921944      0.0023323615  -5.5016523e-05  21.060163      19.438255      1.6219087     -1.2118147      18579.312    
    148000   0.94867096     0.0023323615   0.0025162457   20.67782       19.269043      1.4087764     -1.2511048      18479.705    
    149000   0.98284648     0.0023323615  -0.0027023454   20.836862      19.377335      1.459527      -1.1522401      18652.987    
    150000   1.0796884      0.0023323615  -0.0049396524   20.902491      19.299154      1.6033373     -1.2312773      18589.904    
    151000   0.97577473     0.0023323615   0.0030758959   20.668597      19.219572      1.4490255     -1.2764323      18545.733    
    152000   1.1104309      0.0023323615   0.0025473818   21.091392      19.442402      1.6489899     -1.1901274      18573.379    
    153000   0.95781657     0.0023323615   0.0052814624   20.781771      19.359414      1.4223576     -1.295671       18543.662    
    154000   0.90896823     0.0023323615  -0.005361214    20.416813      19.066995      1.3498178     -1.5202874      18449.7      
    155000   0.91760567     0.0023323615  -0.0022560617   20.705389      19.342744      1.3626444     -1.1251388      18551.169    
    156000   0.88426978     0.0023323615  -0.0014316414   20.841008      19.527868      1.3131406     -0.92045491     18639.778    
    157000   0.97611018     0.0023323615  -0.0019499778   20.573876      19.124352      1.4495236     -1.363984       18614.162    
    158000   1.0163596      0.0023323615  -0.001313992    20.862974      19.35368       1.509294      -1.1231985      18654.82     
    159000   1.0449559      0.0023323615   0.00032884072  20.881754      19.329995      1.5517594     -1.2138985      18517.046    
    160000   0.96601565     0.0023323615  -0.0012241052   20.581123      19.14659       1.4345332     -1.3552879      18619.784    
    161000   0.93368021     0.0023323615  -0.0033361228   20.86193       19.475415      1.3865151     -1.1596377      18591.168    
    162000   0.91483501     0.0023323615  -0.0015824314   20.58359       19.22506       1.35853       -1.3296119      18541.751    
    163000   1.0225786      0.0023323615  -0.00048350837  20.687043      19.168514      1.5185292     -1.3824295      18599.684    
    164000   0.96789789     0.0023323615  -0.0016676885   20.512843      19.075515      1.4373284     -1.3689443      18620.982    
    165000   1.1824406      0.0023323615   0.0022679308   20.9221        19.166176      1.7559242     -1.1418616      18578.987    
    166000   1.0564966      0.0023323615  -0.00083598087  21.006934      19.438036      1.5688975     -1.0756993      18551.217    
    167000   1.0411073      0.0023323615  -0.0031916468   20.910628      19.364584      1.5460444     -1.1299964      18590.32     
    168000   1.1774865      0.0023323615   0.0031770943   21.019093      19.270526      1.7485675     -1.2879908      18641.271    
    169000   0.90312411     0.0023323615  -0.00071449842  20.531996      19.190857      1.3411393     -1.3632417      18574.599    
    170000   0.98554728     0.0023323615   0.00054356868  20.72122       19.257682      1.4635377     -1.2112431      18614.256    
    171000   0.99140903     0.0023323615   0.00084573468  20.779193      19.306951      1.4722424     -1.2433053      18967.664    
    172000   1.0607205      0.0023323615  -0.0030122316   20.885722      19.310552      1.57517       -1.2736338      19048.361    
    173000   0.93557687     0.0023323615  -0.0039687464   20.707645      19.318313      1.3893317     -1.1836876      18735.554    
    174000   1.0459511      0.0023323615  -0.0014815145   20.98311       19.429873      1.5532373     -1.1403988      18724.77     
    175000   0.97996498     0.0023323615  -0.0011218777   20.540487      19.085239      1.455248      -1.3197606      18663.216    
    176000   0.94417616     0.0023323615  -0.0009866593   20.574221      19.17212       1.4021016     -1.3068472      18647.425    
    177000   1.0210398      0.0023323615  -0.002455806    21.067056      19.550812      1.5162441     -1.1913832      18632.665    
    178000   0.9790866      0.0023323615  -0.0014847285   20.707373      19.253429      1.4539436     -1.1768215      18523.689    
    179000   1.0011033      0.0023323615   0.002460114    20.858903      19.372265      1.4866384     -1.0623582      18694.536    
    180000   1.0185497      0.0023323615  -0.0042250077   20.980299      19.467753      1.5125463     -1.1939454      18613.159    
    181000   1.0450728      0.0023323615   0.0024045968   20.611523      19.05959       1.5519331     -1.4540623      18482.405    
    182000   0.95765008     0.0023323615   0.0020197471   20.662281      19.24017       1.4221104     -1.3702524      18573.338    
    183000   1.06766        0.0023323615  -0.0019919671   20.73059       19.145115      1.5854751     -1.3771622      18456.52     
    184000   1.1002865      0.0023323615   0.0018409898   21.009254      19.375328      1.6339254     -1.1377963      18661.363    
    185000   1.1306495      0.0023323615  -9.9284514e-05  21.111183      19.432169      1.6790144     -1.2842106      18653.007    
    186000   1.0182251      0.0023323615   0.0028250522   20.86653       19.354466      1.5120643     -1.1676308      18743.959    
    187000   1.0039984      0.0023323615   0.00027706798  20.420559      18.929621      1.4909376     -1.5103735      18714.287    
    188000   0.97183755     0.0023323615   0.0014620975   20.514498      19.071319      1.4431788     -1.4080968      18587.17     
    189000   1.1506776      0.0023323615   0.0015188265   20.908123      19.199367      1.7087562     -1.2592796      18519.709    
    190000   1.0462104      0.0023323615  -0.0018344551   20.73959       19.185967      1.5536224     -1.2467935      18642.765    
    191000   1.0003894      0.0023323615   0.0041319197   20.883039      19.397461      1.4855782     -1.2274695      18782.296    
    192000   0.93597038     0.0023323615  -0.002566233    20.664119      19.274203      1.389916      -1.2370182      18804.167    
    193000   0.96966603     0.0023323615   0.0019431547   20.751695      19.311741      1.4399541     -1.167318       18798.044    
    194000   1.042854       0.0023323615   0.0055374993   20.807164      19.258526      1.5486382     -1.2856589      18708.096    
    195000   0.98732579     0.0023323615   0.001181137    21.042976      19.576797      1.4661788     -0.99685625     18797.81     
    196000   0.94322653     0.0023323615  -0.0019029028   20.821617      19.420926      1.4006914     -1.1281661      18789.243    
    197000   1.13105        0.0023323615   0.0015817484   21.164284      19.484675      1.6796092     -1.0359628      18568.031    
    198000   1.035667       0.0023323615   0.0043473956   20.952747      19.414781      1.5379655     -1.1237857      18683.198    
    199000   0.89463318     0.0023323615  -0.0015834636   20.73228       19.40375       1.3285303     -1.1796754      18698.122    
    200000   1.0108264      0.0023323615  -0.00022489408  20.851336      19.350259      1.5010773     -1.1430129      19149.973    
    201000   0.93640758     0.0023323615  -0.00043727414  21.133703      19.743138      1.3905653     -0.93122331     19927.701    
    202000   0.97248272     0.0023323615  -0.0017885708   20.887803      19.443666      1.4441368     -1.0414669      20456.773    
    203000   1.1690638      0.0023323615   0.0035209755   21.103599      19.367539      1.7360598     -1.0974959      19805.819    
    204000   0.8622467      0.0023323615  -0.0017692685   20.579536      19.299099      1.2804364     -1.15359        19016.888    
    205000   0.99662059     0.0023323615   0.0018876635   20.645706      19.165725      1.4799816     -1.31753        18271.959    
    206000   1.1871988      0.0023323615   0.0018739197   20.884867      19.121877      1.7629902     -1.3068658      18493.03     
    207000   1.0241115      0.0023323615   0.00037861658  20.794167      19.273362      1.5208056     -1.3221454      18761.075    
    208000   1.0163138      0.0023323615   0.0015854592   20.588538      19.079312      1.5092261     -1.4375229      18397.632    
    209000   1.1753719      0.0023323615   0.00014705498  21.172964      19.427536      1.7454273     -1.0800359      18582.75     
    210000   1.0658952      0.0023323615   0.0042792189   20.567388      18.984534      1.5828543     -1.4387026      18622.045    
    211000   0.95358201     0.0023323615   0.00041819775  20.86394       19.447871      1.4160693     -1.1771272      18652.586    
    212000   1.0771537      0.0023323615  -0.00087606489  20.805467      19.205894      1.5995732     -1.3019521      18720.486    
    213000   0.99446432     0.0023323615   0.0013025936   21.011403      19.534624      1.4767795     -1.1027443      18692.254    
    214000   1.0247119      0.0023323615   0.0028322105   21.116197      19.5945        1.5216972     -1.0392781      18738.681    
    215000   1.0506272      0.0023323615  -0.00056826408  21.041266      19.481084      1.5601813     -1.0884462      18815.223    
    216000   1.038388       0.0023323615  -0.001847278    20.863276      19.32127       1.5420062     -1.2026159      18742.706    
    217000   1.0624668      0.0023323615  -0.0042425024   21.013318      19.435555      1.5777633     -1.1829567      18763.226    
    218000   1.1471931      0.0023323615   0.0020712942   21.190074      19.486492      1.7035817     -0.99747736     18731.76     
    219000   1.1131324      0.0023323615   0.0039923746   20.900408      19.247406      1.6530016     -1.252962       18597.67     
    220000   0.91689727     0.0023323615  -0.0019637436   20.573608      19.212016      1.3615924     -1.3194492      18644.774    
    221000   0.98998593     0.0023323615   0.0065810318   20.920814      19.450685      1.4701291     -1.05932        18559.293    
    222000   1.2581673      0.0023323615   0.00096876327  21.362685      19.494306      1.8683785     -1.0700504      18608.921    
    223000   1.0889441      0.0023323615   0.0042730943   20.860066      19.242984      1.6170819     -1.2804778      18770.432    
    224000   1.0304676      0.0023323615   0.0056496046   20.816409      19.286165      1.5302445     -1.2324203      18662.553    
    225000   1.0331629      0.0023323615   0.0015860698   20.603973      19.069726      1.534247      -1.3258896      18622.392    
    226000   1.1232684      0.0023323615  -0.00011169731  20.94199       19.273936      1.6680535     -1.2296657      18436.706    
    227000   0.98855165     0.0023323615   0.0025030877   20.854398      19.386399      1.4679992     -1.1935265      19036.735    
    228000   1.2300252      0.0023323615   0.00026507251  21.092631      19.266044      1.8265874     -1.2078678      19112.354    
    229000   1.0729296      0.0023323615   0.002685848    20.79776       19.204459      1.5933004     -1.3123575      18768.116    
    230000   1.0179877      0.0023323615   0.0020107916   20.986983      19.475272      1.5117117     -1.226438       18501.936    
    231000   1.0621954      0.0023323615  -0.0027937174   20.805454      19.228094      1.5773601     -1.2690676      18433.025    
    232000   0.99975907     0.0023323615  -0.0022419197   20.613368      19.128726      1.4846422     -1.4299463      18465.414    
    233000   0.88961411     0.0023323615  -0.0013472144   20.510071      19.188994      1.321077      -1.1500405      18604.045    
    234000   0.98612518     0.0023323615   0.00050758305  20.869544      19.405148      1.4643959     -1.0526964      18787.966    
    235000   0.97970542     0.0023323615  -0.0014011028   20.74869       19.293828      1.4548625     -1.1318125      18868.365    
    236000   1.0700181      0.0023323615  -0.0039121089   21.095564      19.506587      1.5889769     -0.97717829     19317.442    
    237000   1.1577752      0.0023323615   0.00032785982  21.088892      19.369596      1.7192961     -1.1101539      19651.406    
    238000   1.1867458      0.0023323615   0.0046353464   21.078867      19.31655       1.7623176     -1.0250582      20107.141    
    239000   0.9812976      0.0023323615   0.001523304    21.011275      19.554048      1.4572269     -0.88929505     20351.396    
    240000   0.99453387     0.0023323615   0.00076355955  21.019268      19.542385      1.4768828     -1.0310739      19853.63     
    241000   0.8418572      0.0023323615   0.0015139054   20.629889      19.379731      1.2501579     -1.1485964      19186.884    
    242000   0.93012743     0.0023323615   0.0019485318   20.657912      19.276673      1.3812392     -1.2067284      18553.614    
    243000   1.0267618      0.0023323615  -0.0021027677   20.738455      19.213714      1.5247413     -1.328111       18383.977    
    244000   1.0332904      0.0023323615  -0.0007988322   21.098234      19.563797      1.5344363     -1.1141054      18387.794    
    245000   1.0299375      0.0023323615   0.00022817809  20.85803       19.328573      1.5294572     -1.2276145      18350.343    
    246000   0.8643802      0.0023323615  -0.00054433052  20.786958      19.503353      1.2836046     -1.130778       18297.859    
    247000   0.90860998     0.0023323615  -0.0063051418   20.674143      19.324857      1.3492858     -1.2546465      18486.605    
    248000   1.067818       0.0023323615  -0.0005027823   21.105083      19.519373      1.5857098     -1.0963528      18481.344    
    249000   0.97005494     0.0023323615   0.00076281067  20.741161      19.30063       1.4405316     -1.1732699      18509.114    
    250000   1.060397       0.0023323615  -0.0014970422   20.789615      19.214925      1.5746895     -1.2371185      18642.483    
    251000   1.1901737      0.0023323615   0.0016839254   21.21242       19.445012      1.767408      -1.0924872      18529.913    
    252000   1.040879       0.0023323615   0.0012332224   20.929812      19.384107      1.5457053     -1.1363075      18382.111    
    253000   1.1178244      0.0023323615  -0.00050078449  21.108197      19.448227      1.6599692     -1.0620604      18541.854    
    254000   1.1358298      0.0023323615   0.0013537356   20.944005      19.257298      1.6867073     -1.2994831      18600.113    
    255000   1.0603604      0.0023323615  -0.0038582128   21.027964      19.453329      1.5746352     -1.1814297      18476.096    
    256000   1.125428       0.0023323615  -0.0018112052   21.033263      19.362003      1.6712606     -1.170605       18725.743    
    257000   1.2231574      0.0023323615  -0.00089848148  21.164319      19.34793       1.8163887     -1.1154481      18756.936    
    258000   1.0216527      0.0023323615   0.0058910294   20.888111      19.370957      1.5171543     -1.125232       18450.341    
    259000   1.0823395      0.0023323615   0.00068190963  20.927545      19.320271      1.6072741     -1.1635729      18612.315    
    260000   1.0640683      0.0023323615  -0.0024864122   20.974948      19.394806      1.5801414     -1.1965945      18628.513    
    261000   0.98145888     0.0023323615  -0.0017506197   20.812232      19.354765      1.4574664     -1.1701717      18742.622    
    262000   0.96258659     0.0023323615  -0.0047639521   21.025697      19.596256      1.4294411     -0.97219755     18637.045    
    263000   1.025123       0.0023323615  -0.0016554101   20.691122      19.168814      1.5223076     -1.278091       18742.098    
    264000   0.94343402     0.0023323615  -0.00065621144  20.869946      19.468947      1.4009995     -1.2015284      18668.63     
    265000   0.9722098      0.0023323615   0.00099877759  20.934618      19.490887      1.4437315     -1.0548507      18835.411    
    266000   1.0138248      0.0023323615   0.0016420267   20.845416      19.339887      1.5055298     -1.274489       18772.006    
    267000   1.0714312      0.0023323615  -0.0011619448   20.893853      19.302778      1.5910753     -1.2676262      18606.951    
    268000   1.003785       0.0023323615  -0.00053673673  20.77209       19.281469      1.4906208     -1.2405918      18440.091    
    269000   0.97488751     0.0023323615  -0.0031880719   20.673382      19.225674      1.447708      -1.3060574      18653.335    
    270000   0.92581549     0.0023323615   0.00093321734  20.673738      19.298902      1.374836      -1.2271231      18722.477    
    271000   1.0879537      0.0023323615   0.005217314    20.873449      19.257838      1.6156112     -1.2240895      18545.527    
    272000   1.096559       0.0023323615   0.0017002838   20.687721      19.059331      1.6283902     -1.3621381      18627.015    
    273000   1.0538497      0.0023323615   0.0015881696   20.85768       19.292713      1.5649668     -1.2568755      18543.766    
    274000   0.99317279     0.0023323615   0.0031356564   20.878504      19.403642      1.4748616     -1.2506633      18628.204    
    275000   0.97543025     0.0023323615  -0.0023134049   20.671645      19.223131      1.4485139     -1.2449188      18533.271    
    276000   1.0868059      0.0023323615  -0.0022448651   20.903737      19.28983       1.6139067     -1.1985054      18477.957    
    277000   0.88905816     0.0023323615  -0.0015682965   20.78468       19.464428      1.3202514     -1.0956341      18694.337    
    278000   1.0778769      0.0023323615  -0.00045996856  21.028112      19.427465      1.6006473     -1.1461436      18611.135    
    279000   0.99860401     0.0023323615  -0.00013798713  20.627514      19.144587      1.4829269     -1.3371099      18626.723    
    280000   0.98262456     0.0023323615  -0.0028312394   21.001317      19.54212       1.4591975     -1.1170644      18637.54     
    281000   0.84654578     0.0023323615   0.0033458467   20.737581      19.480461      1.2571205     -1.0754735      18584.082    
    282000   1.030464       0.0023323615  -0.0028555932   20.813681      19.283442      1.5302391     -1.174367       18569.613    
    283000   1.0573319      0.0023323615   0.00027646802  21.000082      19.429944      1.5701379     -1.0800073      18665.247    
    284000   0.89870505     0.0023323615   0.0030500409   20.503834      19.169257      1.334577      -1.331912       18864.934    
    285000   1.005211       0.0023323615   0.00031163242  21.047718      19.554979      1.4927383     -1.1288278      18673.565    
    286000   0.9693948      0.0023323615  -0.0010891363   20.506913      19.067362      1.4395513     -1.3205498      18611.003    
    287000   1.148673       0.0023323615  -0.00094475772  21.022195      19.316416      1.7057794     -1.1280777      18760.07     
    288000   1.2010562      0.0023323615   0.0010634361   21.197976      19.414408      1.7835684     -1.2342534      18499.594    
    289000   0.92290856     0.0023323615   0.0020275779   20.809221      19.438702      1.3705192     -1.0797994      18608.13     
    290000   0.95798478     0.0023323615  -0.0028248855   20.599012      19.176404      1.4226074     -1.2192088      18739.986    
    291000   0.93305603     0.0023323615  -0.0021261355   20.44711       19.061522      1.3855882     -1.4175073      18572.28     
    292000   1.0692599      0.0023323615   0.0032768322   20.889044      19.301193      1.5878509     -1.3065509      18664.099    
    293000   1.0103204      0.0023323615  -0.0012423123   20.937666      19.43734       1.5003259     -1.1952585      18524.345    
    294000   1.0132872      0.0023323615   0.00093491345  20.723159      19.218428      1.5047315     -1.4229219      18651.467    
    295000   1.0496154      0.0023323615  -0.001264173    20.865368      19.306689      1.5586789     -1.3597275      18865.062    
    296000   1.1081075      0.0023323615  -0.0010947006   21.06091       19.41537       1.6455396     -1.0853746      19028.283    
    297000   1.0563883      0.0023323615  -0.0040751466   20.944742      19.376005      1.5687367     -1.1736881      18819.966    
    298000   0.93478558     0.0023323615  -0.0039119352   20.534873      19.146717      1.3881566     -1.3504642      18662.546    
    299000   1.0544351      0.0023323615  -0.00028504638  20.857956      19.29212       1.5658361     -1.2912037      18712.025    
    300000   1.1364505      0.0023323615   0.0044317701   20.938406      19.250777      1.687629      -1.2309091      18734.967    
    301000   1.0794313      0.0023323615  -0.0020938772   20.862046      19.259091      1.6029555     -1.2030821      18653.167    
    302000   0.96148727     0.0023323615  -0.0006452436   20.77697       19.349161      1.4278086     -1.1691528      18699.408    
    303000   0.85895346     0.0023323615   0.0023955421   20.621834      19.346288      1.2755459     -1.1502516      18748.403    
    304000   1.0515125      0.0023323615   0.0042799272   20.700303      19.138807      1.5614961     -1.3376465      18653.025    
    305000   1.0296692      0.0023323615   0.002032631    20.877011      19.347952      1.5290588     -1.1610468      18624.074    
    306000   0.93014855     0.0023323615  -0.00229156     20.696992      19.315721      1.3812706     -1.2719734      18642.437    
    307000   1.0797378      0.0023323615  -0.0010240224   20.659783      19.056372      1.6034106     -1.5199426      18438.974    
    308000   1.1112716      0.0023323615  -0.00043662563  20.597712      18.947473      1.6502383     -1.4556343      18436.876    
    309000   1.018779       0.0023323615  -0.0013987515   20.8597        19.346813      1.5128869     -1.1937266      18297.778    
    310000   1.0005922      0.0023323615  -0.0045317935   20.394366      18.908487      1.4858794     -1.5267797      18423.6      
    311000   0.95341375     0.0023323615   0.0024865497   20.494486      19.078667      1.4158194     -1.4290027      18542.591    
    312000   0.91835196     0.0023323615   0.0050331178   20.455818      19.092065      1.3637527     -1.3506328      18651.394    
    313000   1.03967        0.0023323615  -0.0013239282   20.922695      19.378785      1.5439099     -1.0875803      18902.736    
    314000   1.0217779      0.0023323615   0.00019582286  20.797744      19.280404      1.5173401     -1.1465552      18911.34     
    315000   1.0049911      0.0023323615   0.0023657932   20.755152      19.262741      1.4924118     -1.327427       19034.615    
    316000   0.83236391     0.0023323615  -0.0019123074   20.705011      19.468951      1.2360604     -1.0599929      19179.149    
    317000   1.0761772      0.0023323615   0.0015395909   20.909097      19.310974      1.5981231     -1.256743       19056.889    
    318000   1.0792553      0.0023323615   0.00086957953  21.20849       19.605796      1.6026941     -1.0402087      18835.227    
    319000   1.0729216      0.0023323615  -0.0024968256   21.130593      19.537304      1.5932886     -1.1246976      18774.442    
    320000   1.0291708      0.0023323615  -0.0044206343   20.970922      19.442603      1.5283186     -1.1626925      18892.228    
    321000   0.9751924      0.0023323615   0.0019536869   20.438197      18.990036      1.4481607     -1.3909967      18648.972    
    322000   0.95100897     0.0023323615   0.0020098528   20.605885      19.193636      1.4122483     -1.328957       18682.818    
    323000   0.93568691     0.0023323615  -0.00060411047  20.575992      19.186497      1.3894951     -1.2006962      18851.263    
    324000   0.96907123     0.0023323615  -0.00016530171  20.421232      18.982161      1.4390708     -1.4780989      18499.45     
    325000   1.0041381      0.0023323615  -0.0011692993   20.655051      19.163906      1.491145      -1.3228759      18514.405    
    326000   1.0952182      0.0023323615   0.0018586124   20.880735      19.254336      1.626399      -1.2815468      18626.386    
    327000   0.94483002     0.0023323615  -0.0035033323   20.770967      19.367895      1.4030726     -1.2160191      18733.827    
    328000   0.9802051      0.0023323615  -0.0032948098   20.951728      19.496124      1.4556046     -1.0822749      18693.034    
    329000   0.88867482     0.0023323615  -1.4652847e-05  20.637739      19.318057      1.3196821     -1.2283395      18628.117    
    330000   0.94992176     0.0023323615  -0.0011072978   20.739982      19.329348      1.4106338     -1.1750315      18654.189    
    331000   1.005583       0.0023323615   0.00050515013  20.733003      19.239712      1.4932907     -1.2228665      18605.879    
    332000   1.0164374      0.0023323615  -0.00031044895  20.816825      19.307416      1.5094096     -1.2446515      18631.858    
    333000   0.94829503     0.0023323615  -0.0012573853   20.546297      19.138079      1.4082181     -1.4355311      18622.691    
    334000   1.1468258      0.0023323615   0.0019354441   20.908929      19.205892      1.7030363     -1.2028276      18560.1      
    335000   0.91578755     0.0023323615  -0.0011487903   20.632636      19.272691      1.3599445     -1.2379254      18524.861    
    336000   1.0042787      0.0023323615   0.0038588084   20.5174        19.026046      1.4913538     -1.5141208      18464.837    
    337000   0.977029       0.0023323615  -0.0060615454   20.775031      19.324142      1.4508881     -1.2849947      18530.209    
    338000   0.96949176     0.0023323615   0.0010475284   20.765659      19.325964      1.4396953     -1.2336205      18670.31     
    339000   0.91437931     0.0023323615   0.00080378411  20.735672      19.377819      1.3578533     -1.1919279      18745.843    
    340000   1.0692031      0.0023323615   0.00036625207  20.708512      19.120746      1.5877666     -1.4178719      18621.892    
    341000   0.95054026     0.0023323615  -0.0012313553   20.622708      19.211156      1.4115523     -1.2822571      18493.969    
    342000   1.0118875      0.0023323615   0.00042588508  20.409476      18.906823      1.502653      -1.5204839      18555.418    
    343000   1.0807048      0.0023323615   0.0045893721   20.662584      19.057737      1.6048467     -1.474826       18442.275    
    344000   0.96801549     0.0023323615   0.0006602982   20.706014      19.268511      1.437503      -1.1980599      18579.63     
    345000   1.0668197      0.0023323615  -0.0010688748   20.932432      19.348204      1.5842273     -1.18246        18586.63     
    346000   0.96516656     0.0023323615  -0.0016643396   20.607718      19.174446      1.4332723     -1.317694       18590.85     
    347000   1.0766151      0.0023323615   0.00083422437  20.623994      19.025221      1.5987734     -1.4205591      18602.162    
    348000   0.86637779     0.0023323615   0.0041459303   20.605259      19.318688      1.286571      -1.2398129      18694.053    
    349000   1.0075186      0.0023323615  -0.0012352275   20.784413      19.288248      1.4961652     -1.1913565      18679.048    
    350000   0.99685799     0.0023323615   0.0019214552   20.695547      19.215212      1.4803341     -1.2852458      18629.153    
    351000   0.99676535     0.0023323615   0.0017757796   20.839395      19.359198      1.4801965     -1.2562995      18397.87     
    352000   1.0080723      0.0023323615  -0.00063995557  20.681208      19.184221      1.4969874     -1.3366583      18529.49     
    353000   1.1513259      0.0023323615  -0.001073966    21.10485       19.395131      1.709719      -1.3447337      18699.713    
    354000   1.0531525      0.0023323615  -0.00026318032  21.036619      19.472687      1.5639315     -1.3309985      18755.512    
    355000   1.033906       0.0023323615   0.0025833026   20.829911      19.294561      1.5353504     -1.3493364      18592.657    
    356000   0.97098301     0.0023323615  -8.4659216e-05  20.42033       18.97842       1.4419098     -1.5785509      18453.766    
    357000   0.85907792     0.0023323615  -0.0043400371   20.33959       19.06386       1.2757307     -1.4191959      18514.013    
    358000   1.0438606      0.0023323615   0.0011615671   20.551653      19.00152       1.550133      -1.4612133      18466.255    
    359000   0.93208845     0.0023323615  -0.00089243851  20.891505      19.507353      1.3841514     -1.1911497      18601.867    
    360000   0.90874399     0.0023323615   0.0017710504   20.618356      19.268871      1.3494848     -1.2172612      18613.797    
    361000   0.96291882     0.0023323615  -0.0010658719   20.873022      19.443087      1.4299344     -1.0809325      18615.366    
    362000   1.0100326      0.0023323615   0.0025894084   20.662695      19.162797      1.4998984     -1.3259929      18642.228    
    363000   1.1998265      0.0023323615   0.0015544502   21.066411      19.284669      1.7817424     -1.0749579      18573.404    
    364000   0.9630868      0.0023323615  -0.0043724198   20.910819      19.480635      1.4301839     -1.0606508      18596.991    
    365000   1.0044241      0.0023323615   0.00086829794  20.961473      19.469903      1.4915698     -1.0749496      18774.859    
    366000   1.0084201      0.0023323615  -0.00146212     20.835539      19.338035      1.4975038     -1.1962721      18703.104    
    367000   0.91366569     0.0023323615   0.00087064042  20.584437      19.227643      1.3567936     -1.3022174      18531.055    
    368000   1.0798498      0.0023323615   0.0043018698   20.77741       19.173834      1.6035769     -1.2858253      18523.012    
    369000   1.119649       0.0023323615  -0.0042056237   20.79053       19.127851      1.6626788     -1.3838785      18551.993    
    370000   1.0636487      0.0023323615  -0.00041005379  20.814682      19.235164      1.5795184     -1.2390678      18438.851    
    371000   1.0553664      0.0023323615   0.0017749928   21.169942      19.602722      1.5672191     -1.0103664      18561.47     
    372000   1.0075671      0.0023323615   0.0022647962   20.699665      19.203428      1.4962372     -1.2879934      18668.861    
    373000   0.96343098     0.0023323615  -0.002426957    20.787426      19.356731      1.430695      -1.1858012      18587.952    
    374000   1.0462762      0.0023323615   5.6298509e-05  20.719339      19.165618      1.5537202     -1.3997249      18535.629    
    375000   0.95179928     0.0023323615   0.0012363793   20.86873       19.455309      1.4134219     -1.1452606      18574.022    
    376000   0.96443091     0.0023323615   0.00046549284  20.664524      19.232344      1.4321799     -1.3252834      18643.057    
    377000   1.0097206      0.0023323615   0.0036629996   20.44985       18.950415      1.499435      -1.4539729      18637.268    
    378000   0.93079784     0.0023323615  -0.0016878557   20.603082      19.220847      1.3822348     -1.2343214      18604.145    
    379000   1.1712544      0.0023323615  -0.00032771965  20.896754      19.157441      1.7393128     -1.354717       18582.709    
    380000   1.0226473      0.0023323615   0.0025725663   20.794986      19.276355      1.5186313     -1.1931088      18600.016    
    381000   1.0519382      0.0023323615   0.0036597977   20.78147       19.219342      1.5621283     -1.3823065      18446.815    
    382000   1.1091933      0.0023323615   0.00046085593  20.866372      19.219221      1.647152      -1.38477        18376.561    
    383000   1.0953128      0.0023323615   0.0015770028   20.616736      18.990196      1.6265396     -1.4759743      18540.004    
    384000   0.98180192     0.0023323615   0.0018062803   20.802164      19.344188      1.4579758     -1.2207487      18502.033    
    385000   1.0910963      0.0023323615   0.00063952628  20.769905      19.149627      1.620278      -1.3214021      18560.504    
    386000   0.94054691     0.0023323615   0.0016037804   20.671444      19.274732      1.3967122     -1.2321761      18623.018    
    387000   1.1045912      0.0023323615  -0.0024145186   20.746389      19.106071      1.6403179     -1.3487645      18565.631    
    388000   1.1465741      0.0023323615  -0.00094758454  20.761422      19.05876       1.7026625     -1.3810309      18705.874    
    389000   1.1379932      0.0023323615  -0.00048402973  21.081192      19.391273      1.6899198     -1.1769998      18772.475    
    390000   0.98715521     0.0023323615   3.5940603e-05  20.697212      19.231287      1.4659255     -1.3370396      18641.567    
    391000   0.88989367     0.0023323615   0.0016453478   20.451465      19.129973      1.3214921     -1.3397453      18564.522    
    392000   1.0075541      0.0023323615   0.0014485792   20.653723      19.157505      1.4962179     -1.3467216      18508.4      
    393000   1.0032358      0.0023323615  -0.0013870731   20.78601       19.296204      1.4898052     -1.1283832      18725.687    
    394000   0.92835126     0.0023323615   0.0013229346   20.784897      19.406295      1.3786016     -1.1382444      18664.979    
    395000   0.84627119     0.0023323615  -0.0021288737   20.440162      19.183449      1.2567127     -1.3514074      18529.734    
    396000   0.90575353     0.0023323615   0.0014301821   20.541037      19.195993      1.345044      -1.3988009      18542.798    
    397000   1.0138734      0.0023323615  -0.0048543257   20.810653      19.305051      1.5056021     -1.2683747      18554.942    
    398000   1.1665962      0.0023323615   0.0014830799   21.270004      19.537609      1.7323953     -1.0218139      18565.154    
    399000   1.0701028      0.0023323615   0.0012014856   20.989633      19.40053       1.5891027     -1.0882889      19204.5      
    400000   0.91403194     0.0023323615   0.0009800067   20.706847      19.34951       1.3573374     -1.0997724      19937.876    
    401000   0.98599031     0.0023323615   0.0013168413   20.920317      19.456121      1.4641956     -1.0577441      19019.515    
    402000   0.88062361     0.0023323615   0.00036497563  20.438493      19.130767      1.3077261     -1.2890725      18701.121    
    403000   0.96938882     0.0023323615  -0.00062285369  20.57779       19.138247      1.4395424     -1.3175641      18586.668    
    404000   1.0458687      0.0023323615   0.0016943229   21.031009      19.477894      1.553115      -1.0081555      18302.496    
    405000   1.0052482      0.0023323615   0.0026863444   21.113442      19.620649      1.4927936     -0.92243351     18705.222    
    406000   1.1016009      0.0023323615   0.0020522705   20.898186      19.262308      1.6358774     -1.3408699      18716.456    
    407000   0.92638013     0.0023323615  -0.00085113505  20.668875      19.2932        1.3756745     -1.1835154      18560.656    
    408000   0.91711618     0.0023323615   5.1181216e-05  20.537078      19.175161      1.3619175     -1.3061079      18623.966    
    409000   1.0303003      0.0023323615   0.001652591    20.845187      19.315191      1.5299959     -1.2201317      18624.446    
    410000   1.00325        0.0023323615   0.00085439659  20.664271      19.174445      1.4898263     -1.256491       18634.415    
    411000   1.0310337      0.0023323615  -0.00019183677  20.542042      19.010956      1.5310851     -1.4562902      18571.887    
    412000   1.0413317      0.0023323615  -0.0010122059   20.838027      19.29165       1.5463776     -1.1270548      18659.183    
    413000   1.0707714      0.0023323615   0.0020235582   21.129675      19.539579      1.5900956     -1.1023292      18749.501    
    414000   1.0577686      0.0023323615  -0.0010339149   20.859744      19.288957      1.5707864     -1.1375603      18640.616    
    415000   1.0625628      0.0023323615  -0.0024608805   21.15529       19.577385      1.5779058     -0.99893739     18770.495    
    416000   1.0397976      0.0023323615  -0.0032830132   21.048711      19.504611      1.5440995     -1.1054485      18604.052    
    417000   0.97412456     0.0023323615   0.0046760689   20.434195      18.98762       1.446575      -1.4349111      18601.098    
    418000   1.0516964      0.0023323615  -0.0015688998   20.722189      19.16042       1.5617692     -1.3555445      18641.487    
    419000   1.1095757      0.0023323615  -0.0033735554   20.690268      19.042548      1.64772       -1.458278       18566.736    
    420000   1.1380645      0.0023323615   0.0025356287   20.863556      19.173531      1.6900257     -1.3622428      18562.23     
    421000   0.93612079     0.0023323615  -0.00095772024  20.256741      18.866602      1.3901394     -1.6085133      18564.777    
    422000   1.1668654      0.0023323615  -0.0057731748   20.775559      19.042764      1.7327952     -1.4727552      18516.981    
    423000   0.98157727     0.0023323615  -0.0024484717   20.740328      19.282686      1.4576422     -1.1303724      18457.854    
    424000   0.92036642     0.0023323615  -0.005042765    20.824939      19.458195      1.3667441     -1.0727543      18546.478    
    425000   1.2361641      0.0023323615  -0.0020929787   21.147977      19.312273      1.8357037     -1.1794434      18645.631    
    426000   1.1365527      0.0023323615  -0.0033572154   21.157029      19.469248      1.6877808     -1.1117696      18665.893    
    427000   0.90497461     0.0023323615   0.001322574    20.667186      19.323299      1.3438873     -1.1836922      18461.825    
    428000   0.90050501     0.0023323615  -0.0027993517   20.431221      19.093971      1.3372499     -1.5159782      18380.876    
    429000   1.0070687      0.0023323615   0.0018049464   20.685344      19.189847      1.495497      -1.3378296      18502.31     
    430000   0.89808661     0.0023323615   0.0011518492   20.28848       18.954822      1.3336586     -1.5298536      18304.734    
    431000   0.92923711     0.0023323615   0.002384011    20.676942      19.297025      1.3799171     -1.221101       18327.677    
    432000   1.146749       0.0023323615   0.0025693556   20.861842      19.15892       1.7029222     -1.3305472      18578.565    
    433000   1.0365383      0.0023323615   0.0021863237   20.78623       19.24697       1.5392593     -1.2810912      18726.777    
    434000   1.0567751      0.0023323615  -0.0019801573   20.740586      19.171275      1.5693111     -1.3143902      18565.648    
    435000   1.0205845      0.0023323615  -0.0026852367   20.84631       19.330742      1.5155679     -1.15468        18483.664    
    436000   1.0523044      0.0023323615  -0.00098710537  20.7177        19.155028      1.562672      -1.3110166      18632.376    
    437000   0.92899717     0.0023323615   0.0019399195   20.766926      19.387366      1.3795608     -1.0367628      18734.762    
    438000   1.0516333      0.0023323615   0.0020350891   20.900897      19.339222      1.5616754     -1.1856777      18568.667    
    439000   0.89419505     0.0023323615   0.00039397529  20.655984      19.328104      1.3278797     -1.3245387      18608.62     
    440000   0.91478722     0.0023323615   0.0014606984   20.742711      19.384252      1.358459      -1.2224056      18606.608    
    441000   1.001636       0.0023323615   0.0019271567   20.855968      19.368538      1.4874295     -1.1161499      18719.84     
    442000   0.86745761     0.0023323615  -0.0021352431   20.796813      19.508638      1.2881745     -1.1517723      18573.663    
    443000   1.0923355      0.0023323615  -4.0033973e-05  20.771834      19.149716      1.6221182     -1.2922371      18589.409    
    444000   0.98909914     0.0023323615   0.0014158588   20.54936       19.080548      1.4688122     -1.396048       18593.454    
    445000   0.86480051     0.0023323615   0.00090407975  20.285492      19.001263      1.2842288     -1.5488924      18433.777    
    446000   1.1908269      0.0023323615   0.0001247474   20.914615      19.146237      1.768378      -1.3716956      18435.98     
    447000   0.99881072     0.0023323615  -0.001008373    20.756763      19.273529      1.4832339     -1.2750985      18577.58     
    448000   0.90818531     0.0023323615  -0.0040187407   20.675902      19.327246      1.3486552     -1.235872       18615.717    
    449000   0.99390017     0.0023323615   0.00055419981  20.651233      19.175291      1.4759418     -1.3333291      18643.847    
    450000   0.96994227     0.0023323615   0.00018231906  20.471366      19.031002      1.4403643     -1.4469712      18581.996    
    451000   1.0940097      0.0023323615  -7.653462e-05   20.81225       19.187646      1.6246044     -1.2358842      18544.892    
    452000   1.1298326      0.0023323615   0.001999141    20.810955      19.133154      1.6778014     -1.2822603      18719.447    
    453000   1.0693996      0.0023323615   0.0023917052   20.769109      19.181051      1.5880584     -1.3655939      18612.423    
    454000   1.0386642      0.0023323615  -0.00046935151  20.559174      19.016758      1.5424164     -1.4993592      18488.66     
    455000   0.95443016     0.0023323615  -0.00013745738  20.612197      19.194868      1.4173288     -1.3281157      18625.996    
    456000   1.0236382      0.0023323615  -0.00082849574  20.67149       19.151387      1.5201027     -1.3427032      18497.009    
    457000   1.0052494      0.0023323615   0.0044713213   20.722322      19.229527      1.4927954     -1.3231964      18501.834    
    458000   0.97522893     0.0023323615  -0.00072607015  20.652486      19.204271      1.448215      -1.3102852      18650.843    
    459000   1.0104051      0.0023323615   0.0012793186   20.947053      19.446601      1.5004515     -1.1903067      18548.966    
    460000   0.94399285     0.0023323615   0.0019883449   20.816405      19.414576      1.4018294     -1.1579382      18699.531    
    461000   0.95855936     0.0023323615  -0.00066946389  20.587377      19.163917      1.4234606     -1.3041821      18547.835    
    462000   0.98240772     0.0023323615   0.00041448269  20.853811      19.394936      1.4588755     -1.0518638      18514.673    
    463000   1.021235       0.0023323615  -0.00063065007  20.637387      19.120853      1.5165339     -1.396135       18607.041    
    464000   0.96395185     0.0023323615   0.0002844127   20.514879      19.08341       1.4314685     -1.3743588      18528.3      
    465000   1.0438224      0.0023323615  -0.0013612061   20.741043      19.190967      1.5500763     -1.3154268      18622.254    
    466000   1.0088946      0.0023323615  -0.0032636143   20.884184      19.385975      1.4982085     -1.363686       18567.226    
    467000   0.99784564     0.0023323615   0.0026025934   20.805928      19.324127      1.4818008     -1.2090198      18521.138    
    468000   1.0780049      0.0023323615   0.0017100908   20.733509      19.132671      1.6008372     -1.3694349      18559.911    
    469000   0.83791129     0.0023323615  -0.0004120493   20.69263       19.448332      1.2442983     -1.1884671      18585.072    
    470000   0.98177344     0.0023323615  -0.00075313384  20.824903      19.366969      1.4579336     -1.2830382      18695.328    
    471000   0.95842687     0.0023323615   0.0019437917   20.724875      19.301611      1.4232639     -1.2761705      18468.565    
    472000   1.1091765      0.0023323615  -0.0023257871   20.831885      19.184758      1.6471271     -1.2657793      18505.137    
    473000   1.1265728      0.0023323615  -0.00023999953  20.789433      19.116473      1.6729606     -1.4223886      18542.261    
    474000   0.87447626     0.0023323615   0.0041415428   20.509297      19.210699      1.2985972     -1.3328122      18442.46     
    475000   0.99205025     0.0023323615   0.0017542775   20.475212      19.002017      1.4731946     -1.4170605      18459.346    
    476000   1.0037363      0.0023323615  -0.00046872769  20.665707      19.175159      1.4905484     -1.3151438      18393.008    
    477000   1.1668193      0.0023323615  -0.00059564248  21.026328      19.293602      1.7327267     -1.290062       18438.981    
    478000   1.0350094      0.0023323615   0.00012002277  21.046353      19.509364      1.536989      -1.0216667      18496.108    
    479000   0.97756454     0.0023323615   0.0019824865   20.574875      19.123191      1.4516833     -1.3944886      18633.726    
    480000   1.1401615      0.0023323615  -2.5663352e-05  20.777572      19.084432      1.6931399     -1.3635344      18588.392    
    481000   1.0180369      0.0023323615   0.003673053    20.842308      19.330523      1.5117847     -1.1305752      18560.48     
    482000   0.98073739     0.0023323615  -0.0023933616   20.754253      19.297858      1.456395      -1.1732042      18610.098    
    483000   1.1097184      0.0023323615   0.0029999947   21.026095      19.378163      1.6479319     -1.1629962      18593.655    
    484000   1.0252944      0.0023323615  -0.0023514482   20.649976      19.127414      1.5225621     -1.4002769      18717.348    
    485000   1.0438605      0.0023323615  -0.0036595202   20.757388      19.207255      1.5501328     -1.3268187      18586.245    
    486000   1.1097017      0.0023323615   0.0016186278   20.832089      19.184182      1.6479071     -1.2558016      18647.498    
    487000   1.0012906      0.0023323615  -0.001721161    20.944493      19.457577      1.4869165     -1.0355224      18728.108    
    488000   0.97323667     0.0023323615   0.00047815802  20.721341      19.276085      1.4452565     -1.2628012      18745.36     
    489000   1.0469209      0.0023323615   0.0033718671   20.9516        19.396923      1.5546776     -1.118874       18662.784    
    490000   1.1090688      0.0023323615  -0.0011938863   21.084618      19.437651      1.6469671     -1.188553       18773.312    
    491000   1.1299123      0.0023323615   0.00017631093  20.902029      19.224109      1.6779197     -1.2381651      18640.181    
    492000   1.0641183      0.0023323615   0.0016251664   21.01054       19.430324      1.5802157     -1.0884701      18664.197    
    493000   1.0112098      0.0023323615   0.00019524043  20.668625      19.166978      1.5016466     -1.3528002      18736.057    
    494000   0.92552578     0.0023323615  -0.00074398581  20.610147      19.235741      1.3744058     -1.2665004      18705.421    
    495000   0.85841454     0.0023323615  -0.0011976662   20.313967      19.039222      1.2747456     -1.4297231      18742.432    
    496000   1.132118       0.0023323615  -0.0026734152   20.715924      19.034729      1.6811952     -1.4506144      18712.996    
    497000   1.0446558      0.0023323615   0.00051273229  20.954991      19.403677      1.5513139     -1.135832       18546.216    
    498000   0.88302128     0.0023323615  -0.0017637291   20.559097      19.24781       1.3112866     -1.2313233      18732.709    
    499000   0.96606364     0.0023323615  -0.0047028499   20.797583      19.362979      1.4346045     -1.1871765      18650.874    
    500000   0.86405707     0.0023323615   0.0020199102   20.562915      19.27979       1.2831248     -1.2940181      18673.911    
    501000   0.95488761     0.0023323615  -0.0027853593   21.028971      19.610963      1.4180081     -0.9517571      18841.371    
    502000   0.95890258     0.0023323615  -0.0042288548   20.750907      19.326937      1.4239703     -1.230899       18699.198    
    503000   0.95640475     0.0023323615  -0.00019755826  20.687783      19.267522      1.420261      -1.164111       18637.366    
    504000   1.1426513      0.0023323615  -0.0014232856   20.812886      19.116049      1.6968372     -1.3868414      18484.534    
    505000   0.94199545     0.0023323615   0.0026704757   20.526929      19.128066      1.3988632     -1.354121       18679.569    
    506000   1.0859954      0.0023323615   0.0034247315   20.861216      19.248513      1.6127032     -1.29861        18698.819    
    507000   0.98272593     0.0023323615  -0.0015120686   21.102502      19.643154      1.459348      -1.0103467      18859.666    
    508000   1.011655       0.0023323615  -0.0026026887   20.604445      19.102137      1.5023077     -1.2537974      18845.803    
    509000   1.0026785      0.0023323615  -0.0038921118   20.8135        19.324522      1.4889775     -1.2709638      18655.117    
    510000   0.92651429     0.0023323615  -0.00088703403  20.862603      19.486729      1.3758737     -0.98226654     18695.538    
    511000   0.83552551     0.0023323615  -0.0031300434   20.783131      19.542376      1.2407554     -1.0068888      19643.676    
    512000   0.98462046     0.0023323615   0.0016550123   20.735129      19.272968      1.4621614     -1.1672298      19588.962    
    513000   0.86677406     0.0023323615   0.00030407195  20.757708      19.470548      1.2871595     -1.0465842      18963.286    
    514000   1.0546816      0.0023323615   0.0014447946   20.933592      19.36739       1.5662022     -1.1049131      18745.361    
    515000   0.95960596     0.0023323615  -0.0022643881   20.376894      18.951879      1.4250149     -1.542365       18695.632    
    516000   1.0307464      0.0023323615   0.0027607071   20.882092      19.351434      1.5306583     -1.2527634      18737.872    
    517000   1.1580304      0.0023323615  -3.3934711e-05  20.868887      19.149211      1.7196752     -1.4310964      18535.264    
    518000   1.0703264      0.0023323615  -0.00089655881  20.493299      18.903864      1.5894347     -1.5254597      18601.226    
    519000   0.81821209     0.0023323615   0.0040128449   20.353529      19.138484      1.215045      -1.4110603      18455.073    
    520000   1.0364832      0.0023323615   0.00052231913  20.682231      19.143053      1.5391775     -1.3131075      18637.421    
    521000   0.90196778     0.0023323615  -0.0002187309   20.744417      19.404995      1.3394222     -1.246372       18484.619    
    522000   1.1010893      0.0023323615   0.001152467    20.846563      19.211446      1.6351176     -1.3405595      18541.93     
    523000   1.093643       0.0023323615   0.0017367936   21.002793      19.378733      1.6240599     -1.1682671      18748.557    
    524000   1.0365465      0.0023323615  -0.00085074564  20.881572      19.3423        1.5392716     -1.1885836      18640.411    
    525000   0.95597834     0.0023323615  -0.0026129142   20.760485      19.340857      1.4196278     -1.1972492      18658.726    
    526000   1.0379662      0.0023323615   0.00051710886  20.735951      19.194571      1.5413798     -1.2915169      18592.069    
    527000   0.9799225      0.0023323615   0.0017158412   20.678908      19.223723      1.4551849     -1.2771686      18405.965    
    528000   1.0502999      0.0023323615  -0.00098736312  20.786222      19.226527      1.5596954     -1.3084811      18488.601    
    529000   0.94204448     0.0023323615   0.0036501516   20.951916      19.55298       1.3989361     -1.0503088      18590.472    
    530000   1.0126663      0.0023323615  -0.0021739276   21.12411       19.6203        1.5038094     -1.0499234      18634.954    
    531000   0.89653182     0.0023323615  -0.0028775381   20.654486      19.323136      1.3313497     -1.176267       18594.93     
    532000   0.95010597     0.0023323615  -0.0040120042   20.779579      19.368672      1.4109074     -1.1513286      18515.28     
    533000   1.0009532      0.0023323615   0.0018532977   21.049226      19.562811      1.4864155     -1.0472776      18829.037    
    534000   1.0173418      0.0023323615  -0.0057914845   20.802549      19.291796      1.5107526     -1.3413106      18775.672    
    535000   0.92098974     0.0023323615   0.0026800917   20.499485      19.131815      1.3676698     -1.4145925      18688.921    
    536000   0.98434803     0.0023323615   0.0027529869   20.695435      19.233678      1.4617568     -1.2044789      18482.877    
    537000   1.0326734      0.0023323615  -0.0036175614   20.529487      18.995967      1.53352       -1.4016405      18631.674    
    538000   0.86393015     0.0023323615   0.0018436981   20.594312      19.311375      1.2829363     -1.1862844      18839.5      
    539000   1.170129       0.0023323615   0.0068289679   20.911503      19.173861      1.7376416     -1.28715        18798.342    
    540000   1.0286197      0.0023323615   0.0027642072   20.478263      18.950762      1.5275003     -1.5605759      18491.019    
    541000   1.1239022      0.0023323615   0.0013478478   20.704123      19.035128      1.6689947     -1.3592214      18573.774    
    542000   1.1163424      0.0023323615  -0.00041218812  20.821303      19.163534      1.6577685     -1.2640448      18608.88     
    543000   0.98667876     0.0023323615   0.003864927    20.632344      19.167126      1.465218      -1.3418603      18695.152    
    544000   0.97502219     0.0023323615   0.0027558949   20.51882       19.070912      1.447908      -1.394601       18726.035    
    545000   0.99929846     0.0023323615  -3.9168224e-06  20.723664      19.239706      1.4839582     -1.2852092      18746.878    
    546000   0.82740017     0.0023323615  -0.0008138482   20.607012      19.378323      1.2286893     -1.1460378      18719.527    
    547000   0.98530014     0.0023323615   0.0012961486   20.724316      19.261145      1.4631707     -1.2004981      18729.76     
    548000   1.0470593      0.0023323615  -0.00020811914  20.771123      19.21624       1.5548831     -1.2897741      18603.618    
    549000   0.93644859     0.0023323615  -0.00063657968  20.427643      19.037017      1.3906262     -1.3605259      18555.88     
    550000   1.159822       0.0023323615  -0.0019795235   21.126744      19.404408      1.7223356     -1.0165973      18594.219    
    551000   1.0482903      0.0023323615   0.0017450388   20.824537      19.267826      1.5567111     -1.1663737      18621.948    
    552000   1.1252805      0.0023323615   0.00088316687  21.011038      19.339997      1.6710416     -1.1291739      18808.859    
    553000   1.0170022      0.0023323615  -0.002085014    20.736608      19.226359      1.5102483     -1.2460364      19226.348    
    554000   1.0612604      0.0023323615   0.0012904777   21.010172      19.434201      1.5759717     -1.1065754      19546.998    
    555000   1.0310565      0.0023323615   0.0024832418   20.862134      19.331015      1.5311189     -1.0740861      19642.419    
    556000   1.0573198      0.0023323615  -0.0055328825   20.820504      19.250384      1.57012       -1.3463982      18682.272    
    557000   0.99587838     0.0023323615   0.0013209019   20.489413      19.010534      1.4788794     -1.3751925      18641.396    
    558000   0.93528959     0.0023323615   0.00087989701  20.869243      19.480338      1.388905      -1.1788472      18688.201    
    559000   0.96308923     0.0023323615  -0.0010987066   20.694367      19.264179      1.4301875     -1.358925       18619.127    
    560000   1.0608994      0.0023323615   0.00034645917  20.695887      19.120452      1.5754356     -1.500047       18626.674    
    561000   1.0485172      0.0023323615  -0.0008333697   21.002687      19.445638      1.5570481     -1.1504876      18702.316    
    562000   0.89214234     0.0023323615   0.0043162504   20.727503      19.402672      1.3248314     -1.162388       18618.87     
    563000   1.0834197      0.0023323615   0.0011367249   20.749702      19.140824      1.6088782     -1.3675711      18608.516    
    564000   0.94461176     0.0023323615  -0.0047585487   20.680174      19.277426      1.4027485     -1.273136       18433.954    
    565000   0.94904657     0.0023323615  -6.7418258e-05  20.558469      19.149135      1.4093342     -1.314773       18376.815    
    566000   1.0664445      0.0023323615   0.00060952588  20.862626      19.278956      1.58367       -1.2655685      18541.782    
    567000   1.054317       0.0023323615  -0.0015950399   20.681105      19.115444      1.5656608     -1.315961       18535.467    
    568000   1.0375708      0.0023323615   0.0036678217   20.754485      19.213692      1.5407926     -1.3610009      18559.206    
    569000   1.0381437      0.0023323615  -0.00050820514  20.803964      19.26232       1.5416435     -1.2314711      18593.838    
    570000   0.98728752     0.0023323615  -0.0019018458   20.593654      19.127532      1.466122      -1.4309851      18417.852    
    571000   1.2389267      0.0023323615  -0.001043635    20.88236       19.042554      1.8398061     -1.3531576      18501.83     
    572000   0.85548586     0.0023323615  -0.0028940713   20.533734      19.263337      1.2703965     -1.1994635      18727.827    
    573000   1.0489317      0.0023323615  -0.00072159302  20.810919      19.253256      1.5576636     -1.2472926      18560.593    
    574000   0.96544229     0.0023323615  -0.0027471791   20.588836      19.155154      1.4336818     -1.3220054      18550.797    
    575000   0.9796301      0.0023323615  -0.0024639425   20.703188      19.248437      1.4547507     -1.3260324      18624.269    
    576000   0.89214494     0.0023323615   0.0042673793   20.3183        18.993465      1.3248352     -1.4933058      18428.88     
    577000   0.86195755     0.0023323615   0.00071466372  20.338071      19.058064      1.280007      -1.4855382      18412.212    
    578000   0.89038614     0.0023323615  -0.00050899155  20.701114      19.378891      1.3222234     -1.1474278      18508.479    
    579000   0.99676567     0.0023323615  -0.0022506473   20.61673       19.136533      1.480197      -1.4049391      18504.029    
    580000   0.95287925     0.0023323615  -0.00025356765  20.574989      19.159964      1.4150257     -1.3424906      18359.764    
    581000   1.0228719      0.0023323615  -0.0027911388   20.794122      19.275157      1.5189647     -1.3272612      18506.629    
    582000   1.0973501      0.0023323615  -0.0011630622   20.763565      19.134         1.6295649     -1.4514361      18667.007    
    583000   0.81181823     0.0023323615  -0.0041570028   20.345674      19.140124      1.2055501     -1.5126305      18484.202    
    584000   1.0181076      0.0023323615  -0.00097093397  20.692778      19.180888      1.5118898     -1.4007247      18375.353    
    585000   0.94130663     0.0023323615  -0.00066921666  20.541696      19.143855      1.3978404     -1.4220624      18374.649    
    586000   1.0232652      0.0023323615   0.0043917617   20.822782      19.303233      1.5195489     -1.1705877      18490.293    
    587000   0.87136113     0.0023323615   1.7731257e-05  20.620781      19.32681       1.2939713     -1.2953816      18370.811    
    588000   0.82702191     0.0023323615  -0.00059569797  20.343049      19.114922      1.2281275     -1.4336966      18527.168    
    589000   0.93002676     0.0023323615  -0.0016794392   20.404076      19.022987      1.3810897     -1.5296408      18514.724    
    590000   0.99889076     0.0023323615  -0.0014888032   20.678514      19.195162      1.4833528     -1.3135314      18547.181    
    591000   1.0430168      0.0023323615  -0.0014009466   20.510879      18.961999      1.54888       -1.4463764      18466.993    
    592000   1.0140749      0.0023323615   0.0074843005   20.948595      19.442693      1.5059013     -1.0963485      18500.664    
    593000   1.0105739      0.0023323615   0.0014060903   20.715295      19.214593      1.5007023     -1.2991029      18484.277    
    594000   0.96580658     0.0023323615  -0.00069102138  20.675149      19.240927      1.4342228     -1.1934211      18554.556    
    595000   1.0328667      0.0023323615  -0.0015489843   20.657157      19.12335       1.5338071     -1.3529442      18664.905    
    596000   0.95036803     0.0023323615   0.00034000535  20.892953      19.481656      1.4112965     -1.1214152      18772.091    
    597000   1.0179043      0.0023323615   0.0020825212   21.035527      19.523939      1.5115879     -1.1155209      18801.843    
    598000   1.1012253      0.0023323615   0.00020252181  21.083402      19.448082      1.6353195     -1.0321169      18744.473    
    599000   0.86031516     0.0023323615   0.00083481033  20.626807      19.349239      1.277568      -1.2283152      18799.804    
    600000   0.96460216     0.0023323615   0.0028127616   20.735807      19.303372      1.4324342     -1.1656647      18755.642    
    601000   0.91335975     0.0023323615   0.00010676588  20.982583      19.626244      1.3563392     -0.99432226     18769.079    
    602000   0.92974675     0.0023323615  -0.0020275511   20.704848      19.324174      1.3806739     -1.2121634      18584.266    
    603000   0.99252839     0.0023323615  -0.0011863264   20.654762      19.180857      1.4739047     -1.2947836      18486.17     
    604000   0.96033684     0.0023323615   0.0028490845   20.472626      19.046526      1.4261002     -1.4355402      18514.147    
    605000   1.1580561      0.0023323615   0.0036080874   20.651921      18.932208      1.7197134     -1.52935        18477.796    
    606000   0.90346477     0.0023323615  -0.0020596894   20.669478      19.327833      1.3416452     -1.1365324      18694.978    
    607000   0.97951154     0.0023323615   0.0038285802   20.785605      19.331031      1.4545746     -1.1566055      18708.321    
    608000   1.0339375      0.0023323615   0.0024998724   20.784001      19.248604      1.5353971     -1.1252019      18644.676    
    609000   0.9967895      0.0023323615  -0.0039567758   20.794082      19.31385       1.4802324     -1.1925944      18547.136    
    610000   0.92120901     0.0023323615   0.00025357448  20.817376      19.449381      1.3679954     -1.0787799      18600.873    
    611000   0.92538675     0.0023323615   0.0017260025   20.400581      19.026381      1.3741993     -1.3836629      18610.344    
    612000   0.97273074     0.0023323615   0.0045525351   20.589448      19.144943      1.4445052     -1.2827288      18565.23     
    613000   1.0240339      0.0023323615  -0.00025015901  20.572993      19.052303      1.5206903     -1.3985134      18468.643    
    614000   0.92758162     0.0023323615  -0.002553342    20.728579      19.351121      1.3774587     -1.2110908      18491.975    
    615000   1.0518672      0.0023323615   0.00017310966  20.869593      19.30757       1.5620227     -1.1099707      18681.317    
    616000   1.0328271      0.0023323615   0.0019899041   20.699662      19.165914      1.5337482     -1.4789739      18681.94     
    617000   0.92484836     0.0023323615  -0.0011218169   20.354021      18.980622      1.3733998     -1.568609       18512.251    
    618000   1.0762117      0.0023323615   0.0076471707   20.78937       19.191196      1.5981744     -1.3515456      18650.355    
    619000   1.0442618      0.0023323615  -0.0042255125   20.877887      19.327158      1.5507288     -1.2382586      18656.313    
    620000   0.9545044      0.0023323615  -0.00082622764  20.555427      19.137988      1.417439      -1.2615248      18595.213    
    621000   0.91918606     0.0023323615   0.0024211714   20.232962      18.867971      1.3649913     -1.6045865      18557.719    
    622000   0.98886963     0.0023323615  -0.00013767179  20.755973      19.287502      1.4684714     -1.2034128      18632.3      
    623000   0.99397327     0.0023323615   0.0056522009   20.954673      19.478623      1.4760503     -1.1060605      18708.896    
    624000   0.89134991     0.0023323615  -0.00036460098  20.768067      19.444413      1.3236546     -1.0939668      18722.442    
    625000   0.92770982     0.0023323615  -0.0024345823   20.718766      19.341117      1.3776491     -1.1830687      18593.239    
    626000   1.1122195      0.0023323615   0.0022710491   21.184801      19.533155      1.651646      -1.0731967      18609.747    
    627000   1.032904       0.0023323615   0.0020430796   21.014835      19.480972      1.5338624     -1.034538       18735.709    
    628000   0.97355108     0.0023323615  -0.0027733338   20.753825      19.308102      1.4457233     -1.2186496      18641.546    
    629000   0.96364998     0.0023323615   0.00049450639  20.760008      19.328988      1.4310202     -1.2029937      18612.135    
    630000   0.9010703      0.0023323615  -0.0017273573   20.380498      19.042409      1.3380894     -1.4373797      18647.341    
    631000   1.0117335      0.0023323615  -0.0020973171   20.768046      19.265622      1.5024242     -1.2315302      18620.332    
    632000   1.1075194      0.0023323615  -0.0020255259   21.178663      19.533996      1.6446663     -1.1828159      18574.413    
    633000   1.0976008      0.0023323615   0.0030255239   20.830837      19.2009        1.6299372     -1.351815       18473.931    
    634000   0.84831229     0.0023323615  -0.0017639179   20.812138      19.552395      1.2597438     -1.0792527      18632.853    
    635000   0.94019957     0.0023323615   0.0047834844   20.435197      19.039001      1.3961964     -1.4960321      18518.97     
    636000   0.99238821     0.0023323615  -0.00033194567  20.495762      19.022065      1.4736965     -1.4341341      18345.895    
    637000   1.1372413      0.0023323615   0.00087243596  20.728148      19.039344      1.6888033     -1.5351475      18512.471    
    638000   0.98281939     0.0023323615   1.1239396e-05  20.401733      18.942247      1.4594868     -1.5358116      18391.185    
    639000   1.0591686      0.0023323615   0.0039266925   20.674033      19.101168      1.5728654     -1.457856       18433.451    
    640000   0.93147258     0.0023323615  -0.0055468395   20.622287      19.23905       1.3832368     -1.320911       18628.065    
    641000   0.88919128     0.0023323615   0.0032684647   20.509173      19.188724      1.320449      -1.2601484      18665.761    
    642000   0.85402708     0.0023323615  -0.00069680701  20.428596      19.160366      1.2682302     -1.398944       18590.302    
    643000   0.98624279     0.0023323615   0.00097168288  20.652698      19.188128      1.4645705     -1.2960604      18597.622    
    644000   0.88850246     0.0023323615  -0.0026531854   20.644637      19.325211      1.3194262     -1.2304796      18537.143    
    645000   0.88468434     0.0023323615   0.0044545616   20.481404      19.167647      1.3137562     -1.2916557      18526.914    
    646000   0.99256223     0.0023323615   0.00084981858  20.822181      19.348226      1.4739549     -1.2462863      18738.195    
    647000   1.1284956      0.0023323615   0.00017405262  20.945265      19.269449      1.675816      -1.1459247      18851.669    
    648000   1.0294163      0.0023323615  -0.0033420012   20.738497      19.209814      1.5286832     -1.3410029      18529.373    
    649000   0.9625877      0.0023323615  -0.0051243812   20.98299       19.553547      1.4294427     -1.1866082      18484.948    
    650000   1.0092578      0.0023323615  -0.0024532585   20.661558      19.16281       1.4987479     -1.3635266      18544.524    
    651000   0.91040938     0.0023323615  -0.0025867696   20.699258      19.3473        1.3519579     -1.1987589      18612.485    
    652000   1.295828       0.0023323615  -0.00095991303  21.114512      19.190207      1.9243046     -1.3135615      18511.575    
    653000   0.91998128     0.0023323615  -0.0068558976   20.865606      19.499433      1.3661722     -1.2431107      18504.427    
    654000   1.0384309      0.0023323615   0.0010516596   20.984065      19.441995      1.5420699     -1.0265742      18614.332    
    655000   0.88572049     0.0023323615  -0.0021637558   20.600576      19.285282      1.3152949     -1.2466468      18874.448    
    656000   0.90354248     0.0023323615  -0.00026812942  20.670342      19.328582      1.3417606     -1.2660498      18767.682    
    657000   0.98414727     0.0023323615   0.0015211382   20.604781      19.143322      1.4614587     -1.3610174      18720.447    
    658000   1.1336827      0.0023323615   0.0036317067   20.971914      19.288395      1.6835188     -1.2146977      18575.986    
    659000   0.91947141     0.0023323615  -0.00036921606  20.788089      19.422674      1.365415      -1.2640148      18530.711    
    660000   1.0868054      0.0023323615  -0.0010886278   20.750381      19.136475      1.613906      -1.3140854      18485.629    
    661000   1.0825188      0.0023323615   0.0024933741   20.70855       19.10101       1.6075403     -1.3475559      18681.667    
    662000   1.086208       0.0023323615  -0.0010038091   20.661654      19.048636      1.6130188     -1.43551        18543.418    
    663000   0.94479666     0.0023323615  -0.00086634126  20.361393      18.95837       1.403023      -1.4434076      18388.799    
    664000   0.98606829     0.0023323615   0.0038281813   20.476533      19.012222      1.4643114     -1.4874943      18509.629    
    665000   1.0913086      0.0023323615  -0.0049683185   20.778743      19.15815       1.6205933     -1.1745103      18450.369    
    666000   0.95183257     0.0023323615   0.0030601501   20.712277      19.298806      1.4134714     -1.331486       18616.95     
    667000   1.0856789      0.0023323615   0.0021673066   21.095876      19.483642      1.6122332     -1.0948203      18376.987    
    668000   1.0386253      0.0023323615  -0.0018610244   20.802064      19.259706      1.5423585     -1.2695081      18555.508    
    669000   0.97145549     0.0023323615   0.00077461291  20.78651       19.343899      1.4426114     -1.3481178      18418.045    
    670000   0.94737371     0.0023323615  -0.0035632849   20.549504      19.142654      1.40685       -1.4014078      18313.07     
    671000   1.1300478      0.0023323615  -0.0043378554   21.016362      19.338241      1.678121      -1.23693        18296.128    
    672000   1.0045983      0.0023323615   0.00058139624  20.773596      19.281768      1.4918285     -1.1825706      18422.19     
    673000   1.0126483      0.0023323615   0.0027434805   21.09717       19.593387      1.5037827     -0.93970008     18665.718    
    674000   0.97252831     0.0023323615  -0.0013544246   21.037137      19.592932      1.4442045     -1.0118416      18547.808    
    675000   0.91698871     0.0023323615   0.00028860967  20.665059      19.303331      1.3617282     -1.2969865      18329.993    
    676000   1.0015117      0.0023323615   0.0019705531   20.539507      19.052262      1.4872448     -1.4645609      18485.687    
    677000   1.1322577      0.0023323615   0.0031569622   20.993318      19.311916      1.6814026     -1.2346962      18421.601    
    678000   0.94762836     0.0023323615  -0.0019735709   20.512698      19.10547       1.4072281     -1.407827       18476.5      
    679000   0.87862336     0.0023323615   0.004708906    20.434341      19.129585      1.3047557     -1.3652431      18387.773    
    680000   1.0492081      0.0023323615   0.0011326266   20.619703      19.061629      1.558074      -1.4816777      18413.095    
    681000   0.9916772      0.0023323615  -0.0046123938   20.330042      18.857402      1.4726406     -1.6672022      18445.292    
    682000   0.96680854     0.0023323615   0.0050821215   20.48668       19.05097       1.4357107     -1.4464303      18498.072    
    683000   0.98801052     0.0023323615  -0.00080538507  20.638606      19.17141       1.4671956     -1.2836014      18622.316    
    684000   1.0074503      0.0023323615   0.0013957363   20.78883       19.292766      1.4960637     -1.3554057      18380.862    
    685000   0.91052329     0.0023323615  -0.0021483255   20.77888       19.426753      1.3521271     -1.0995123      18574.029    
    686000   1.1342606      0.0023323615  -0.0025351883   20.568346      18.883969      1.684377      -1.4715184      18637.031    
    687000   0.95492289     0.0023323615   0.0024011612   20.688615      19.270554      1.4180605     -1.1821407      18559.893    
    688000   0.89959905     0.0023323615  -0.0018994445   20.810422      19.474518      1.3359046     -1.1209255      18528.135    
    689000   1.2505057      0.0023323615  -0.0014292682   21.144561      19.28756       1.857001      -1.3710025      18459.64     
    690000   0.98516549     0.0023323615  -0.0029194499   20.786235      19.323264      1.4629708     -1.2448783      18537.208    
    691000   1.025596       0.0023323615   0.0044879208   20.579293      19.056283      1.5230101     -1.3787674      18576.384    
    692000   0.97714358     0.0023323615  -0.0050122559   20.557606      19.106548      1.4510582     -1.4240918      18548.17     
    693000   1.192082       0.0023323615   0.00013648117  21.043566      19.273324      1.7702418     -1.2678984      18492.383    
    694000   0.92776533     0.0023323615  -0.0021849878   20.613606      19.235874      1.3777315     -1.2582716      18637.842    
    695000   0.89601879     0.0023323615   0.0015572645   20.669724      19.339137      1.3305879     -1.1695801      18691.456    
    696000   0.81942586     0.0023323615   0.0058496718   20.149288      18.932441      1.2168474     -1.5758695      18645.181    
    697000   1.0499338      0.0023323615  -0.00013136904  20.81618       19.257028      1.5591516     -1.3058815      18678.65     
    698000   1.0749521      0.0023323615   0.0033989893   20.548363      18.952059      1.5963038     -1.5346136      18493.37     
    699000   0.9625892      0.0023323615  -0.0037404867   20.455934      19.026489      1.429445      -1.4058331      18454.582    
    700000   0.96319266     0.0023323615  -0.00018046973  20.780509      19.350168      1.4303411     -1.177647       18297.184    
    701000   0.91618281     0.0023323615   0.0058295408   20.669757      19.309226      1.3605315     -1.2172074      18572.588    
    702000   0.96182695     0.0023323615  -0.0019075616   20.652017      19.223704      1.428313      -1.2985414      18493.055    
    703000   1.0357591      0.0023323615   0.0025037781   20.587907      19.049805      1.5381023     -1.3592564      18505.099    
    704000   0.99225038     0.0023323615   0.0013023359   20.723598      19.250106      1.4734918     -1.241151       18666.724    
    705000   0.92091372     0.0023323615   0.0036247141   20.289158      18.921601      1.3675569     -1.6684744      18535.119    
    706000   0.93325415     0.0023323615  -0.00089753038  20.51974       19.133858      1.3858824     -1.368959       18491.715    
    707000   0.9008027      0.0023323615   0.00080458344  20.65891       19.321218      1.337692      -1.2396673      18416.853    
    708000   0.97037498     0.0023323615   0.00050451552  20.756591      19.315584      1.4410068     -1.2043837      18444.542    
    709000   1.0517728      0.0023323615  -0.0025443081   20.730472      19.168589      1.5618826     -1.2736494      18548.38     
    710000   0.92547661     0.0023323615   0.00057609092  20.348528      18.974195      1.3743328     -1.5992907      18552.583    
    711000   0.96375707     0.0023323615   0.0026454381   20.524269      19.093089      1.4311792     -1.3290887      18557.847    
    712000   1.0129984      0.0023323615   0.0027656951   20.486054      18.981752      1.5043027     -1.4310329      18561.695    
    713000   0.95498208     0.0023323615   0.001937372    20.866528      19.44838       1.4181484     -1.0985965      19433.286    
    714000   0.96845875     0.0023323615  -0.0010915996   20.869082      19.430921      1.4381612     -1.043891       19585        
    715000   0.94830722     0.0023323615   0.0045025415   20.693067      19.284831      1.4082362     -1.3007103      19020.875    
    716000   0.88727648     0.0023323615   0.0025505657   20.656553      19.338947      1.3176056     -1.1342844      18728.628    
    717000   1.0723468      0.0023323615   0.0007310041   20.908122      19.315687      1.592435      -1.3411254      18885.584    
    718000   1.0696935      0.0023323615   0.0052784476   20.876057      19.287562      1.5884948     -1.1995256      18903.503    
    719000   0.9540859      0.0023323615   0.003138325    20.717997      19.301179      1.4168176     -1.3240167      18801.202    
    720000   1.0464829      0.0023323615  -0.00041139147  21.2626        19.708573      1.5540271     -0.88487059     18834.235    
    721000   0.97797325     0.0023323615   0.0030750762   20.906924      19.454634      1.4522903     -1.2353069      18825.731    
    722000   0.99422099     0.0023323615  -4.15767e-05    20.952438      19.47602       1.4764182     -1.147981       18754.211    
    723000   1.1620978      0.0023323615  -0.0034622261   20.987999      19.262284      1.7257152     -1.2115655      18827.773    
    724000   0.91904372     0.0023323615   0.0023770859   20.859138      19.494358      1.3647799     -1.1177235      18900.385    
    725000   0.96043103     0.0023323615  -0.00043360471  20.990736      19.564495      1.4262401     -1.0289514      18930.079    
    726000   1.0160947      0.0023323615  -0.0023528896   20.817682      19.308781      1.5089006     -1.3350017      18724.367    
    727000   0.99235567     0.0023323615  -0.0012400903   20.741414      19.267766      1.4736482     -1.219955       18498.401    
    728000   1.0462251      0.0023323615   5.6509754e-06  20.736134      19.182489      1.5536443     -1.2417983      18561.608    
    729000   0.85517661     0.0023323615   0.0061623482   20.50723       19.237293      1.2699373     -1.372307       18497.225    
    730000   0.94292647     0.0023323615   0.0012571469   20.612561      19.212315      1.4002458     -1.2413913      18438.245    
    731000   1.1228194      0.0023323615  -0.0048847945   20.889875      19.222488      1.6673869     -1.2660945      18610.945    
    732000   1.0877836      0.0023323615  -0.002623091    20.877361      19.262002      1.6153587     -1.3660092      18544.917    
    733000   1.125026       0.0023323615  -0.0029338425   21.184295      19.513632      1.6706636     -1.0680932      18720.619    
    734000   0.97911965     0.0023323615   6.6616471e-05  20.78308       19.329087      1.4539927     -1.2222647      18837.893    
    735000   1.0217261      0.0023323615   0.0043270853   20.651286      19.134022      1.5172632     -1.3277264      18844.828    
    736000   1.0838129      0.0023323615  -0.00072137668  21.301121      19.691659      1.6094622     -0.97408016     18825.163    
    737000   1.0646         0.0023323615   0.0010158312   21.066747      19.485816      1.580931      -1.0882218      18666.515    
    738000   1.0155967      0.0023323615   0.002330851    20.598375      19.090213      1.5081611     -1.2842969      18554.269    
    739000   1.0441119      0.0023323615   0.00096492171  20.815849      19.265343      1.5505062     -1.1579812      18425.406    
    740000   1.1168879      0.0023323615  -0.0013595431   20.870412      19.211833      1.6585785     -1.2477574      18589.202    
    741000   0.92139175     0.0023323615  -0.0017894327   20.65651       19.288243      1.3682667     -1.1399762      18680.373    
    742000   1.0309251      0.0023323615  -0.0014809805   20.931785      19.400862      1.5309238     -1.1980247      18705.383    
    743000   1.0770457      0.0023323615  -0.0022734766   21.099087      19.499674      1.5994129     -1.0284343      18713.368    
    744000   0.96691968     0.0023323615  -0.0022018013   20.958284      19.522408      1.4358757     -1.1281886      18543.163    
    745000   1.0168603      0.0023323615   0.0044837974   20.839036      19.328998      1.5100376     -1.1129247      18582        
    746000   1.0568934      0.0023323615  -0.002568894    20.969798      19.400311      1.5694867     -1.0473304      18788.009    
    747000   1.0340394      0.0023323615   0.00038481173  21.028302      19.492753      1.5355485     -0.96338642     19350.222    
    748000   1.0928913      0.0023323615   0.0020775554   21.176217      19.553273      1.6229435     -1.008708       19741.462    
    749000   0.93146003     0.0023323615  -0.0017996277   20.868502      19.485284      1.3832181     -0.98622616     19037.189    
    750000   1.0807491      0.0023323615   0.0028375074   20.817566      19.212654      1.6049124     -1.2373176      18872.867    
    751000   1.0701614      0.0023323615  -0.0018295564   21.015924      19.426734      1.5891897     -1.2267219      18673.045    
    752000   1.0499671      0.0023323615  -0.0012834841   20.859269      19.300067      1.5592011     -1.2663148      18843.551    
    753000   1.1694244      0.0023323615   0.0036971765   21.340836      19.604241      1.7365952     -0.98869768     19387.842    
    754000   0.89320048     0.0023323615  -0.00041831205  20.76013       19.433727      1.3264027     -1.2451065      19785.118    
    755000   0.98315755     0.0023323615  -0.0015555812   20.805441      19.345452      1.459989      -1.1038088      19236.868    
    756000   1.0455465      0.0023323615  -2.7987321e-05  20.932689      19.380053      1.5526366     -1.2064513      19068.295    
    757000   0.96102694     0.0023323615  -0.0011152151   20.902529      19.475404      1.427125      -1.0125226      20332.053    
    758000   1.1624608      0.0023323615  -0.0017184832   20.993518      19.267264      1.7262543     -1.2017582      21473.455    
    759000   1.0159841      0.0023323615   0.0034566781   20.729099      19.220363      1.5087364     -1.3597682      20507.049    
    760000   0.99900106     0.0023323615  -0.0032066341   20.883294      19.399778      1.4835166     -1.1331592      19132.155    
    761000   1.0397316      0.0023323615  -0.00081952951  21.052146      19.508144      1.5440014     -1.1218818      18952.833    
    762000   0.86072653     0.0023323615   0.006386345    20.45887       19.180692      1.2781789     -1.2690907      18712.526    
    763000   1.0641533      0.0023323615  -0.0021840241   20.800095      19.219828      1.5802676     -1.2395834      18525.456    
    764000   0.9099825      0.0023323615  -0.001769018    20.558438      19.207114      1.351324      -1.3119926      18452.565    
    765000   1.0948993      0.0023323615  -0.00020710239  20.676698      19.050772      1.6259255     -1.3476143      18500.057    
    766000   0.84899159     0.0023323615  -0.0026386395   20.553538      19.292786      1.2607525     -1.1402758      18953.47     
    767000   1.0315679      0.0023323615  -0.0013533654   21.150754      19.618875      1.5318784     -0.98406679     18959.003    
    768000   0.96706556     0.0023323615   0.0020431688   20.74101       19.304918      1.4360924     -1.1521279      18681.821    
    769000   0.98182931     0.0023323615   4.4907365e-05  20.665326      19.207309      1.4580165     -1.3350341      18561.004    
    770000   0.92871716     0.0023323615   0.0012738834   20.532598      19.153453      1.379145      -1.3562635      18401.133    
    771000   0.99827303     0.0023323615  -0.00078969971  20.475513      18.993078      1.4824355     -1.4772443      18423.369    
    772000   1.0123978      0.0023323615   0.00038884475  20.680745      19.177334      1.5034107     -1.4047673      18538.899    
    773000   1.0260145      0.0023323615  -0.0023448869   20.793878      19.270247      1.5236316     -1.2698203      18633.211    
    774000   1.1781778      0.0023323615  -0.00088461602  20.99125       19.241657      1.749594      -1.2499394      18697.247    
    775000   1.0193748      0.0023323615  -0.0025191873   20.944318      19.430547      1.5137716     -1.1081728      18672.58     
    776000   0.91935548     0.0023323615   0.0023757522   20.647533      19.28229       1.3652429     -1.1615687      18759.996    
    777000   1.109882       0.0023323615   0.00012810704  21.043665      19.39549       1.6481748     -1.1460538      18661.915    
    778000   0.97251252     0.0023323615  -0.001722443    20.609078      19.164897      1.4441811     -1.300487       18526.068    
    779000   0.87578723     0.0023323615   0.00026767611  20.539097      19.238553      1.300544      -1.1496511      18431.612    
    780000   1.0399277      0.0023323615   0.0015013899   21.04478       19.500487      1.5442926     -0.97221907     18718.355    
    781000   0.99671166     0.0023323615  -0.0015606183   20.81259       19.332473      1.4801168     -1.2271821      18825.482    
    782000   1.0999204      0.0023323615   0.002518522    20.862557      19.229175      1.6333817     -1.3218698      18501.107    
    783000   0.99780282     0.0023323615   0.00054439009  20.716585      19.234847      1.4817372     -1.3117714      18527.736    
    784000   1.0789221      0.0023323615  -0.0040225793   20.949151      19.346952      1.6021993     -1.1677836      18616.863    
    785000   0.83445609     0.0023323615  -0.00017558011  20.323833      19.084665      1.2391673     -1.4029436      18721.189    
    786000   0.92619448     0.0023323615   0.0026177619   20.475936      19.100537      1.3753988     -1.3166469      16086.912    
    787000   1.0134434      0.0023323615   0.0014770188   20.748619      19.243655      1.5049634     -1.1657335      18507.055    
    788000   1.0167757      0.0023323615  -0.00080776894  20.778467      19.268556      1.5099119     -1.1706588      18613.52     
    789000   1.0192888      0.0023323615   0.0051535901   20.538283      19.024639      1.5136438     -1.3829406      18534.913    
    790000   0.87882462     0.0023323615  -0.0020789209   20.701186      19.396132      1.3050546     -1.184569       18707.195    
    791000   0.95013333     0.0023323615   0.0029969693   20.472077      19.061129      1.410948      -1.4271189      18681.772    
    792000   0.97859692     0.0023323615   0.0014112147   20.622065      19.168849      1.4532164     -1.3259189      18700.456    
    793000   0.93338134     0.0023323615  -0.0016032943   20.425686      19.039615      1.3860713     -1.4931307      18239.997    
    794000   1.0820053      0.0023323615  -0.00046783332  20.914454      19.307676      1.6067779     -1.2435332      18318.087    
    795000   1.0569773      0.0023323615   0.0043272208   20.969632      19.40002       1.5696113     -1.1804356      18509.65     
    796000   1.0121561      0.0023323615   0.0034665739   20.787644      19.284592      1.5030519     -1.264335       18501.37     
    797000   0.89796601     0.0023323615  -0.0023532331   20.630452      19.296972      1.3334795     -1.16904        18420.367    
    798000   1.147629       0.0023323615  -0.0012352455   21.173625      19.469396      1.704229      -1.1859909      18494.178    
    799000   0.96541748     0.0023323615  -0.00095242254  20.874637      19.440992      1.433645      -1.1816368      18677.919    
    800000   1.0048401      0.0023323615   0.0025769692   20.570664      19.078476      1.4921875     -1.3787625      18554.735    
    801000   0.93775963     0.0023323615  -0.0023354412   20.612478      19.219905      1.392573      -1.2456935      18544.073    
    802000   0.9922862      0.0023323615   0.0030123582   20.907213      19.433668      1.473545      -1.1379583      18592.186    
    803000   1.2224333      0.0023323615   0.0032120134   20.735677      18.920364      1.8153135     -1.5423633      18534.858    
    804000   1.0317187      0.0023323615  -0.0016646257   20.709128      19.177026      1.5321023     -1.3501728      18469.764    
    805000   1.0145556      0.0023323615   0.0042260083   20.677165      19.17055       1.506615      -1.3918059      18538.327    
    806000   0.91950145     0.0023323615  -0.00068883535  20.697045      19.331586      1.3654597     -1.1550561      18697.236    
    807000   1.0763409      0.0023323615   0.0031977662   20.775371      19.177005      1.5983663     -1.3107929      18689.289    
    808000   1.0499643      0.0023323615  -0.0087013537   20.823843      19.264646      1.559197      -1.3177986      18554.297    
    809000   0.8103731      0.0023323615   0.0021571287   20.442705      19.239301      1.203404      -1.2478732      18548.922    
    810000   1.04206        0.0023323615  -0.00081097547  20.956019      19.40856       1.5474591     -1.1889874      18487.848    
    811000   1.055174       0.0023323615   3.7046389e-05  20.941102      19.374169      1.5669333     -1.0971945      18553.817    
    812000   0.95331467     0.0023323615  -0.0028813973   20.576145      19.160473      1.4156723     -1.3370187      18601.815    
    813000   0.95667363     0.0023323615   0.00065274129  20.683618      19.262958      1.4206603     -1.2714582      18505.518    
    814000   0.93702589     0.0023323615  -0.00019572877  20.70147       19.309987      1.3914834     -1.2122056      18569.962    
    815000   0.96266797     0.0023323615  -0.0026022257   20.90924       19.479679      1.4295619     -1.0318905      18516.332    
    816000   0.98769399     0.0023323615  -0.0036713702   20.959276      19.492551      1.4667256     -1.0505952      18698.746    
    817000   1.0615886      0.0023323615   0.0029525808   20.984844      19.408385      1.5764591     -1.2461386      18330.289    
    818000   0.93237031     0.0023323615  -0.0016103198   20.625207      19.240637      1.3845699     -1.3333457      18390.921    
    819000   1.1313836      0.0023323615   0.0011494715   21.095517      19.415412      1.6801047     -1.1417563      18567.727    
    820000   1.0302169      0.0023323615   0.00081434711  20.659626      19.129753      1.5298722     -1.3554582      18582.848    
    821000   1.0459278      0.0023323615  -0.0010155243   20.489157      18.935955      1.5532028     -1.5018333      18773.541    
    822000   1.0577843      0.0023323615   0.002542813    20.98191       19.4111        1.5708097     -1.2482377      18750.371    
    823000   0.9977529      0.0023323615   0.0014002586   20.855839      19.374176      1.4816631     -1.1243018      18684.335    
    824000   1.0791248      0.0023323615   0.0012837669   20.823695      19.221194      1.6025003     -1.3842225      18611.34     
    825000   1.1117287      0.0023323615  -0.0023243141   20.862241      19.211324      1.6509171     -1.3132429      18598.564    
    826000   1.0292061      0.0023323615  -0.0044186309   20.77005       19.241679      1.528371      -1.3234614      18656.302    
    827000   1.0979704      0.0023323615   0.0041423939   20.641481      19.010994      1.6304861     -1.3397452      18641.316    
    828000   1.1255642      0.0023323615   0.0010118883   20.723042      19.051579      1.6714628     -1.445325       18627.828    
    829000   1.0229668      0.0023323615  -5.8299474e-05  20.848475      19.329369      1.5191057     -1.3734018      18479.684    
    830000   0.95306284     0.0023323615  -0.0012446036   20.7395        19.324201      1.4152983     -1.1669563      18711.376    
    831000   1.0863288      0.0023323615   0.0020046376   20.945046      19.331848      1.6131983     -1.1925282      18686.906    
    832000   0.92985048     0.0023323615   0.00044366166  20.707079      19.326251      1.380828      -1.2383346      18567.575    
    833000   1.0710377      0.0023323615   0.0045404704   20.778358      19.187867      1.590491      -1.3676218      18424.155    
    834000   0.93394588     0.0023323615   0.00106743     20.628246      19.241336      1.3869096     -1.3540601      18455.861    
    835000   0.89103007     0.0023323615  -0.00067528427  20.458828      19.135648      1.3231797     -1.4743115      18452.173    
    836000   0.91647662     0.0023323615   0.00083273388  20.659527      19.298559      1.3609678     -1.1848536      18419.473    
    837000   1.1102688      0.0023323615   0.0045164406   20.860841      19.212092      1.6487491     -1.3161079      18595.504    
    838000   0.97965531     0.0023323615   0.00056947772  20.703312      19.248523      1.4547881     -1.2842966      18554.511    
    839000   0.94781994     0.0023323615   0.0030335397   20.604401      19.196888      1.4075126     -1.2920834      18698.7      
    840000   0.99896537     0.0023323615  -0.00066027889  20.706498      19.223035      1.4834636     -1.3484238      18781.603    
    841000   1.0847727      0.0023323615   0.0015269141   21.152353      19.541465      1.6108874     -0.98003298     18602.731    
    842000   0.93221797     0.0023323615  -0.0039068053   20.813896      19.429552      1.3843437     -1.1748319      18688.894    
    843000   0.97346967     0.0023323615  -0.001127004    20.957544      19.511942      1.4456025     -1.0249143      18611.985    
    844000   0.90018496     0.0023323615  -0.0064230794   20.658087      19.321313      1.3367747     -1.1637843      18652.784    
    845000   0.84048308     0.0023323615   0.0021496417   20.316754      19.068636      1.2481174     -1.3759967      18608.332    
    846000   1.0446788      0.0023323615   0.0015204016   20.940768      19.38942       1.5513481     -1.1441876      18638.441    
    847000   0.99767157     0.0023323615  -0.0020299672   20.937232      19.45569       1.4815423     -0.99224624     18679.898    
    848000   0.91499777     0.0023323615   0.0019165377   20.714998      19.356226      1.3587717     -1.2554799      18602.176    
    849000   1.0233988      0.0023323615  -0.0025466807   20.64194       19.122193      1.5197473     -1.3915947      18541.51     
    850000   1.0957847      0.0023323615  -0.0019499914   21.070024      19.442784      1.6272403     -1.1444206      18630.419    
    851000   1.1091778      0.0023323615  -0.0048061609   21.022111      19.374982      1.647129      -1.1846847      18543.187    
    852000   1.0008454      0.0023323615   0.00043405437  20.832345      19.346089      1.4862554     -1.2229544      18706.126    
    853000   1.0339303      0.0023323615   0.0030750717   21.038826      19.50344       1.5353865     -1.0652884      18891.149    
    854000   0.8461787      0.0023323615  -0.0046518083   20.563485      19.306909      1.2565754     -1.1687875      18862.98     
    855000   0.93087167     0.0023323615   0.0016211685   20.665299      19.282954      1.3823444     -1.2391636      18773.814    
    856000   0.95593061     0.0023323615   0.0039645251   20.7324        19.312843      1.419557      -1.2381109      18659.968    
    857000   1.1368628      0.0023323615  -0.0017442401   20.887443      19.199202      1.6882413     -1.3517616      18662.058    
    858000   0.96931358     0.0023323615   0.00037822741  20.771376      19.331945      1.4394307     -1.3018805      18870.783    
    859000   1.1313674      0.0023323615   0.0012299967   21.086756      19.406675      1.6800806     -1.2186056      18811.156    
    860000   1.0334195      0.0023323615  -0.0021192608   20.678108      19.14348       1.534628      -1.3302988      18666.755    
    861000   0.99371173     0.0023323615  -0.0050093673   20.775606      19.299944      1.4756619     -1.2370067      18627.957    
    862000   1.1466589      0.0023323615   0.0032000016   20.990472      19.287683      1.7027885     -1.2277038      18653.711    
    863000   1.170318       0.0023323615   0.001040129    20.968132      19.23021       1.7379222     -1.3235404      18638.831    
    864000   1.015232       0.0023323615  -0.0021438529   20.821649      19.31403       1.5076196     -1.2302602      18617.228    
    865000   1.1521532      0.0023323615   0.0007626716   21.290034      19.579086      1.7109475     -1.0470134      18837.402    
    866000   1.0476851      0.0023323615  -0.0022242363   20.837102      19.28129       1.5558124     -1.3129731      18720.359    
    867000   1.0728186      0.0023323615  -0.00091343782  20.700772      19.107636      1.5931357     -1.4433567      18508.572    
    868000   1.0380154      0.0023323615  -0.00068483136  20.770036      19.228583      1.5414529     -1.2867591      18435.872    
    869000   1.0163504      0.0023323615   0.00038610571  20.7392        19.229919      1.5092803     -1.2672322      18467.707    
    870000   0.9738483      0.0023323615  -0.00043865399  20.502819      19.056654      1.4461647     -1.3334052      18432.134    
    871000   0.98053102     0.0023323615   0.00091499435  20.496206      19.040117      1.4560886     -1.4017743      18370.628    
    872000   1.1113559      0.0023323615   0.00052234933  21.093414      19.443051      1.6503635     -1.1185458      18393.605    
    873000   0.9544292      0.0023323615   0.00055320899  20.639055      19.221727      1.4173274     -1.3729884      18493.305    
    874000   0.93863404     0.0023323615  -0.0034006969   20.513019      19.119147      1.3938716     -1.5065485      18367.508    
    875000   0.95923425     0.0023323615  -0.00048144105  20.647187      19.222724      1.4244629     -1.4147983      18459.947    
    876000   1.1392774      0.0023323615   0.0034222682   20.759002      19.067175      1.6918269     -1.4237652      18523.847    
    877000   0.86827785     0.0023323615  -0.0020999261   20.673267      19.383875      1.2893926     -1.0587461      18670.055    
    878000   0.90859267     0.0023323615  -0.00058115015  20.559793      19.210533      1.3492601     -1.2188965      18630.638    
    879000   1.0347793      0.0023323615   0.0057150052   20.704548      19.167901      1.5366473     -1.3049692      18546.04     
    880000   0.94049436     0.0023323615   0.0013723788   20.537348      19.140714      1.3966341     -1.4142678      18532.676    
    881000   0.96103801     0.0023323615  -0.0048392281   20.646015      19.218873      1.4271414     -1.3461091      18563.576    
    882000   0.88702989     0.0023323615   8.4286077e-05  20.32688       19.00964       1.3172394     -1.5791834      18723.229    
    883000   0.86584447     0.0023323615  -0.00031427049  20.334376      19.048597      1.285779      -1.5465095      18700.648    
    884000   0.96557844     0.0023323615   0.0011437621   20.51327       19.079386      1.433884      -1.484694       18798.384    
    885000   1.0599614      0.0023323615  -0.0027179591   20.863813      19.289771      1.5740427     -1.2860073      18837.274    
    886000   1.1063034      0.0023323615   0.00077827211  20.955927      19.313066      1.6428606     -1.3181471      18803.37     
    887000   1.1249922      0.0023323615   0.0001033966   20.82623       19.155617      1.6706134     -1.3538709      18733.17     
    888000   0.93010631     0.0023323615  -0.00079133026  20.6436        19.262392      1.3812079     -1.2541573      18680.905    
    889000   1.1193237      0.0023323615  -0.0018934431   20.909429      19.247233      1.6621957     -1.1960657      18674.68     
    890000   1.019347       0.0023323615  -0.0013231009   20.624377      19.110647      1.5137303     -1.3744929      18579.523    
    891000   0.95763768     0.0023323615   0.0020113045   20.585897      19.163805      1.422092      -1.3900992      18553.952    
    892000   1.102557       0.0023323615  -0.0020280638   20.621879      18.984582      1.6372972     -1.4779651      18475.323    
    893000   0.91386079     0.0023323615   0.0026886736   20.634065      19.276982      1.3570833     -1.2615267      18702.281    
    894000   1.0327006      0.0023323615   0.0010562683   20.772024      19.238464      1.5335604     -1.2792375      18522.523    
    895000   1.0195916      0.0023323615  -0.0029192455   20.816131      19.302038      1.5140936     -1.2102733      18509.128    
    896000   0.95439974     0.0023323615   0.0032127575   20.963105      19.545821      1.4172836     -1.0758477      18623.963    
    897000   1.1427249      0.0023323615   0.0037828985   21.045419      19.348472      1.6969464     -1.1672184      18674.128    
    898000   1.0764722      0.0023323615   2.6679043e-05  20.896159      19.297598      1.5985612     -1.1939897      18783.614    
    899000   0.96580288     0.0023323615  -8.0571653e-05  20.84224       19.408023      1.4342173     -1.0500883      19054.833    
    900000   0.97979788     0.0023323615   0.0029999272   20.674689      19.219689      1.4549999     -1.2633443      18767.53     
    901000   1.1034201      0.0023323615   0.00040138864  20.905816      19.267238      1.6385789     -1.138996       18598.373    
    902000   1.1068034      0.0023323615  -0.0020594881   21.179601      19.535998      1.643603      -0.9929061      18562.717    
    903000   1.0080419      0.0023323615   0.0017335191   20.813082      19.316139      1.4969422     -1.1885436      18884.333    
    904000   0.92770846     0.0023323615  -0.0013216578   20.859862      19.482215      1.3776471     -1.1435317      18654.698    
    905000   1.0356733      0.0023323615  -0.0035598266   20.738265      19.20029       1.5379748     -1.2734326      18584.01     
    906000   0.9456097      0.0023323615   0.00097271706  20.888613      19.484382      1.4042304     -1.0943245      18786.11     
    907000   0.91637182     0.0023323615   0.0013541357   20.91267       19.551858      1.3608122     -1.1289142      18996.663    
    908000   1.0372364      0.0023323615   0.0021139133   20.926964      19.386668      1.5402961     -1.1526665      19173.737    
    909000   1.0603261      0.0023323615   0.0038418625   20.858254      19.28367       1.5745842     -1.293971       19031.599    
    910000   1.0778223      0.0023323615  -0.00058245052  21.012602      19.412036      1.600566      -1.0808568      18958.215    
    911000   1.0854113      0.0023323615   0.0012198748   21.100953      19.489118      1.6118358     -0.99678776     19134.524    
    912000   1.080435       0.0023323615   0.001407392    20.794283      19.189837      1.604446      -1.2577579      18588.859    
    913000   1.0308045      0.0023323615  -4.6969633e-05  20.730142      19.199398      1.5307447     -1.2587876      18427.842    
    914000   1.1068585      0.0023323615  -0.0023245745   21.113511      19.469826      1.6436849     -1.1127461      18614.766    
    915000   1.0411384      0.0023323615  -0.00040797603  20.656866      19.110775      1.5460905     -1.425224       18425.624    
    916000   1.0855644      0.0023323615  -0.0023612827   20.99919       19.387126      1.6120632     -1.1049408      18534.678    
    917000   1.0517651      0.0023323615  -0.0029012493   21.06336       19.501489      1.5618712     -1.0569021      18596.433    
    918000   0.93863794     0.0023323615  -0.0045884691   20.55828       19.164403      1.3938773     -1.3917232      18421.282    
    919000   1.0064218      0.0023323615   0.0027901989   20.721872      19.227335      1.4945363     -1.3070257      18532.538    
    920000   1.0890578      0.0023323615  -0.00059170478  20.936753      19.319502      1.6172508     -1.175382       18505.384    
    921000   1.0164511      0.0023323615  -0.0048048816   21.100632      19.591202      1.5094298     -0.87913465     18693.717    
    922000   1.109465       0.0023323615   0.0022207529   20.928909      19.281353      1.6475556     -1.2761319      18595.639    
    923000   1.0510183      0.0023323615   0.0012207831   20.838837      19.278074      1.5607622     -1.2639018      18685.462    
    924000   0.95093501     0.0023323615   0.0020924357   20.729561      19.317422      1.4121385     -1.1916224      18459.513    
    925000   0.98540887     0.0023323615   0.0016599798   20.778417      19.315085      1.4633322     -1.2287637      18461.398    
    926000   1.0837889      0.0023323615   0.00033534182  20.876391      19.266965      1.6094266     -1.2836494      18384.593    
    927000   0.96202385     0.0023323615   0.0049525916   20.688102      19.259496      1.4286054     -1.3632268      18339.369    
    928000   1.1559173      0.0023323615  -0.00039910821  20.783706      19.067169      1.7165371     -1.4565946      18427.894    
    929000   0.94544812     0.0023323615   0.0014983437   20.568897      19.164906      1.4039905     -1.3214571      18531.957    
    930000   0.94576176     0.0023323615  -0.0018395902   20.485645      19.081189      1.4044562     -1.4033568      18364.899    
    931000   0.8621628      0.0023323615  -0.0032486556   20.583434      19.303122      1.2803118     -1.2807508      18507.189    
    932000   0.908684       0.0023323615  -0.0046004961   20.808777      19.459381      1.3493957     -1.0966754      18669.716    
    933000   0.94586501     0.0023323615   0.0010901659   20.815522      19.410913      1.4046095     -1.1731664      18662.354    
    934000   0.98357619     0.0023323615  -8.5660636e-05  20.808789      19.348179      1.4606106     -1.1500543      18566.18     
    935000   1.0371258      0.0023323615   0.0024797184   20.876835      19.336703      1.5401318     -1.1191299      18775.689    
    936000   1.040182       0.0023323615   0.00079739173  20.650277      19.105606      1.5446703     -1.2625141      18823.601    
    937000   1.0325729      0.0023323615   0.00035239328  20.750048      19.216678      1.5333707     -1.2478503      18423.437    
    938000   1.1242657      0.0023323615  -0.0026281472   20.931076      19.261542      1.6695346     -1.1218631      18466.617    
    939000   1.0719428      0.0023323615  -0.0017628014   20.824624      19.232789      1.591835      -1.3079621      18679.884    
    940000   1.0597291      0.0023323615  -0.0017663819   20.861923      19.288225      1.5736978     -1.2072386      18658.492    
    941000   1.0647869      0.0023323615   0.001479469    20.678458      19.097249      1.5812086     -1.3207219      18312.005    
    942000   0.97571841     0.0023323615  -0.0014324363   20.698343      19.249401      1.4489418     -1.3237177      18539.764    
    943000   0.96237325     0.0023323615   0.0014169735   20.76561       19.336486      1.4291243     -1.2261864      18474.902    
    944000   0.98218532     0.0023323615  -0.0010558918   20.899848      19.441303      1.4585452     -1.1262409      18803.54     
    945000   0.99140978     0.0023323615   0.0064763029   20.793997      19.321753      1.4722435     -1.2465125      18668.931    
    946000   0.92528494     0.0023323615   0.0016923584   20.383023      19.008975      1.3740481     -1.5546071      18418.093    
    947000   0.93696961     0.0023323615  -0.0039579269   20.638383      19.246983      1.3913999     -1.2625711      18452.838    
    948000   1.036326       0.0023323615   0.0036361539   20.500565      18.961621      1.5389441     -1.5287434      18490.029    
    949000   0.93564757     0.0023323615  -0.002260125    20.524326      19.13489       1.3894366     -1.40792        18430.956    
    950000   0.93622314     0.0023323615   0.0011544103   20.661776      19.271485      1.3902914     -1.1507093      18599.285    
    951000   0.93502158     0.0023323615  -0.00034863694  20.709396      19.320888      1.3885071     -1.1151643      18706.831    
    952000   0.89529412     0.0023323615  -0.0036773428   20.859874      19.530363      1.3295118     -1.1025186      18737.467    
    953000   0.97370889     0.0023323615  -0.0024969027   20.708         19.262042      1.4459577     -1.2511498      18723.07     
    954000   1.0500559      0.0023323615  -0.00046844214  20.893691      19.334358      1.559333      -1.1869108      18540.514    
    955000   0.97998399     0.0023323615  -0.0013634033   20.788598      19.333322      1.4552762     -1.195093       18745.209    
    956000   0.90016619     0.0023323615   0.0012209593   20.253606      18.916859      1.3367468     -1.4666702      18534.458    
    957000   1.0231076      0.0023323615   0.0027688001   20.621091      19.101776      1.5193148     -1.4269775      18631.594    
    958000   1.0744044      0.0023323615  -0.00048208922  21.025539      19.430048      1.5954905     -1.1567694      18565.686    
    959000   0.98239125     0.0023323615   0.0017157147   20.776626      19.317775      1.458851      -1.1913533      18436.542    
    960000   0.92679327     0.0023323615  -0.0036544921   20.593183      19.216895      1.376288      -1.3016298      18583.619    
    961000   0.9089014      0.0023323615  -0.0003376297   20.651337      19.301619      1.3497186     -1.1504495      18650.718    
    962000   0.96114526     0.0023323615   0.00063303974  20.579025      19.151724      1.4273007     -1.2832546      18611.288    
    963000   0.8538566      0.0023323615   0.0034684936   20.727036      19.459059      1.2679771     -1.0895279      18568.788    
    964000   1.0405706      0.0023323615   0.0001993701   20.89521       19.349963      1.5452474     -1.2797088      18576.954    
    965000   0.94657823     0.0023323615  -0.0065927049   20.571979      19.166311      1.4056687     -1.3499429      18591.476    
    966000   0.93215618     0.0023323615   0.0004067935   21.006335      19.622083      1.3842519     -0.93298564     18739.233    
    967000   0.94118201     0.0023323615   0.0048975008   20.879273      19.481618      1.3976553     -1.137876       19139.585    
    968000   0.97778455     0.0023323615  -0.0023193722   20.878074      19.426064      1.4520101     -1.2054862      19365.877    
    969000   0.95037289     0.0023323615  -0.0039664006   21.004823      19.593519      1.4113037     -1.0410661      19110.697    
    970000   0.94279156     0.0023323615  -0.0055122879   20.460639      19.060593      1.4000455     -1.4831005      18721.761    
    971000   1.0460734      0.0023323615  -0.00085018648  20.839951      19.286532      1.553419      -1.2598585      18609.016    
    972000   0.94779042     0.0023323615  -0.0015920325   20.504819      19.09735       1.4074688     -1.3526406      18519.719    
    973000   0.97156775     0.0023323615  -0.00072407103  20.684569      19.241791      1.4427781     -1.2624091      18548.349    
    974000   1.0852046      0.0023323615  -0.00084518541  20.7483        19.136771      1.6115288     -1.3147607      18729.43     
    975000   1.1142296      0.0023323615  -0.0016109802   20.880808      19.226177      1.654631      -1.2758644      18715.344    
    976000   0.8721405      0.0023323615  -0.00022334363  20.673034      19.377905      1.2951286     -1.1408512      18529.449    
    977000   1.0950089      0.0023323615   0.0027276436   20.77133       19.145242      1.6260882     -1.314204       18587.259    
    978000   0.98072338     0.0023323615   0.00061249644  20.645807      19.189433      1.4563742     -1.3803107      18510.494    
    979000   0.96270134     0.0023323615   0.0020635054   20.372871      18.94326       1.4296115     -1.4109408      18658.559    
    980000   1.0086476      0.0023323615  -0.0041186875   20.639183      19.141341      1.4978418     -1.4680604      18757.874    
    981000   1.1320725      0.0023323615   0.00048828534  21.047493      19.366366      1.6811276     -1.2352848      18786.577    
    982000   0.87806596     0.0023323615  -0.00062010152  20.412405      19.108477      1.3039279     -1.3798522      18609.303    
    983000   0.97682351     0.0023323615   0.004891799    20.641943      19.19136       1.4505829     -1.2491018      18538.886    
    984000   1.0390623      0.0023323615  -0.001101845    20.766308      19.2233        1.5430075     -1.238325       18703.69     
    985000   0.86803109     0.0023323615   0.00021590633  20.500565      19.211539      1.2890262     -1.1880299      18962.353    
    986000   1.0685073      0.0023323615   0.0039344705   20.801095      19.214361      1.5867333     -1.2617919      18471.224    
    987000   1.1033782      0.0023323615  -0.0013393393   20.890508      19.251991      1.6385166     -1.287282       18245.099    
    988000   0.96231923     0.0023323615  -0.0020055068   20.595559      19.166515      1.4290441     -1.4093909      18393.432    
    989000   0.99324716     0.0023323615  -0.0013156542   20.775038      19.300066      1.474972      -1.2728283      18369.469    
    990000   0.87533226     0.0023323615  -0.0040145419   20.500932      19.201064      1.2998684     -1.2637572      18599.427    
    991000   1.0821928      0.0023323615  -0.0020915041   20.822877      19.215821      1.6070564     -1.336841       18496.115    
    992000   0.88319675     0.0023323615   0.0030812722   20.385142      19.073595      1.3115472     -1.3451828      18628.85     
    993000   1.0203692      0.0023323615   0.00058803874  20.61267       19.097422      1.5152483     -1.3380829      18738.072    
    994000   1.0211962      0.0023323615  -0.0011704757   20.74869       19.232213      1.5164763     -1.2891578      18772.846    
    995000   1.0818494      0.0023323615  -0.0021179125   20.978947      19.372401      1.6065464     -1.186291       18738.793    
    996000   1.0715926      0.0023323615  -0.0015819036   21.047485      19.45617       1.591315      -1.0672801      18594.24     
    997000   1.0368137      0.0023323615   0.0061331902   20.7521        19.212432      1.5396684     -1.3375477      18707.634    
    998000   0.87809599     0.0023323615  -0.0035279893   20.72748       19.423508      1.3039725     -1.2366324      18506.543    
    999000   0.81947893     0.0023323615   0.0026638209   20.505975      19.289049      1.2169262     -1.1937841      18481.378    
   1000000   0.97907883     0.0023323615   0.003550321    20.683992      19.23006       1.4539321     -1.2244703      18599.652    
Loop time of 53.5539 on 1 procs for 1000000 steps with 100 atoms

Performance: 8066642.710 tau/day, 18672.784 timesteps/s
99.4% CPU use with 1 MPI tasks x 1 OpenMP threads

MPI task timing breakdown:
Section |  min time  |  avg time  |  max time  |%varavg| %total
---------------------------------------------------------------
Pair    | 44.54      | 44.54      | 44.54      |   0.0 | 83.17
Bond    | 1.2652     | 1.2652     | 1.2652     |   0.0 |  2.36
Neigh   | 3.8174     | 3.8174     | 3.8174     |   0.0 |  7.13
Comm    | 1.4093     | 1.4093     | 1.4093     |   0.0 |  2.63
Output  | 0.22034    | 0.22034    | 0.22034    |   0.0 |  0.41
Modify  | 1.9458     | 1.9458     | 1.9458     |   0.0 |  3.63
Other   |            | 0.3562     |            |       |  0.67

Nlocal:            100 ave         100 max         100 min
Histogram: 1 0 0 0 0 0 0 0 0 0
Nghost:            282 ave         282 max         282 min
Histogram: 1 0 0 0 0 0 0 0 0 0
Neighs:           4851 ave        4851 max        4851 min
Histogram: 1 0 0 0 0 0 0 0 0 0

Total # of neighbors = 4851
Ave neighs/atom = 48.51
Ave special neighs/atom = 1.98
Neighbor list builds = 97901
Dangerous builds = 80042

write_data      ${outputfile_assembled} nofix nocoeff
write_data      7_assembled.data nofix nocoeff
System init for write_data ...
Generated 0 of 6 mixed pair_coeff terms from geometric mixing rule

Total wall time: 0:00:55
