LAMMPS (23 Jun 2022 - Update 1)
OMP_NUM_THREADS environment is not set. Defaulting to 1 thread. (src/comm.cpp:98)
  using 1 OpenMP thread(s) per MPI task


variable        runtime equal 1000000
variable		subsample_rate equal 1000

variable		outputfile_created string '3_created.data'
variable		outputfile_relaxed string '5_relaxed.data'
variable		outputfile_selfasb string '6_a_self_assemble.lammpstrj'
variable		outputfile_trajlin string '6_b_trajlin.data'
variable		outputfile_assembled string '7_assembled.data'

units           lj
atom_style      full
dimension       3
boundary        p p p
timestep        0.005

read_data       ${outputfile_created}
read_data       3_created.data
Reading data file ...
  orthogonal box = (0 0 0) to (35 35 35)
  1 by 1 by 1 MPI processor grid
  reading atoms ...
  100 atoms
  reading velocities ...
  100 velocities
  scanning bonds ...
  1 = max bonds/atom
  reading bonds ...
  99 bonds
Finding 1-2 1-3 1-4 neighbors ...
  special bond factors lj:    0        0        0       
  special bond factors coul:  0        0        0       
     2 = max # of 1-2 neighbors
     2 = max # of 1-3 neighbors
     4 = max # of 1-4 neighbors
     6 = max # of special neighbors
  special bonds CPU = 0.001 seconds
  read_data CPU = 0.008 seconds

bond_style      fene
bond_coeff      * 30.0 1.5 1.0 1.0
special_bonds   fene
Finding 1-2 1-3 1-4 neighbors ...
  special bond factors lj:    0        1        1       
  special bond factors coul:  0        1        1       
     2 = max # of 1-2 neighbors
     6 = max # of special neighbors
  special bonds CPU = 0.000 seconds

variable        Temp equal 1.0
variable        velSeed equal 926458

velocity        all create ${Temp} ${velSeed}
velocity        all create 1 ${velSeed}
velocity        all create 1 926458

### Output
thermo_style    custom step temp density press etotal pe ke epair spcpu
thermo          1000

###########################################################################
# Soft relaxation (to remove overlaps of particles)
######################################################################

pair_style      soft 1.0
pair_coeff      * * 0.0
variable        prefactor equal ramp(0,300)
fix             rampSoft all adapt 1 pair soft a * * v_prefactor

minimize        0.0 1.0e-8 1000 100000
WARNING: Using 'neigh_modify every 1 delay 0 check yes' setting during minimization (src/min.cpp:187)
Generated 0 of 6 mixed pair_coeff terms from geometric mixing rule
Neighbor list info ...
  update every 1 steps, delay 0 steps, check yes
  max neighbors/atom: 2000, page size: 100000
  master list distance cutoff = 1.3
  ghost atom cutoff = 1.3
  binsize = 0.65, bins = 54 54 54
  1 neighbor lists, perpetual/occasional/extra = 1 0 0
  (1) pair soft, perpetual
      attributes: half, newton on
      pair build: half/bin/newton
      stencil: half/bin/3d
      bin: standard
WARNING: Communication cutoff 1.3 is shorter than a bond length based estimate of 1.7550000000000001. This may lead to errors. (src/comm.cpp:727)
Per MPI rank memory allocation (min/avg/max) = 8.346 | 8.346 | 8.346 Mbytes
   Step          Temp         Density         Press          TotEng         PotEng         KinEng         E_pair         S/CPU     
         0   1              0.0023323615  -0.0039617958   21.524174      20.039174      1.485          0              0            
       362   1              0.0023323615   0.0023090379   21.485548      20.000548      1.485          0              58298.568    
Loop time of 0.00622454 on 1 procs for 362 steps with 100 atoms

95.0% CPU use with 1 MPI tasks x 1 OpenMP threads

Minimization stats:
  Stopping criterion = force tolerance
  Energy initial, next-to-last, final = 
      20.0391741078675   20.0005480767337   20.0005480767337
  Force two-norm initial, final = 11.878422 7.9509778e-09
  Force max component initial, final = 6.6117807 1.3572772e-09
  Final line search alpha, max atom move = 1 1.3572772e-09
  Iterations, force evaluations = 362 738

MPI task timing breakdown:
Section |  min time  |  avg time  |  max time  |%varavg| %total
---------------------------------------------------------------
Pair    | 0.00026102 | 0.00026102 | 0.00026102 |   0.0 |  4.19
Bond    | 0.0028401  | 0.0028401  | 0.0028401  |   0.0 | 45.63
Neigh   | 0.0014811  | 0.0014811  | 0.0014811  |   0.0 | 23.79
Comm    | 0.00027942 | 0.00027942 | 0.00027942 |   0.0 |  4.49
Output  | 0          | 0          | 0          |   0.0 |  0.00
Modify  | 0          | 0          | 0          |   0.0 |  0.00
Other   |            | 0.001363   |            |       | 21.90

Nlocal:            100 ave         100 max         100 min
Histogram: 1 0 0 0 0 0 0 0 0 0
Nghost:             20 ave          20 max          20 min
Histogram: 1 0 0 0 0 0 0 0 0 0
Neighs:              0 ave           0 max           0 min
Histogram: 1 0 0 0 0 0 0 0 0 0

Total # of neighbors = 0
Ave neighs/atom = 0
Ave special neighs/atom = 1.98
Neighbor list builds = 17
Dangerous builds = 0

fix             nvtSoft all nvt temp ${Temp} ${Temp} 0.5
fix             nvtSoft all nvt temp 1 ${Temp} 0.5
fix             nvtSoft all nvt temp 1 1 0.5
run             100000
Generated 0 of 6 mixed pair_coeff terms from geometric mixing rule
WARNING: Communication cutoff 1.3 is shorter than a bond length based estimate of 1.7550000000000001. This may lead to errors. (src/comm.cpp:727)
Per MPI rank memory allocation (min/avg/max) = 7.221 | 7.221 | 7.221 Mbytes
   Step          Temp         Density         Press          TotEng         PotEng         KinEng         E_pair         S/CPU     
       362   1              0.0023323615   0.0023090379   21.485548      20.000548      1.485          0              0            
      1000   0.90989032     0.0023323615  -0.0021940042   21.776974      20.425787      1.3511871      0.00036425437  66371.546    
      2000   0.86546688     0.0023323615   0.0034714157   21.677128      20.39191       1.2852183      0.0025814786   65475.244    
      3000   0.98199538     0.0023323615   0.0028144228   21.866132      20.407869      1.4582631      0.0011756043   61905.629    
      4000   1.004495       0.0023323615  -0.0014058211   21.945624      20.453949      1.4916751      0.011986179    62692.58     
      5000   1.1222705      0.0023323615   0.0044495116   21.986385      20.319813      1.6665718      0.0050317639   63048.681    
      6000   1.0538243      0.0023323615   0.0023957538   21.985713      20.420784      1.564929       0.012100514    63406.66     
      7000   1.0210598      0.0023323615  -0.00038820026  21.904665      20.388391      1.5162738      0              64910.635    
      8000   0.94819751     0.0023323615   0.0024943091   21.747889      20.339816      1.4080733      0              64789.323    
      9000   0.92364502     0.0023323615   0.0020053029   21.724166      20.352554      1.3716129      1.7780894e-05  64233.663    
     10000   0.86685188     0.0023323615   0.00078277366  21.644879      20.357604      1.287275       0.0098636418   64271.338    
     11000   1.0057103      0.0023323615   0.00010113276  21.8558        20.362321      1.4934798      0.020705341    63999.066    
     12000   0.97901664     0.0023323615  -0.0026996968   21.871206      20.417366      1.4538397      0.0052928539   63819.419    
     13000   0.97718436     0.0023323615  -6.1641422e-06  21.963706      20.512587      1.4511188      0.025022446    63676.677    
     14000   1.0530014      0.0023323615  -0.0009993112   21.947994      20.384287      1.5637071      0.0020860456   63142.164    
     15000   0.99094527     0.0023323615   0.0011068478   21.895146      20.423592      1.4715537      0.0015091113   64077.66     
     16000   0.91285091     0.0023323615  -0.00025424173  21.87524       20.519657      1.3555836      0.0047853639   63779.745    
     17000   0.82806978     0.0023323615  -0.00054698156  21.701984      20.472301      1.2296836      0              63561.351    
     18000   1.043278       0.0023323615  -6.6143919e-05  22.003299      20.454031      1.5492679      0.0034319132   64032.276    
     19000   1.0879249      0.0023323615  -0.0017804642   21.998985      20.383416      1.6155685      0.015376175    63221.48     
     20000   1.1144506      0.0023323615   0.0025198298   22.190904      20.535944      1.6549592      0              64139.634    
     21000   1.0427751      0.0023323615   0.0011345349   22.099492      20.550971      1.548521       0.00040047813  64492.683    
     22000   1.0586695      0.0023323615   0.0017882747   22.05673       20.484606      1.5721242      0              63657.877    
     23000   1.0058426      0.0023323615  -0.0055245362   21.954628      20.460951      1.4936763      0.0027619031   62902.652    
     24000   0.98273442     0.0023323615   0.0015147357   21.862067      20.402707      1.4593606      0              63264.916    
     25000   0.95835343     0.0023323615   0.0017808774   21.937761      20.514606      1.4231548      0.00020839942  63464.115    
     26000   0.93993778     0.0023323615  -0.0021777292   21.884849      20.489042      1.3958076      0.0088889834   64062.689    
     27000   0.9308188      0.0023323615  -0.00011239942  21.842252      20.459986      1.3822659      0.021612409    61800.144    
     28000   1.0149581      0.0023323615   0.0041996387   21.906846      20.399633      1.5072129      0.0064059022   62298.158    
     29000   0.92841138     0.0023323615  -2.5398808e-05  21.987185      20.608494      1.3786909      0.0046112484   61527.792    
     30000   1.021043       0.0023323615   0.001589158    22.097958      20.581709      1.5162489      0.016799508    62034.863    
     31000   1.0465985      0.0023323615  -0.0021744286   22.037917      20.483718      1.5541987      0.0057879149   60503.417    
     32000   0.98907108     0.0023323615  -0.0015558606   22.044089      20.575318      1.4687705      0.009448173    60957.757    
     33000   1.0918536      0.0023323615  -0.0025643847   22.039275      20.417873      1.6214025      0              61588.084    
     34000   0.99801543     0.0023323615   0.0016279766   21.932339      20.450286      1.4820529      0.017384617    63123.562    
     35000   1.0352271      0.0023323615  -0.0052971711   22.076004      20.538692      1.5373122      0.00010473809  62181.104    
     36000   1.1141579      0.0023323615  -0.00093279925  22.222491      20.567966      1.6545245      0.00033678641  63287.979    
     37000   1.0369415      0.0023323615   0.00013065175  22.217841      20.677983      1.5398581      0.013788831    62089.7      
     38000   1.0515596      0.0023323615   0.0021717558   22.070766      20.5092        1.561566       0.0067894678   63251.283    
     39000   1.0238495      0.0023323615   0.00026414509  22.040141      20.519725      1.5204165      0.00044464649  63179.42     
     40000   1.0749111      0.0023323615  -0.0026849368   22.039327      20.443084      1.596243       0.012651334    61111.676    
     41000   0.99070886     0.0023323615  -0.0030385564   22.03241       20.561207      1.4712027      0.00092855646  62238.799    
     42000   0.95315224     0.0023323615   0.0019788197   21.965263      20.549832      1.4154311      0.020233689    61455.215    
     43000   1.0644183      0.0023323615  -0.0011168725   22.287172      20.706511      1.5806611      0.039694129    61815.028    
     44000   1.0253747      0.0023323615  -0.006676522    22.066233      20.543552      1.5226814      0              61588.619    
     45000   0.94179556     0.0023323615  -0.0047206018   21.970644      20.572077      1.3985664      0.019869988    60745.554    
     46000   1.0083495      0.0023323615  -0.0017646918   21.972114      20.474715      1.497399       0.00026040605  61576.305    
     47000   0.98767959     0.0023323615  -0.00080218158  22.091674      20.62497       1.4667042      0.024266258    60414.276    
     48000   1.1473449      0.0023323615  -0.0025885687   22.080512      20.376705      1.7038072      0.00065962995  61188.329    
     49000   1.0679312      0.0023323615   0.0017688272   21.970482      20.384604      1.5858779      0.014142422    63115.415    
     50000   0.9581935      0.0023323615   0.0014398836   21.955202      20.532284      1.4229173      0.0055011948   61961.504    
     51000   1.0215759      0.0023323615  -0.00093292688  21.934681      20.41764       1.5170402      0              61840.307    
     52000   0.98079591     0.0023323615   0.0040701936   21.977374      20.520892      1.4564819      0.0020862422   60787.103    
     53000   1.0090927      0.0023323615   0.0013324753   22.095438      20.596935      1.4985027      0              60653.528    
     54000   0.97519627     0.0023323615   0.0013260734   22.070151      20.621984      1.4481665      0.026885444    61640.458    
     55000   1.1805087      0.0023323615  -0.001586238    22.424088      20.671033      1.7530554      0.024690954    61546.199    
     56000   0.98387121     0.0023323615   0.0037155145   22.104425      20.643376      1.4610487      0.01435493     60919.957    
     57000   1.0723812      0.0023323615  -0.0037916262   22.122726      20.53024       1.592486       0.013635549    61720.657    
     58000   1.0152349      0.0023323615   0.00021908047  22.082827      20.575203      1.5076238      0.00077375639  60662.19     
     59000   1.1424502      0.0023323615  -0.0052108657   22.30072       20.604182      1.6965385      0.013308184    61781.741    
     60000   1.0359703      0.0023323615  -0.00097887545  22.188218      20.649802      1.538416       0.00011346294  60476.213    
     61000   1.1646839      0.0023323615  -0.002085017    22.239945      20.51039       1.7295556      0.012918477    62473.589    
     62000   1.101836       0.0023323615   0.0010338878   22.171386      20.53516       1.6362265      0.001396566    62691.951    
     63000   0.96616435     0.0023323615   0.00097550571  21.903821      20.469067      1.4347541      0.013027663    63083.268    
     64000   1.0068907      0.0023323615  -0.0020278726   22.061652      20.566419      1.4952327      0.013750276    62292.709    
     65000   0.98723233     0.0023323615   0.0022441476   22.031073      20.565033      1.46604        0.0066686189   60679.711    
     66000   1.0273881      0.0023323615  -0.0003515278   22.183579      20.657908      1.5256713      0              61414.638    
     67000   0.96528212     0.0023323615  -0.00014822656  21.9396        20.506156      1.4334439      0.010365557    61733.673    
     68000   1.069702       0.0023323615   9.4754668e-05  22.081119      20.492611      1.5885075      0.00049153926  60305.538    
     69000   1.1229502      0.0023323615   0.0011504079   22.200329      20.532748      1.6675811      0.0068454249   62484.418    
     70000   1.0062775      0.0023323615  -0.00085311964  22.094021      20.599699      1.4943221      0.013222355    61334.819    
     71000   1.0906935      0.0023323615   0.00015260357  22.145362      20.525682      1.6196798      0.018338513    61528.477    
     72000   1.010401       0.0023323615  -6.0487182e-06  22.154105      20.653659      1.5004455      0.0013793953   60420.569    
     73000   1.1177599      0.0023323615  -0.0034084797   22.254435      20.594562      1.6598735      0.00011231735  63275.981    
     74000   0.9768019      0.0023323615   0.00016143893  22.07312       20.622569      1.4505508      0.0084515956   61773.257    
     75000   1.1360996      0.0023323615   0.002159116    22.161595      20.474487      1.6871079      0.0089909162   62266.365    
     76000   0.97379329     0.0023323615  -0.00068458621  21.988928      20.542845      1.446083       0              61260.321    
     77000   0.94876793     0.0023323615  -0.0016073976   21.923496      20.514575      1.4089204      0.017745108    60578.393    
     78000   0.83947996     0.0023323615  -0.00062768559  21.726727      20.480099      1.2466277      0.0054510099   61174.12     
     79000   1.0090614      0.0023323615  -0.00080262643  22.068192      20.569736      1.4984562      0.00023011166  62385.53     
     80000   1.1217643      0.0023323615  -0.0038177864   22.367902      20.702082      1.66582        0.032902439    61757.166    
     81000   1.0240158      0.0023323615   0.00023547123  22.031597      20.510933      1.5206635      0.0068767308   60621.628    
     82000   1.003236       0.0023323615  -0.0022802982   21.894199      20.404393      1.4898055      0.019136282    59407.308    
     83000   1.0554159      0.0023323615   0.004011718    22.104562      20.537269      1.5672927      0.0080869707   59666.127    
     84000   0.83527346     0.0023323615  -0.0034122221   21.874648      20.634267      1.2403811      0.0030083664   58124.825    
     85000   1.036002       0.0023323615   0.0013573923   21.962923      20.42446       1.5384629      0.015709144    60496.481    
     86000   0.9432002      0.0023323615  -0.0032183248   21.913588      20.512936      1.4006523      0.013730309    61268.556    
     87000   0.95566008     0.0023323615  -0.00049614223  21.91653       20.497375      1.4191552      0.0035862035   60322.155    
     88000   0.93373351     0.0023323615  -0.00097093893  21.870485      20.483891      1.3865943      0.0018212145   60582.11     
     89000   0.9684944      0.0023323615  -0.00047342045  21.973429      20.535215      1.4382142      0.00087524744  61450.899    
     90000   0.98293324     0.0023323615  -0.0032204602   22.050919      20.591263      1.4596559      0.015353933    62155.897    
     91000   1.0832827      0.0023323615   0.0048517083   22.11977       20.511095      1.6086749      0.0052867789   62018.558    
     92000   0.85899662     0.0023323615  -0.0013049519   21.765697      20.490087      1.27561        0.0024124001   61246.409    
     93000   0.96176266     0.0023323615  -4.4223672e-05  21.874222      20.446004      1.4282176      0.0045653365   61917.189    
     94000   0.96019503     0.0023323615   0.00024459347  21.944954      20.519064      1.4258896      3.8053462e-05  62410.067    
     95000   0.94702149     0.0023323615  -0.0033658915   21.86315       20.456823      1.4063269      0              62977.749    
     96000   0.91119348     0.0023323615  -0.0013197298   21.825018      20.471896      1.3531223      0.00043282989  61992.867    
     97000   1.0016687      0.0023323615  -0.0019514304   22.013024      20.525546      1.487478       0.0048369955   61173.293    
     98000   1.02143        0.0023323615  -0.0057874974   22.177965      20.661142      1.5168235      0              61016.781    
     99000   1.032786       0.0023323615   0.0018228259   21.975336      20.441649      1.5336871      7.1595851e-05  63333.886    
    100000   1.0594928      0.0023323615   0.0036169719   22.011024      20.437677      1.5733468      0.00032948157  61717.602    
    100362   1.1904942      0.0023323615  -0.00089755607  22.316856      20.548972      1.7678839      0.00063845255  59947.63     
Loop time of 1.61008 on 1 procs for 100000 steps with 100 atoms

Performance: 26830940.341 tau/day, 62108.658 timesteps/s
100.0% CPU use with 1 MPI tasks x 1 OpenMP threads

MPI task timing breakdown:
Section |  min time  |  avg time  |  max time  |%varavg| %total
---------------------------------------------------------------
Pair    | 0.05873    | 0.05873    | 0.05873    |   0.0 |  3.65
Bond    | 0.15025    | 0.15025    | 0.15025    |   0.0 |  9.33
Neigh   | 0.92425    | 0.92425    | 0.92425    |   0.0 | 57.40
Comm    | 0.080884   | 0.080884   | 0.080884   |   0.0 |  5.02
Output  | 0.0023965  | 0.0023965  | 0.0023965  |   0.0 |  0.15
Modify  | 0.35701    | 0.35701    | 0.35701    |   0.0 | 22.17
Other   |            | 0.03656    |            |       |  2.27

Nlocal:            100 ave         100 max         100 min
Histogram: 1 0 0 0 0 0 0 0 0 0
Nghost:             60 ave          60 max          60 min
Histogram: 1 0 0 0 0 0 0 0 0 0
Neighs:             36 ave          36 max          36 min
Histogram: 1 0 0 0 0 0 0 0 0 0

Total # of neighbors = 36
Ave neighs/atom = 0.36
Ave special neighs/atom = 1.98
Neighbor list builds = 9821
Dangerous builds = 8265
unfix           nvtSoft
unfix           rampSoft
reset_timestep  0

write_data      ${outputfile_relaxed}
write_data      5_relaxed.data
System init for write_data ...
Generated 0 of 6 mixed pair_coeff terms from geometric mixing rule
WARNING: Communication cutoff 1.3 is shorter than a bond length based estimate of 1.7550000000000001. This may lead to errors. (src/comm.cpp:727)
WARNING: Not all mixed pair coeffs generated from mixing. Use write_data with 'pair ij' option to store all pair coeffs. (src/write_data.cpp:309)

###########################################################################
# Full LJ with Coulomb
######################################################################

# Cutoffs and parameters:
# - Values: Marcel Verkade's Bachelor Thesis
# - Mapping to atom groups: Patrick Onck's paper
# - 1: aliphatic, 2: aromatic, 3: anion, 4: cation
# pair_style	lj/cut/coul/cut <lj_cut_global> <coul_cut_global>
# pair_coeff	<type_1>  <type_2>  <eps>  <sigma>  <r_cut_lj>  <r_cut_coul>

# Problem: Onck's model is much more complex, and Marcel has no sigma reported
# Using sigma=1 randomly

variable		glob_ljeps equal 1.0
variable		glob_ljsig 	equal 1.0
variable		glob_coulcut equal 10.0
variable		att_ljcut equal 2.50
variable		rep_ljcut equal 1.12

pair_style		lj/cut/coul/cut 						${att_ljcut} 	${glob_coulcut}
pair_style		lj/cut/coul/cut 						2.5 	${glob_coulcut}
pair_style		lj/cut/coul/cut 						2.5 	10
pair_coeff		1 1 	${glob_ljeps} 	${glob_ljsig}	${att_ljcut} 	${glob_coulcut}
pair_coeff		1 1 	1 	${glob_ljsig}	${att_ljcut} 	${glob_coulcut}
pair_coeff		1 1 	1 	1	${att_ljcut} 	${glob_coulcut}
pair_coeff		1 1 	1 	1	2.5 	${glob_coulcut}
pair_coeff		1 1 	1 	1	2.5 	10
pair_coeff		1 2 	${glob_ljeps} 	${glob_ljsig}	${att_ljcut} 	${glob_coulcut}
pair_coeff		1 2 	1 	${glob_ljsig}	${att_ljcut} 	${glob_coulcut}
pair_coeff		1 2 	1 	1	${att_ljcut} 	${glob_coulcut}
pair_coeff		1 2 	1 	1	2.5 	${glob_coulcut}
pair_coeff		1 2 	1 	1	2.5 	10
pair_coeff		1 3 	${glob_ljeps} 	${glob_ljsig}	${rep_ljcut} 	${glob_coulcut}
pair_coeff		1 3 	1 	${glob_ljsig}	${rep_ljcut} 	${glob_coulcut}
pair_coeff		1 3 	1 	1	${rep_ljcut} 	${glob_coulcut}
pair_coeff		1 3 	1 	1	1.12 	${glob_coulcut}
pair_coeff		1 3 	1 	1	1.12 	10
pair_coeff		1 4 	${glob_ljeps} 	${glob_ljsig}	${rep_ljcut} 	${glob_coulcut}
pair_coeff		1 4 	1 	${glob_ljsig}	${rep_ljcut} 	${glob_coulcut}
pair_coeff		1 4 	1 	1	${rep_ljcut} 	${glob_coulcut}
pair_coeff		1 4 	1 	1	1.12 	${glob_coulcut}
pair_coeff		1 4 	1 	1	1.12 	10
pair_coeff		2 2 	${glob_ljeps} 	${glob_ljsig}	${att_ljcut} 	${glob_coulcut}
pair_coeff		2 2 	1 	${glob_ljsig}	${att_ljcut} 	${glob_coulcut}
pair_coeff		2 2 	1 	1	${att_ljcut} 	${glob_coulcut}
pair_coeff		2 2 	1 	1	2.5 	${glob_coulcut}
pair_coeff		2 2 	1 	1	2.5 	10
pair_coeff		2 3 	${glob_ljeps} 	${glob_ljsig}	${rep_ljcut} 	${glob_coulcut}
pair_coeff		2 3 	1 	${glob_ljsig}	${rep_ljcut} 	${glob_coulcut}
pair_coeff		2 3 	1 	1	${rep_ljcut} 	${glob_coulcut}
pair_coeff		2 3 	1 	1	1.12 	${glob_coulcut}
pair_coeff		2 3 	1 	1	1.12 	10
pair_coeff		2 4 	${glob_ljeps} 	${glob_ljsig}	${att_ljcut} 	${glob_coulcut}
pair_coeff		2 4 	1 	${glob_ljsig}	${att_ljcut} 	${glob_coulcut}
pair_coeff		2 4 	1 	1	${att_ljcut} 	${glob_coulcut}
pair_coeff		2 4 	1 	1	2.5 	${glob_coulcut}
pair_coeff		2 4 	1 	1	2.5 	10
pair_coeff		3 3 	${glob_ljeps} 	${glob_ljsig}	${rep_ljcut} 	${glob_coulcut}
pair_coeff		3 3 	1 	${glob_ljsig}	${rep_ljcut} 	${glob_coulcut}
pair_coeff		3 3 	1 	1	${rep_ljcut} 	${glob_coulcut}
pair_coeff		3 3 	1 	1	1.12 	${glob_coulcut}
pair_coeff		3 3 	1 	1	1.12 	10
pair_coeff		3 4 	${glob_ljeps} 	${glob_ljsig}	${att_ljcut} 	${glob_coulcut}
pair_coeff		3 4 	1 	${glob_ljsig}	${att_ljcut} 	${glob_coulcut}
pair_coeff		3 4 	1 	1	${att_ljcut} 	${glob_coulcut}
pair_coeff		3 4 	1 	1	2.5 	${glob_coulcut}
pair_coeff		3 4 	1 	1	2.5 	10
pair_coeff		4 4 	${glob_ljeps} 	${glob_ljsig}	${rep_ljcut} 	${glob_coulcut}
pair_coeff		4 4 	1 	${glob_ljsig}	${rep_ljcut} 	${glob_coulcut}
pair_coeff		4 4 	1 	1	${rep_ljcut} 	${glob_coulcut}
pair_coeff		4 4 	1 	1	1.12 	${glob_coulcut}
pair_coeff		4 4 	1 	1	1.12 	10


fix             noDrift 	all momentum 10 linear 1 1 1
fix             nvt1 		all nvt temp ${Temp} ${Temp} 0.5
fix             nvt1 		all nvt temp 1 ${Temp} 0.5
fix             nvt1 		all nvt temp 1 1 0.5

# dump          assemble 	all custom 1000 				${outputfile_selfasb} id type xu yu zu vx vy vz
dump            lindump 	all custom ${subsample_rate} 	${outputfile_trajlin} id type xu yu zu vx vy vz
dump            lindump 	all custom 1000 	${outputfile_trajlin} id type xu yu zu vx vy vz
dump            lindump 	all custom 1000 	6_b_trajlin.data id type xu yu zu vx vy vz

run             ${runtime}
run             1000000
Generated 0 of 6 mixed pair_coeff terms from geometric mixing rule
Neighbor list info ...
  update every 1 steps, delay 10 steps, check yes
  max neighbors/atom: 2000, page size: 100000
  master list distance cutoff = 10.3
  ghost atom cutoff = 10.3
  binsize = 5.15, bins = 7 7 7
  1 neighbor lists, perpetual/occasional/extra = 1 0 0
  (1) pair lj/cut/coul/cut, perpetual
      attributes: half, newton on
      pair build: half/bin/newton
      stencil: half/bin/3d
      bin: standard
Per MPI rank memory allocation (min/avg/max) = 7.712 | 7.712 | 7.712 Mbytes
   Step          Temp         Density         Press          TotEng         PotEng         KinEng         E_pair         S/CPU     
         0   1.1904942      0.0023323615  -0.0016763375   21.893936      20.126052      1.7678839     -0.42228173     0            
      1000   0.95886965     0.0023323615  -0.0023073565   21.155445      19.731524      1.4239214     -0.75684017     24155.462    
      2000   1.0591669      0.0023323615  -0.001914745    21.053968      19.481105      1.5728629     -0.97300949     22057.371    
      3000   0.99661205     0.0023323615   0.0027826249   20.893205      19.413236      1.4799689     -1.1344918      19378.327    
      4000   1.0459723      0.0023323615   0.00029536756  20.839865      19.286596      1.5532688     -1.1652408      16887.168    
      5000   0.93245        0.0023323615  -0.00040239618  20.68654       19.301852      1.3846883     -1.1634295      15924.289    
      6000   0.88311788     0.0023323615  -0.0019078284   20.430114      19.118684      1.3114301     -1.4372719      16365.202    
      7000   0.92195415     0.0023323615   5.8452599e-05  20.376285      19.007183      1.3691019     -1.4612138      16554.284    
      8000   0.95673145     0.0023323615  -0.0022568318   20.432055      19.011309      1.4207462     -1.4569652      14874.664    
      9000   0.93695421     0.0023323615  -0.0015163214   20.394898      19.003521      1.391377      -1.4748179      14152.931    
     10000   1.1091626      0.0023323615  -0.00036718102  20.6262        18.979094      1.6471064     -1.4853962      13824.204    
     11000   0.98862605     0.0023323615  -0.0018470612   20.338545      18.870435      1.4681097     -1.5193077      14485.902    
     12000   0.90996041     0.0023323615   0.00083434224  20.546605      19.195313      1.3512912     -1.3766686      15587.405    
     13000   0.99799736     0.0023323615  -0.0048315389   20.629109      19.147083      1.4820261     -1.3641035      15768.036    
     14000   1.0353906      0.0023323615  -0.0036497804   20.459824      18.922269      1.537555      -1.641754       14558.238    
     15000   0.97217941     0.0023323615  -0.0045704981   20.245428      18.801741      1.4436864     -1.7627075      14401.466    
     16000   0.93925834     0.0023323615  -0.0013932168   20.352211      18.957413      1.3947986     -1.4470746      14947.456    
     17000   1.0552643      0.0023323615   0.0026881527   20.586856      19.019788      1.5670674     -1.5242747      15468.285    
     18000   0.90825047     0.0023323615  -0.0015748988   20.322152      18.9734        1.3487519     -1.495058       15269.389    
     19000   1.095629       0.0023323615   0.00206987     20.465524      18.838515      1.6270091     -1.6542251      10581.986    
     20000   0.88054596     0.0023323615   0.0018052214   20.000334      18.692723      1.3076108     -1.7965597      15055.951    
     21000   1.0350743      0.0023323615   0.00088936662  20.311052      18.773966      1.5370853     -1.6558532      14657.416    
     22000   1.0483291      0.0023323615  -0.0012751519   20.401989      18.845221      1.5567688     -1.6250167      14500.72     
     23000   0.91679877     0.0023323615  -0.0032810308   20.219399      18.857952      1.3614462     -1.6418176      14342.251    
     24000   1.0685888      0.0023323615   0.0021375559   20.250248      18.663393      1.5868543     -1.7861196      14051.312    
     25000   1.0644205      0.0023323615   0.0017800053   20.247062      18.666398      1.5806645     -1.698229       13991.43     
     26000   1.050415       0.0023323615  -0.0028748658   20.610682      19.050815      1.5598663     -1.554136       14572.13     
     27000   1.0017598      0.0023323615   0.0026422909   20.188513      18.700899      1.4876133     -1.7470631      15955.281    
     28000   1.0815277      0.0023323615   0.00058615051  20.573492      18.967424      1.6060686     -1.5431805      15774.709    
     29000   1.1620349      0.0023323615   0.00023948325  20.675209      18.949588      1.7256219     -1.4591765      15156.995    
     30000   0.95385096     0.0023323615   0.0015561156   20.376963      18.960495      1.4164687     -1.4781406      14230.761    
     31000   1.1080421      0.0023323615  -0.0019767496   20.439907      18.794465      1.6454426     -1.7434336      13966.308    
     32000   1.0419193      0.0023323615   0.0022191976   20.282633      18.735383      1.5472501     -1.7167572      14669.57     
     33000   0.99096652     0.0023323615   0.0034101111   20.541872      19.070287      1.4715853     -1.4593615      14869.217    
     34000   0.99126658     0.0023323615   0.0041669326   20.019369      18.547339      1.4720309     -1.8480591      14118.187    
     35000   1.0359769      0.0023323615   0.0018294723   20.438558      18.900132      1.5384257     -1.6326836      13742.377    
     36000   1.015527       0.0023323615  -0.0033317978   20.681337      19.17328       1.5080576     -1.3983925      13997.538    
     37000   1.0158984      0.0023323615   3.3176878e-05  20.45087       18.942261      1.5086092     -1.5734104      13884.348    
     38000   1.0195198      0.0023323615   0.0034927274   20.183978      18.669992      1.5139869     -1.7570898      13679.771    
     39000   0.97659464     0.0023323615   0.00066206245  20.24257       18.792327      1.450243      -1.6529725      13872.694    
     40000   0.99084784     0.0023323615   0.0049630638   20.360535      18.889126      1.471409      -1.660451       14336.711    
     41000   0.96408053     0.0023323615  -0.0011317545   20.031452      18.599793      1.4316596     -1.7766048      14055.287    
     42000   1.0389539      0.0023323615  -0.00067081563  20.275315      18.732469      1.5428465     -1.625883       13841.755    
     43000   0.99598668     0.0023323615   0.002568009    20.352437      18.873397      1.4790402     -1.5631158      14015.211    
     44000   1.0119906      0.0023323615  -0.00010388372  20.553505      19.050699      1.502806      -1.4827277      15490.241    
     45000   0.92068022     0.0023323615  -0.0014131958   20.63013       19.26292       1.3672101     -1.2166438      17666.203    
     46000   0.98707571     0.0023323615  -0.001747323    20.745149      19.279341      1.4658074     -1.1633191      19556.736    
     47000   1.0147391      0.0023323615   0.00090505992  20.581402      19.074515      1.5068875     -1.3796041      20348.296    
     48000   1.1325272      0.0023323615   0.003374744    20.864962      19.183159      1.6818029     -1.4237844      19147.463    
     49000   0.95279807     0.0023323615   0.0015786719   20.542065      19.12716       1.4149051     -1.397124       16597.98     
     50000   0.87989612     0.0023323615  -0.0019063087   20.445888      19.139243      1.3066457     -1.1797353      15312.378    
     51000   0.94914398     0.0023323615   0.0035832381   20.507143      19.097664      1.4094788     -1.3234677      15351.369    
     52000   0.91237552     0.0023323615  -0.00051854207  20.691161      19.336283      1.3548776     -1.197328       15594.253    
     53000   0.97614659     0.0023323615   0.00018694349  20.702116      19.252538      1.4495777     -1.2630534      16098.734    
     54000   1.0288024      0.0023323615  -0.0001456496   20.420721      18.892949      1.5277716     -1.4393309      15366.017    
     55000   1.1049055      0.0023323615   0.00079057962  20.730874      19.090089      1.6407847     -1.3782973      14551.253    
     56000   1.1122771      0.0023323615   0.002796363    20.584017      18.932285      1.6517315     -1.5920829      14240.568    
     57000   0.97873163     0.0023323615   0.00036538162  20.33961       18.886194      1.4534165     -1.5694433      13773.988    
     58000   1.1063044      0.0023323615  -0.000917483    20.499835      18.856973      1.6428621     -1.6342015      13808.355    
     59000   0.83910747     0.0023323615   0.0013799442   20.312966      19.066892      1.2460746     -1.4700698      14625.543    
     60000   0.901201       0.0023323615   0.00059612484  20.458268      19.119984      1.3382835     -1.4645449      15408.219    
     61000   1.0708046      0.0023323615   0.0019811995   20.263219      18.673074      1.5901448     -1.8527817      15142.21     
     62000   1.1308726      0.0023323615  -0.0017924716   20.759722      19.080376      1.6793458     -1.4187227      14387.209    
     63000   0.99985315     0.0023323615  -0.0010672779   20.512346      19.027565      1.4847819     -1.3915097      14289.412    
     64000   1.0121622      0.0023323615  -0.00038628248  20.48989       18.986829      1.5030608     -1.4089052      14521.483    
     65000   1.0535315      0.0023323615   0.00044665217  20.729826      19.165332      1.5644943     -1.421323       15381.266    
     66000   0.95600408     0.0023323615  -0.0022333332   20.528946      19.10928       1.4196661     -1.456677       15257.73     
     67000   1.0675181      0.0023323615   0.001012792    20.716615      19.131351      1.5852643     -1.3627703      14895.299    
     68000   0.92134689     0.0023323615   2.5732865e-05  20.289125      18.920925      1.3682001     -1.4860388      15884.502    
     69000   1.2305425      0.0023323615   0.0021164496   20.989873      19.162518      1.8273556     -1.3680374      17668.63     
     70000   1.0620741      0.0023323615  -0.00098461977  20.612229      19.035049      1.57718       -1.4251121      18704.546    
     71000   1.1156079      0.0023323615  -0.0011522611   20.861776      19.205098      1.6566777     -1.3029858      19087.624    
     72000   0.99659155     0.0023323615   0.002948362    20.827242      19.347304      1.4799384     -1.2856984      18801.731    
     73000   0.9292194      0.0023323615  -0.0031636162   20.663607      19.283716      1.3798908     -1.2387441      18018.384    
     74000   1.0676172      0.0023323615  -0.00037689769  20.433596      18.848185      1.5854116     -1.6313535      16309.05     
     75000   0.99547226     0.0023323615  -0.00038345839  20.209526      18.731249      1.4782763     -1.702873       15205.728    
     76000   1.1098224      0.0023323615   0.0021987074   20.690699      19.042613      1.6480862     -1.5133417      15158.07     
     77000   0.96447854     0.0023323615   0.0037868663   20.550892      19.118641      1.4322506     -1.3682869      15488.664    
     78000   1.1565512      0.0023323615  -0.00034408326  20.681979      18.964501      1.7174786     -1.5313599      16190.309    
     79000   0.98477254     0.0023323615   0.0017258056   20.523271      19.060884      1.4623872     -1.4472416      18147.512    
     80000   1.1033145      0.0023323615   8.7812412e-05  20.650522      19.0121        1.6384221     -1.5548979      19755.876    
     81000   0.93580339     0.0023323615  -4.26462e-05    20.224303      18.834635      1.389668      -1.6534816      20155.403    
     82000   1.0506526      0.0023323615   0.0042491504   20.535549      18.975329      1.5602191     -1.5553783      19804.303    
     83000   0.85914        0.0023323615   0.0043326745   20.270966      18.995143      1.2758229     -1.5487122      17922.032    
     84000   0.95180969     0.0023323615  -0.0040455795   20.370129      18.956691      1.4134374     -1.4795604      16833.079    
     85000   0.87144252     0.0023323615  -0.0022683118   20.097927      18.803835      1.2940921     -1.6360176      16748.713    
     86000   0.86134551     0.0023323615  -0.0032449909   20.534358      19.25526       1.2790981     -1.3274091      16119.565    
     87000   0.97158491     0.0023323615  -0.0020965685   20.323036      18.880232      1.4428036     -1.6048573      15505.083    
     88000   0.93561219     0.0023323615  -0.0033511924   20.46085       19.071466      1.3893841     -1.5384298      15010.831    
     89000   0.83330128     0.0023323615   0.0019343424   20.296486      19.059034      1.2374524     -1.4104         14626.671    
     90000   1.0577172      0.0023323615  -0.0011706528   20.498687      18.927977      1.57071       -1.4149173      14230.778    
     91000   1.1184648      0.0023323615  -0.00071822361  20.502159      18.841239      1.6609202     -1.6419362      14310.38     
     92000   0.86807885     0.0023323615  -0.00029378336  20.441417      19.15232       1.2890971     -1.396324       14722.768    
     93000   0.91971292     0.0023323615  -0.00024329017  20.557069      19.191295      1.3657737     -1.2841119      15195.105    
     94000   1.030733       0.0023323615   0.0016752693   20.699218      19.16858       1.5306385     -1.3565851      16794.91     
     95000   0.97255549     0.0023323615   0.00072814435  20.522889      19.078644      1.4442449     -1.4477874      19106.745    
     96000   1.0951944      0.0023323615   0.00094836265  20.790879      19.164515      1.6263637     -1.385243       19900.093    
     97000   0.7880122      0.0023323615  -0.00063095464  20.338569      19.168371      1.1701981     -1.297985       20099.028    
     98000   1.0544251      0.0023323615  -0.0006563371   20.593896      19.028074      1.5658212     -1.4049384      18581.2      
     99000   1.0409612      0.0023323615   0.002105116    20.435702      18.889874      1.5458274     -1.6334448      16280.349    
    100000   0.90772537     0.0023323615   0.0036147178   20.054737      18.706765      1.3479722     -1.8104672      15818.114    
    101000   0.99273496     0.0023323615  -0.0017075322   20.552405      19.078194      1.4742114     -1.5464794      16183.502    
    102000   1.0318508      0.0023323615   3.4826703e-05  20.672748      19.140449      1.5322985     -1.3922102      17331.172    
    103000   0.84648178     0.0023323615  -0.00078476443  20.153865      18.896839      1.2570254     -1.5450664      18369.426    
    104000   0.98340525     0.0023323615  -0.0026098449   20.603027      19.14267       1.4603568     -1.3570677      17742.541    
    105000   1.0280475      0.0023323615   0.0029253711   20.332171      18.805521      1.5266505     -1.6120626      16241.251    
    106000   1.0518131      0.0023323615   0.0019901146   20.464514      18.902572      1.5619424     -1.6078117      15449.811    
    107000   1.0359875      0.0023323615  -0.002979231    20.637864      19.099423      1.5384415     -1.4339498      15714.226    
    108000   0.82175639     0.0023323615   0.0015910303   20.097815      18.877506      1.2203082     -1.6135326      16946.049    
    109000   0.82121489     0.0023323615  -0.00080183404  20.120259      18.900755      1.2195041     -1.597246       17331.075    
    110000   0.98386121     0.0023323615  -0.001473151    20.176921      18.715887      1.4610339     -1.6514169      15953.871    
    111000   1.0772494      0.0023323615  -0.00022405441  20.369341      18.769626      1.5997153     -1.6714829      14646.619    
    112000   1.065657       0.0023323615   0.001125347    20.520577      18.938076      1.5825007     -1.4725728      14464.624    
    113000   0.99948328     0.0023323615  -0.00057758359  20.745569      19.261336      1.4842327     -1.2835148      14745.399    
    114000   0.97399784     0.0023323615   0.0014835874   20.473361      19.026974      1.4463868     -1.3101147      15704.499    
    115000   0.86649339     0.0023323615   0.0020818381   20.284518      18.997776      1.2867427     -1.4555849      17584.581    
    116000   1.0734021      0.0023323615   0.00185517     20.653006      19.059004      1.5940021     -1.3464031      19197.712    
    117000   0.89195735     0.0023323615  -0.0034842643   20.327903      19.003346      1.3245567     -1.472598       19968.726    
    118000   1.0262368      0.0023323615  -0.0030867593   20.546378      19.022417      1.5239617     -1.4042759      18307.871    
    119000   1.0082858      0.0023323615   8.3516655e-05  20.516036      19.018732      1.4973044     -1.4154372      15422.592    
    120000   1.0938302      0.0023323615  -0.00036191148  20.843793      19.219456      1.6243378     -1.3302043      14711.319    
    121000   1.1122515      0.0023323615   0.0038633309   20.767734      19.11604       1.6516935     -1.4820535      15442.9      
    122000   1.0123613      0.0023323615   0.00048755     20.791208      19.287851      1.5033565     -1.2259853      17551.174    
    123000   1.0693264      0.0023323615   3.4553557e-05  20.748343      19.160393      1.5879498     -1.3338618      19529.567    
    124000   0.96461079     0.0023323615  -0.00070121053  20.666225      19.233778      1.432447      -1.2166522      19819.017    
    125000   0.84315562     0.0023323615  -0.00042824953  20.257472      19.005386      1.2520861     -1.6085676      18582.912    
    126000   1.0239131      0.0023323615  -2.086692e-05   20.138208      18.617698      1.5205109     -1.7864926      15458.626    
    127000   0.96400949     0.0023323615  -0.0020752516   20.174568      18.743014      1.4315541     -1.706054       13830.371    
    128000   0.94344911     0.0023323615  -0.0032345027   20.137605      18.736583      1.4010219     -1.7719945      13767.284    
    129000   0.97044367     0.0023323615   0.0013743404   20.236786      18.795677      1.4411088     -1.5931482      14536.491    
    130000   1.0263948      0.0023323615   0.0001258532   20.302135      18.777939      1.5241963     -1.6782881      17302.705    
    131000   1.0596566      0.0023323615  -3.1374549e-05  20.585149      19.011559      1.5735901     -1.4280916      18812.5      
    132000   0.84339365     0.0023323615  -0.0016503468   20.126646      18.874206      1.2524396     -1.6172296      17372.045    
    133000   0.97561556     0.0023323615   0.0035229918   20.646901      19.198112      1.4487891     -1.352085       15843.715    
    134000   0.9268221      0.0023323615  -0.0039655207   20.347242      18.970911      1.3763308     -1.594824       16021.58     
    135000   1.0354828      0.0023323615  -0.0020192062   20.508538      18.970846      1.5376919     -1.4715888      17589.958    
    136000   0.99220519     0.0023323615  -0.0086840027   20.603333      19.129909      1.4734247     -1.4945566      18686.861    
    137000   1.1211051      0.0023323615   0.0010219315   20.744387      19.079545      1.6648411     -1.4963989      18974.95     
    138000   0.97526423     0.0023323615  -0.0030470799   20.488859      19.040591      1.4482674     -1.4858015      18378.921    
    139000   1.1605272      0.0023323615   0.0022209382   20.652001      18.928618      1.7233829     -1.5879891      15598.86     
    140000   1.0462837      0.0023323615  -0.001302879    20.450711      18.89698       1.5537312     -1.5394797      13982.782    
    141000   1.038463       0.0023323615   0.00020828021  20.413321      18.871204      1.5421176     -1.6242855      13843.277    
    142000   1.0445804      0.0023323615  -0.0013886789   20.498922      18.94772       1.551202      -1.582715       15138.002    
    143000   0.93258893     0.0023323615   0.00082095992  20.501071      19.116177      1.3848946     -1.3950198      16743.516    
    144000   1.0593813      0.0023323615   0.0014026294   20.802929      19.229748      1.5731812     -1.300996       17053.88     
    145000   1.05375        0.0023323615   0.0028362268   20.534523      18.969704      1.5648188     -1.477979       16552.837    
    146000   1.091739       0.0023323615   0.00037463578  20.331376      18.710144      1.6212324     -1.7036456      15144.378    
    147000   1.0084007      0.0023323615  -0.0015851893   20.464172      18.966697      1.4974751     -1.5531538      15038.328    
    148000   1.0417371      0.0023323615   0.0013938264   20.423214      18.876234      1.5469797     -1.665828       15257.468    
    149000   1.0803645      0.0023323615   0.001654293    20.707994      19.103653      1.6043413     -1.3604414      16137.563    
    150000   1.0934283      0.0023323615   0.0038882202   20.890834      19.267093      1.6237411     -1.2473552      16546.638    
    151000   1.0877231      0.0023323615  -0.0023924196   20.791541      19.176272      1.6152688     -1.2559482      17714.985    
    152000   0.98165181     0.0023323615  -0.00046545985  20.832241      19.374489      1.4577529     -1.1840898      17271.51     
    153000   1.0964123      0.0023323615   0.0004254554   20.680206      19.052033      1.6281722     -1.3602951      16106.798    
    154000   1.109743       0.0023323615  -0.00079920539  20.548606      18.900637      1.6479683     -1.6740982      15710.501    
    155000   0.92879926     0.0023323615  -0.0024888909   20.249122      18.869856      1.3792669     -1.6173843      15273.55     
    156000   1.1967002      0.0023323615   0.00052193176  20.795743      19.018643      1.7770998     -1.5482147      15464.324    
    157000   0.98726558     0.0023323615   0.00023411857  20.464554      18.998464      1.4660894     -1.4763497      16371.687    
    158000   1.0141571      0.0023323615   0.0013004287   20.616199      19.110176      1.5060234     -1.4085204      16890.812    
    159000   1.053166       0.0023323615  -0.002923643    20.573096      19.009145      1.5639515     -1.4875761      16861.162    
    160000   0.87044909     0.0023323615   0.0051869894   20.245494      18.952877      1.2926169     -1.5764917      16670.048    
    161000   1.1226399      0.0023323615  -0.0015563074   20.58825       18.92113       1.6671202     -1.4571929      15919.367    
    162000   0.94853946     0.0023323615   0.0021700988   20.285154      18.876573      1.4085811     -1.567358       15937.806    
    163000   0.98618631     0.0023323615  -0.0016350149   20.477814      19.013328      1.4644867     -1.4860844      16872.407    
    164000   1.1995004      0.0023323615  -4.8311224e-05  20.798994      19.017736      1.7812581     -1.5426256      17804.336    
    165000   0.95537751     0.0023323615  -0.0030058371   20.267896      18.84916       1.4187356     -1.6516996      16742.122    
    166000   0.83876298     0.0023323615   0.0082299858   20.151857      18.906294      1.245563      -1.5211864      16346.864    
    167000   0.95542242     0.0023323615  -0.0020261415   20.475132      19.05633       1.4188023     -1.3772012      16525.748    
    168000   1.113105       0.0023323615  -0.0027844422   20.869117      19.216156      1.652961      -1.2338916      17256.502    
    169000   0.81255207     0.0023323615  -0.00094107782  20.322545      19.115905      1.2066398     -1.3183914      17005.806    
    170000   0.99090206     0.0023323615   0.002082268    20.33253       18.861041      1.4714896     -1.4979663      16381.494    
    171000   0.98746212     0.0023323615  -0.0027965534   20.44245       18.976069      1.4663813     -1.4560225      16023.092    
    172000   1.0830063      0.0023323615  -0.0012723972   20.289593      18.681328      1.6082643     -1.7666629      15796.422    
    173000   0.88305371     0.0023323615  -0.0023584081   20.217633      18.906298      1.3113348     -1.5953152      15746.548    
    174000   0.97181471     0.0023323615  -0.0012095723   20.137374      18.694229      1.4431448     -1.8447463      15244.64     
    175000   1.0501385      0.0023323615   0.0010711701   20.186481      18.627025      1.5594556     -1.80613        14641.991    
    176000   0.98893922     0.0023323615   0.0016547148   20.164693      18.696118      1.4685747     -1.6264686      14623.771    
    177000   1.2058778      0.0023323615   0.00035347557  20.734974      18.944245      1.7907285     -1.4773086      15480.199    
    178000   0.87854866     0.0023323615   0.0012608427   20.124563      18.819919      1.3046448     -1.5719993      15989.498    
    179000   0.93705673     0.0023323615   0.0013129719   20.316113      18.924584      1.3915292     -1.4832648      15827.892    
    180000   1.0481483      0.0023323615   0.001241182    20.564154      19.007654      1.5565003     -1.3582127      15166.931    
    181000   0.96549152     0.0023323615  -0.0023765849   20.24562       18.811865      1.4337549     -1.6366797      14512.202    
    182000   1.0526992      0.0023323615  -0.0015395137   20.272074      18.708816      1.5632584     -1.7017458      14534.378    
    183000   1.1045666      0.0023323615   0.0010329488   20.531191      18.890909      1.6402814     -1.6250559      14864.049    
    184000   0.94369638     0.0023323615  -0.00036437279  20.392062      18.990673      1.4013891     -1.3954371      15079.093    
    185000   0.91239983     0.0023323615   0.0014425684   20.196023      18.841109      1.3549138     -1.5776502      14971.945    
    186000   1.0429702      0.0023323615   0.0018372825   20.178067      18.629256      1.5488107     -1.7831017      15200.663    
    187000   0.98797808     0.0023323615  -0.00083745618  20.167428      18.70028       1.4671474     -1.7364065      15584.502    
    188000   0.86882271     0.0023323615  -0.0016825795   20.206729      18.916527      1.2902017     -1.5383692      16095.764    
    189000   0.94287348     0.0023323615   0.0013534243   20.176962      18.776795      1.4001671     -1.6330834      16461.413    
    190000   1.1527326      0.0023323615   0.002082642    20.392068      18.68026       1.7118079     -1.7935276      15646.243    
    191000   1.0556825      0.0023323615   0.0023137096   20.303377      18.735689      1.5676885     -1.7510724      14848.692    
    192000   1.0335294      0.0023323615   0.0001451761   20.308487      18.773696      1.5347911     -1.6777251      14500.278    
    193000   1.102557       0.0023323615  -0.0033489922   20.377935      18.740637      1.6372971     -1.7211983      14364.162    
    194000   1.0537375      0.0023323615   0.0037310869   20.532098      18.967298      1.5648001     -1.4975505      14425.146    
    195000   1.0432106      0.0023323615   0.002267049    20.27669       18.727522      1.5491678     -1.7149062      13919.982    
    196000   0.96917949     0.0023323615  -0.0021165429   20.066087      18.626856      1.4392315     -1.7206666      14046.766    
    197000   1.052516       0.0023323615  -0.00025856991  20.178983      18.615996      1.5629863     -1.8280395      14817.918    
    198000   1.2195724      0.0023323615   0.0010813153   20.281849      18.470784      1.811065      -1.8868226      14515.786    
    199000   1.0137174      0.0023323615   0.00040797669  20.094693      18.589322      1.5053704     -1.9193378      13610.44     
    200000   0.9822266      0.0023323615   0.00017705491  20.203611      18.745004      1.4586065     -1.7231629      13865.513    
    201000   0.96898441     0.0023323615   0.0033394826   20.063942      18.625         1.4389419     -1.8176148      14397.135    
    202000   0.92040555     0.0023323615   0.00083438727  19.976325      18.609523      1.3668022     -1.7838818      13912.062    
    203000   1.0001286      0.0023323615  -0.00025381182  19.885799      18.400608      1.485191      -1.9925617      13599.816    
    204000   1.1703301      0.0023323615   0.004799766    20.476497      18.738557      1.7379402     -1.7970727      13670.925    
    205000   1.048403       0.0023323615   0.0019235268   20.131774      18.574895      1.5568785     -1.8648543      13675.825    
    206000   1.017172       0.0023323615  -0.0004343356   20.12243       18.61193       1.5105004     -1.8384651      13764.043    
    207000   1.1943175      0.0023323615   0.0032229981   20.434252      18.660691      1.7735615     -1.8731815      13559.469    
    208000   0.85443721     0.0023323615  -0.0032142579   20.142399      18.87356       1.2688393     -1.6240264      13688.109    
    209000   0.9467564      0.0023323615  -0.0025087773   20.163974      18.758041      1.4059332     -1.7204814      14837.468    
    210000   0.98005703     0.0023323615  -0.0022946076   20.389943      18.934559      1.4553847     -1.6353443      15200.092    
    211000   0.94858156     0.0023323615   0.0026538951   20.208974      18.800331      1.4086436     -1.7458725      14546.636    
    212000   0.97920239     0.0023323615  -0.0027996913   20.085671      18.631556      1.4541155     -1.8792379      13876.796    
    213000   0.970239       0.0023323615   0.0044054972   20.524118      19.083313      1.4408049     -1.3328991      14293.345    
    214000   0.96185784     0.0023323615   0.0033482748   20.454351      19.025992      1.4283589     -1.4409323      15084.236    
    215000   1.0471567      0.0023323615  -0.0035261985   20.500296      18.945268      1.5550277     -1.557309       15438.288    
    216000   1.0429014      0.0023323615  -0.00093389482  20.424602      18.875894      1.5487086     -1.5581256      15240.995    
    217000   0.91558373     0.0023323615  -0.0018039435   20.050224      18.690582      1.3596418     -1.7376907      14980.315    
    218000   0.95071191     0.0023323615   0.0011227393   20.3673        18.955493      1.4118072     -1.4317213      15132.758    
    219000   0.95952095     0.0023323615   0.0020334009   20.743316      19.318427      1.4248886     -1.3977878      15065.03     
    220000   1.06085        0.0023323615  -0.00020886399  20.679104      19.103742      1.5753622     -1.4209839      15172.215    
    221000   1.0580982      0.0023323615   0.0012331048   20.446643      18.875368      1.5712759     -1.6068096      16791.812    
    222000   1.1515555      0.0023323615  -0.0036686355   20.721874      19.011814      1.71006       -1.4649697      16997.119    
    223000   0.93576802     0.0023323615  -0.0020585568   20.158113      18.768497      1.3896155     -1.6809067      16068.438    
    224000   0.89946459     0.0023323615  -0.0018413867   20.209383      18.873678      1.3357049     -1.529497       14674.515    
    225000   0.93555996     0.0023323615  -0.0018723353   20.244117      18.85481       1.3893065     -1.6367112      14233.546    
    226000   0.85882954     0.0023323615  -0.00062232427  20.366914      19.091552      1.2753619     -1.5786687      14300.164    
    227000   1.0313123      0.0023323615   0.0058595155   20.576655      19.045156      1.5314988     -1.4270942      15347.099    
    228000   1.0560819      0.0023323615   0.0021937452   20.552826      18.984545      1.5682816     -1.5287565      16465.158    
    229000   1.0008538      0.0023323615  -0.0020377164   20.571958      19.08569       1.4862678     -1.5494447      17596.286    
    230000   1.0257743      0.0023323615   0.00020766152  20.505983      18.982708      1.5232749     -1.4303768      18218.538    
    231000   0.93757267     0.0023323615  -0.0031096712   20.58606       19.193764      1.3922954     -1.2563704      17573.504    
    232000   0.90666801     0.0023323615  -0.0026118106   20.267237      18.920835      1.346402      -1.4681339      16979.394    
    233000   0.91939076     0.0023323615  -0.0045071068   20.385011      19.019716      1.3652953     -1.4476974      17268.779    
    234000   1.1013852      0.0023323615   0.00093231869  20.467036      18.831479      1.6355571     -1.4963214      17797.697    
    235000   0.97277666     0.0023323615   0.0011162869   20.306382      18.861809      1.4445733     -1.6093561      18230.387    
    236000   1.0237803      0.0023323615   0.00088049773  20.467405      18.947092      1.5203137     -1.4689501      18098.233    
    237000   1.0035536      0.0023323615  -1.992528e-05   20.421967      18.93169       1.4902771     -1.6565765      17747.134    
    238000   1.0926107      0.0023323615   0.0029325623   20.594033      18.971506      1.6225269     -1.5064545      16964.938    
    239000   0.95993099     0.0023323615  -0.0016419136   20.394709      18.969212      1.4254975     -1.4688755      16565.383    
    240000   0.86645518     0.0023323615  -0.0010931019   20.341455      19.054769      1.2866859     -1.4434206      17076.652    
    241000   1.0348623      0.0023323615  -0.0002769072   20.958013      19.421242      1.5367706     -1.215812       16491.947    
    242000   1.0099992      0.0023323615   0.0011478706   20.658181      19.158332      1.4998488     -1.1650126      16288.522    
    243000   1.0350189      0.0023323615  -0.00081964786  20.887687      19.350684      1.5370031     -1.1559054      17194.325    
    244000   0.93022098     0.0023323615  -0.0016931765   20.591621      19.210243      1.3813782     -1.2346702      18116.773    
    245000   1.0283407      0.0023323615   0.0025967244   20.894274      19.367188      1.527086      -1.2037752      18160.928    
    246000   0.95738458     0.0023323615   0.0019438453   20.636927      19.215211      1.4217161     -1.3154574      17868.334    
    247000   0.80867283     0.0023323615  -0.0049111353   20.135176      18.934297      1.2008792     -1.5234298      17977.658    
    248000   0.92160247     0.0023323615   0.0020418381   20.523382      19.154803      1.3685797     -1.363114       17452.406    
    249000   1.0065372      0.0023323615   0.0066466445   20.641925      19.147217      1.4947077     -1.300875       16855.468    
    250000   1.0704677      0.0023323615   0.000259933    20.600761      19.011117      1.5896445     -1.4742948      16606.2      
    251000   0.99771219     0.0023323615   0.00011771766  20.476638      18.995036      1.4816026     -1.469519       17281.441    
    252000   1.051335       0.0023323615   0.001829432    20.726945      19.165713      1.5612324     -1.3338526      19096.59     
    253000   0.86478386     0.0023323615   0.00051883489  20.476547      19.192343      1.284204      -1.3477019      19812.145    
    254000   0.90718964     0.0023323615  -0.0052691419   20.336294      18.989118      1.3471766     -1.4570028      18806.566    
    255000   0.94024842     0.0023323615   0.0029516006   20.337376      18.941107      1.3962689     -1.4026503      19599.17     
    256000   1.0230516      0.0023323615  -0.0011708926   20.633151      19.113919      1.5192316     -1.3531783      18535.869    
    257000   0.85375692     0.0023323615   0.00067815524  20.526274      19.258445      1.267829      -1.2424123      17247.529    
    258000   1.0160844      0.0023323615   0.00055949731  20.524058      19.015172      1.5088854     -1.3692836      15899.828    
    259000   1.0176269      0.0023323615  -0.0017860727   20.568206      19.057031      1.5111759     -1.349813       16097.153    
    260000   1.0506627      0.0023323615  -0.0012746757   20.738014      19.17778       1.5602342     -1.2556556      17365.671    
    261000   0.95110648     0.0023323615  -0.0019289237   20.577069      19.164676      1.4123931     -1.3582217      17822.928    
    262000   1.0387383      0.0023323615   0.0016644306   20.784939      19.242412      1.5425263     -1.3285572      18054.647    
    263000   0.88916342     0.0023323615  -0.0042473886   20.517034      19.196627      1.3204077     -1.3191034      17785.158    
    264000   0.94255085     0.0023323615   0.0020441742   20.561886      19.162198      1.399688      -1.355041       17726.742    
    265000   0.90654857     0.0023323615   0.0046354123   20.383015      19.03679       1.3462246     -1.3806851      17898.193    
    266000   1.0634223      0.0023323615  -0.00082255519  20.640118      19.060936      1.5791821     -1.3456845      20145.03     
    267000   0.90696703     0.0023323615  -0.0014501351   20.636753      19.289907      1.346846      -1.3294704      20309.645    
    268000   1.0055078      0.0023323615  -0.00061133917  20.91128       19.418101      1.4931791     -1.2797923      20249.102    
    269000   1.0558599      0.0023323615   0.0016040207   20.822856      19.254904      1.567952      -1.2690624      18800.555    
    270000   0.94711357     0.0023323615   0.00025176892  20.68548       19.279016      1.4064636     -1.154901       18091.882    
    271000   0.98201342     0.0023323615   0.002612556    20.442155      18.983865      1.4582899     -1.4184693      18261.049    
    272000   0.87770777     0.0023323615  -7.3994562e-05  20.435719      19.132322      1.303396      -1.3643161      18816.192    
    273000   0.94686121     0.0023323615  -0.00059709403  20.538126      19.132037      1.4060889     -1.396891       18602.037    
    274000   1.0455945      0.0023323615  -0.0011210808   20.429649      18.876942      1.5527078     -1.5339105      17871.443    
    275000   0.99609115     0.0023323615  -0.00017464271  20.600161      19.120966      1.4791954     -1.476628       17686.943    
    276000   1.0003099      0.0023323615  -0.001092489    20.63934       19.15388       1.4854601     -1.4089034      18400.866    
    277000   1.1925312      0.0023323615  -0.00076531904  20.887208      19.116299      1.7709088     -1.3885698      20273.615    
    278000   1.0071857      0.0023323615  -0.0022129226   20.364503      18.868833      1.4956708     -1.52666        19751.592    
    279000   0.91015243     0.0023323615   0.00091259538  20.574159      19.222583      1.3515764     -1.4161029      19067.922    
    280000   0.9450333      0.0023323615  -0.0013654795   20.705186      19.301811      1.4033745     -1.2558993      17159.73     
    281000   1.0418707      0.0023323615   0.0030374904   20.551509      19.004331      1.5471779     -1.5624504      15725.986    
    282000   0.91766626     0.0023323615  -0.0010373851   20.304126      18.941392      1.3627344     -1.5702149      15779.024    
    283000   0.98761794     0.0023323615   0.0030198398   20.31143       18.844817      1.4666126     -1.6591253      16224.616    
    284000   1.0153558      0.0023323615  -0.0014669078   20.406571      18.898768      1.5078034     -1.6037967      15975.581    
    285000   0.80060082     0.0023323615  -0.00058005695  20.091124      18.902232      1.1888922     -1.5995777      15698.929    
    286000   0.86484264     0.0023323615   0.0034917288   20.23865       18.954359      1.2842913     -1.571851       14745.358    
    287000   0.96498601     0.0023323615  -0.0029449001   20.400744      18.967739      1.4330042     -1.5355795      14690.39     
    288000   0.7697322      0.0023323615   0.0040347081   19.929106      18.786053      1.1430523     -1.6739736      15099.982    
    289000   1.1200123      0.0023323615   0.0042459946   20.413358      18.75014       1.6632182     -1.6788555      15667.008    
    290000   1.0126167      0.0023323615  -0.0014682317   20.216645      18.712909      1.5037359     -1.8017898      16027.317    
    291000   0.88131056     0.0023323615   0.0028158988   20.404789      19.096042      1.3087462     -1.4290624      16152.647    
    292000   0.8690283      0.0023323615  -0.0039641747   20.375275      19.084768      1.290507      -1.4430478      16726.47     
    293000   0.91374481     0.0023323615   0.0060992831   20.236583      18.879672      1.356911      -1.4878228      17543.289    
    294000   1.0394125      0.0023323615   0.0030802035   20.487804      18.944276      1.5435275     -1.5102484      18772.705    
    295000   0.98824699     0.0023323615   0.0016183529   20.798084      19.330537      1.4675468     -1.1885015      18741.084    
    296000   1.0061221      0.0023323615  -0.0044000579   20.565717      19.071626      1.4940914     -1.4313012      18260.808    
    297000   0.970382       0.0023323615  -0.0063551548   20.488587      19.04757       1.4410173     -1.5009459      17221.021    
    298000   0.92150693     0.0023323615  -0.0028629943   20.520077      19.15164       1.3684378     -1.3870927      16054.024    
    299000   0.98609912     0.0023323615  -0.0032777091   20.274735      18.810378      1.4643572     -1.5943133      16023.46     
    300000   1.0307396      0.0023323615   0.0034162835   20.543853      19.013205      1.5306483     -1.4764475      16165.411    
    301000   1.0713503      0.0023323615  -0.00044909852  20.545416      18.954461      1.5909552     -1.5201068      15944.003    
    302000   0.97557258     0.0023323615  -0.0023994068   20.332773      18.884048      1.4487253     -1.6613515      16255.413    
    303000   1.0362329      0.0023323615  -0.0005443163   20.436484      18.897678      1.5388058     -1.6642667      15069.308    
    304000   1.0156494      0.0023323615  -0.002580398    20.333111      18.824872      1.5082394     -1.5935297      14247.758    
    305000   0.90209566     0.0023323615   0.0026368441   20.017656      18.678044      1.3396121     -1.7269251      13861.158    
    306000   0.92560595     0.0023323615   0.0001654108   20.463013      19.088488      1.3745248     -1.4043669      14289.217    
    307000   1.0012881      0.0023323615   0.0014097403   20.387307      18.900394      1.4869129     -1.6628979      15571.179    
    308000   0.9843205      0.0023323615   0.0030960685   20.372146      18.91043       1.4617159     -1.5693424      16716.365    
    309000   1.0567774      0.0023323615   0.0026386744   20.766245      19.196931      1.5693145     -1.3665489      17677.83     
    310000   0.92058578     0.0023323615   0.0035802357   20.374979      19.007909      1.3670699     -1.6421859      17976.146    
    311000   0.93104968     0.0023323615   0.00025430167  20.419991      19.037382      1.3826088     -1.4369833      17184.079    
    312000   0.98328754     0.0023323615   0.0024267728   20.24111       18.780928      1.460182      -1.6199537      16221.486    
    313000   0.98290818     0.0023323615  -0.0023315303   20.478967      19.019349      1.4596186     -1.5296747      15622.667    
    314000   1.048118       0.0023323615   0.00035976024  20.265597      18.709142      1.5564552     -1.8169598      16406.809    
    315000   0.96942546     0.0023323615  -0.0038364319   20.383294      18.943697      1.4395968     -1.5225265      16353.087    
    316000   1.0586985      0.0023323615  -9.5065649e-05  20.679243      19.107075      1.5721673     -1.3759042      16016.629    
    317000   0.85819494     0.0023323615  -0.0016321709   19.991324      18.716905      1.2744195     -1.789422       15274.969    
    318000   0.9345565      0.0023323615  -0.00210394     20.465555      19.077739      1.3878164     -1.4409749      16625.593    
    319000   0.88764187     0.0023323615  -0.0037529619   20.329102      19.010954      1.3181482     -1.4553294      19275.142    
    320000   1.0476262      0.0023323615   0.0041333495   20.508848      18.953123      1.5557249     -1.4425221      20768.818    
    321000   1.0155642      0.0023323615   0.0012302193   20.572334      19.064221      1.5081129     -1.4063054      20447.026    
    322000   1.0366         0.0023323615  -0.0017527627   20.328519      18.789168      1.539351      -1.5837813      19701.936    
    323000   1.0053319      0.0023323615  -0.0016873022   20.630852      19.137934      1.4929179     -1.3464002      18769.056    
    324000   0.95619002     0.0023323615  -0.0011839151   20.343018      18.923076      1.4199422     -1.5379586      16413.208    
    325000   1.107438       0.0023323615   0.0010810508   20.480585      18.83604       1.6445454     -1.5596905      15166.666    
    326000   0.88430618     0.0023323615  -0.00087279902  20.183226      18.870031      1.3131947     -1.7003691      15546.281    
    327000   1.0345489      0.0023323615   0.00083292704  20.549694      19.013389      1.5363051     -1.546921       16696.336    
    328000   0.90478279     0.0023323615   0.00091885473  20.29605       18.952447      1.3436025     -1.5107125      17991.738    
    329000   0.86997531     0.0023323615  -0.0010058094   20.195232      18.903319      1.2919133     -1.7026879      18074.695    
    330000   1.003865       0.0023323615   0.00014540143  20.350413      18.859673      1.4907395     -1.642879       16774.669    
    331000   0.87813337     0.0023323615  -0.0015920445   20.103873      18.799845      1.3040281     -1.6609905      15903.141    
    332000   0.98889077     0.0023323615  -0.0043196443   20.371627      18.903124      1.4685028     -1.6113181      16048.358    
    333000   1.1146263      0.0023323615  -0.0024939062   20.774584      19.119364      1.6552201     -1.3606064      16693.627    
    334000   1.0634089      0.0023323615   0.0040743385   20.477009      18.897847      1.5791623     -1.6369404      17506.719    
    335000   1.0738433      0.0023323615  -0.0006920253   20.716324      19.121667      1.5946573     -1.5093053      17422.186    
    336000   0.94502237     0.0023323615  -0.0003248052   20.435444      19.032086      1.4033582     -1.5558267      16855.692    
    337000   1.0084203      0.0023323615   0.00012304947  20.43121       18.933705      1.4975042     -1.5146606      17549.344    
    338000   0.92515385     0.0023323615  -0.00070203235  20.421823      19.04797       1.3738535     -1.6214777      14436.859    
    339000   0.98940942     0.0023323615   0.0053027376   20.548297      19.079024      1.469273      -1.4816371      12604.968    
    340000   0.96857444     0.0023323615  -0.0016115085   20.188824      18.750491      1.438333      -1.6450983      18010.705    
    341000   0.9390978      0.0023323615   0.0010635676   20.667361      19.272801      1.3945602     -1.4264393      17840.401    
    342000   0.91822188     0.0023323615  -0.0014860797   20.345631      18.982072      1.3635595     -1.4906974      17927.025    
    343000   0.98520775     0.0023323615   0.0029928341   20.326362      18.863328      1.4630335     -1.5134277      17415.854    
    344000   1.0203592      0.0023323615  -0.00053196877  20.558931      19.043698      1.5152334     -1.4475625      17149.084    
    345000   0.95216152     0.0023323615   0.00048988872  20.394918      18.980959      1.4139599     -1.5833341      16972.081    
    346000   0.96218416     0.0023323615   0.0018498398   20.626116      19.197272      1.4288435     -1.3517271      17246.4      
    347000   0.98145279     0.0023323615   0.0017505773   20.438002      18.980545      1.4574574     -1.4154341      17636.645    
    348000   0.96495229     0.0023323615   0.0013307228   20.577445      19.144491      1.4329541     -1.2823945      18527.215    
    349000   0.89715911     0.0023323615   0.00043414989  20.337794      19.005513      1.3322813     -1.5582734      18263.06     
    350000   1.0437804      0.0023323615  -0.00031716487  20.700785      19.150771      1.5500139     -1.3992227      17261.793    
    351000   1.0448597      0.0023323615   0.0016372449   20.440638      18.889021      1.5516167     -1.6101313      16412.984    
    352000   1.0887552      0.0023323615  -0.0020081227   20.511532      18.894731      1.6168015     -1.5869727      15787.487    
    353000   0.84405833     0.0023323615   0.0048365082   19.867201      18.613774      1.2534266     -1.7116623      14762.198    
    354000   1.021852       0.0023323615   0.0016066607   20.437057      18.919606      1.5174503     -1.5025271      14027.879    
    355000   0.8321096      0.0023323615  -0.0031906779   20.122012      18.886329      1.2356828     -1.6293883      14397.251    
    356000   1.0329814      0.0023323615  -0.0035432227   20.420705      18.886728      1.5339774     -1.6122098      15576.911    
    357000   1.0291623      0.0023323615  -0.0038250872   20.676405      19.148099      1.528306      -1.4211144      17525.586    
    358000   1.0050138      0.0023323615  -0.0018180868   20.412504      18.920058      1.4924455     -1.4815997      19158.328    
    359000   1.0877368      0.0023323615   0.0015805407   20.421405      18.806116      1.6152891     -1.6257239      17924.289    
    360000   1.0391212      0.0023323615  -0.00019408913  20.464437      18.921342      1.5430949     -1.4920817      15679.875    
    361000   0.86468049     0.0023323615   0.00076695147  20.066599      18.782549      1.2840505     -1.7039658      14531.498    
    362000   0.91289284     0.0023323615  -0.0001430004   20.080722      18.725077      1.3556459     -1.7017026      14497.03     
    363000   1.0571377      0.0023323615   0.0022170161   20.2747        18.70485       1.5698494     -1.7189477      14803.703    
    364000   1.0498567      0.0023323615  -0.00032308284  20.539409      18.980372      1.5590372     -1.4743647      16602.079    
    365000   0.90534898     0.0023323615   0.0023819484   20.320874      18.976431      1.3444432     -1.5653566      17366.764    
    366000   1.0696299      0.0023323615  -0.00034614676  20.803242      19.214841      1.5884005     -1.2334894      17371.216    
    367000   1.0055296      0.0023323615   0.0011756617   20.434058      18.940847      1.4932114     -1.5376431      17122.389    
    368000   1.2045902      0.0023323615   0.0015056852   20.899432      19.110615      1.7888165     -1.3913727      18231.579    
    369000   1.2053739      0.0023323615   0.0020117987   20.774712      18.984731      1.7899802     -1.4705159      17153.755    
    370000   1.061713       0.0023323615  -0.0010108646   20.685588      19.108945      1.5766437     -1.4033775      16136.585    
    371000   1.009795       0.0023323615   4.6331882e-05  20.534394      19.034849      1.4995456     -1.5254409      15973.329    
    372000   0.87938966     0.0023323615  -0.00020651095  20.427614      19.12172       1.3058936     -1.4094171      16359.472    
    373000   0.87213801     0.0023323615  -0.0018032699   20.385553      19.090428      1.2951249     -1.408742       16026.206    
    374000   0.97760754     0.0023323615  -0.00084794283  20.435933      18.984186      1.4517472     -1.4254572      15259.668    
    375000   0.99397776     0.0023323615   0.0014081645   20.397912      18.921855      1.476057      -1.5640078      15374.441    
    376000   1.2039964      0.0023323615  -0.0019188901   20.307359      18.519425      1.7879346     -1.8563751      14635.408    
    377000   0.94936167     0.0023323615   0.00089904685  20.315866      18.906064      1.4098021     -1.5089889      13517.597    
    378000   0.88495636     0.0023323615  -0.0035877291   20.08403       18.76987       1.3141602     -1.7593299      13914.12     
    379000   1.1079068      0.0023323615   0.0022085623   20.500011      18.854769      1.6452415     -1.5097804      14021.736    
    380000   0.89915162     0.0023323615  -0.0014713976   20.180444      18.845204      1.3352402     -1.6305766      13756.684    
    381000   1.1736227      0.0023323615   0.0029816343   20.825148      19.082318      1.7428297     -1.4369837      13932.861    
    382000   0.9897427      0.0023323615  -0.0013324957   20.548721      19.078953      1.4697679     -1.3653697      15593.829    
    383000   0.89427813     0.0023323615   0.0020365566   20.207327      18.879324      1.328003      -1.5826032      17114.354    
    384000   0.93120728     0.0023323615   0.00078242804  20.479739      19.096897      1.3828428     -1.3900775      18604.353    
    385000   0.98437609     0.0023323615   0.0022773007   20.313779      18.851981      1.4617985     -1.5377323      18628.273    
    386000   1.011079       0.0023323615  -0.00027388747  20.39485       18.893398      1.5014523     -1.5177148      17565.994    
    387000   1.0800794      0.0023323615  -0.0023421946   20.654124      19.050207      1.6039178     -1.5079565      16364.469    
    388000   0.94472615     0.0023323615  -0.00022717371  20.389691      18.986773      1.4029183     -1.6431688      15680.234    
    389000   1.2017837      0.0023323615  -0.0007117444   20.680309      18.89566       1.7846487     -1.5174296      15481.774    
    390000   1.039116       0.0023323615   0.00052044756  20.462558      18.91947       1.5430873     -1.6159463      15235.776    
    391000   0.94180004     0.0023323615   0.0039584205   20.221065      18.822492      1.3985731     -1.5884053      16254.762    
    392000   0.87570918     0.0023323615   0.00096151123  20.33293       19.032502      1.3004281     -1.4632416      18895.914    
    393000   1.0074633      0.0023323615  -0.0035977965   20.513978      19.017895      1.496083      -1.4696737      19347.256    
    394000   1.003997       0.0023323615  -0.00010934819  20.716478      19.225542      1.4909355     -1.2598213      19164.669    
    395000   1.0045668      0.0023323615   0.00053346974  20.691191      19.19941       1.4917818     -1.1892668      18518.395    
    396000   1.0440301      0.0023323615  -0.0022046981   20.771357      19.220972      1.5503847     -1.2721393      18279.288    
    397000   1.0661089      0.0023323615  -0.00071166552  20.603335      19.020164      1.5831717     -1.4913321      18063.328    
    398000   0.99109524     0.0023323615   0.0025688697   20.527278      19.055502      1.4717764     -1.3794199      17604.822    
    399000   0.81765697     0.0023323615   0.0025762948   20.294324      19.080103      1.2142206     -1.2443171      17789.072    
    400000   0.94504602     0.0023323615  -0.0029368406   20.496522      19.093128      1.4033933     -1.3598592      17744.184    
    401000   0.9812071      0.0023323615  -0.00012718737  20.452186      18.995094      1.4570925     -1.4458186      16919.693    
    402000   1.0087628      0.0023323615   0.0027859912   20.394092      18.89608       1.4980128     -1.5843253      14695.67     
    403000   1.0253673      0.0023323615   0.00418048     20.489082      18.966412      1.5226704     -1.4568209      14624.118    
    404000   1.0240186      0.0023323615   0.004836316    20.551593      19.030925      1.5206677     -1.5417956      14757.005    
    405000   1.0461898      0.0023323615   0.00033491802  20.556596      19.003004      1.5535918     -1.5125539      15058.173    
    406000   1.0566856      0.0023323615  -0.003400077    20.375161      18.805983      1.5691781     -1.6589978      15056.544    
    407000   1.113243       0.0023323615  -0.0025737013   20.479664      18.826498      1.6531659     -1.680421       14838.829    
    408000   1.0004656      0.0023323615  -0.0015573194   20.49036       19.004668      1.4856914     -1.5763666      15030.997    
    409000   0.9327832      0.0023323615  -0.00082013718  20.523755      19.138572      1.3851831     -1.3881518      15389.28     
    410000   1.0182869      0.0023323615  -0.0018555453   20.744057      19.231901      1.5121561     -1.320684       15093.109    
    411000   1.0149545      0.0023323615   0.0040702221   20.3919        18.884693      1.5072074     -1.7025227      14599.322    
    412000   1.0759396      0.0023323615  -0.0033868439   20.423414      18.825643      1.5977702     -1.6219584      14309.689    
    413000   0.98646355     0.0023323615  -0.001900247    20.368658      18.90376       1.4648984     -1.5965515      14197.459    
    414000   0.99386512     0.0023323615   0.003821318    20.1748        18.698911      1.4758897     -1.6974406      14527.89     
    415000   1.0060665      0.0023323615   0.00067509203  20.201876      18.707867      1.4940088     -1.7006341      14903.324    
    416000   1.0560727      0.0023323615   7.8819233e-05  20.406906      18.838638      1.568268      -1.6035013      15656.387    
    417000   0.95978859     0.0023323615  -0.0017120227   20.543596      19.11831       1.4252861     -1.3225419      16020.292    
    418000   0.81894839     0.0023323615  -0.0025492225   20.30603       19.089892      1.2161384     -1.5306632      18031.209    
    419000   1.0785216      0.0023323615  -0.0014438084   20.836821      19.235217      1.6016046     -1.3011008      19148.767    
    420000   1.0695457      0.0023323615  -0.0041752458   20.813124      19.224849      1.5882754     -1.3366892      20160.977    
    421000   0.98463155     0.0023323615   0.0017099251   20.537366      19.075188      1.4621779     -1.5028051      20034.857    
    422000   1.0419975      0.0023323615  -0.0040932221   20.718878      19.171512      1.5473663     -1.2945248      18702.393    
    423000   1.0308105      0.0023323615  -0.00056286215  20.631237      19.100484      1.5307536     -1.3206967      16710.228    
    424000   1.0540575      0.0023323615   0.0022355394   20.820113      19.254838      1.5652753     -1.3153218      15816.457    
    425000   1.0129434      0.0023323615  -0.0016699509   20.738527      19.234306      1.5042209     -1.2577532      16532.824    
    426000   0.84241744     0.0023323615  -0.0028908803   20.37383       19.12284       1.2509899     -1.4465909      17356.916    
    427000   0.95529213     0.0023323615  -0.00071594374  20.628295      19.209686      1.4186088     -1.1859328      18753.194    
    428000   1.0407768      0.0023323615  -0.0016239193   20.69695       19.151396      1.5455536     -1.4357422      19196.596    
    429000   0.90515804     0.0023323615   0.001908109    20.234917      18.890757      1.3441597     -1.4902112      18751.855    
    430000   0.93179727     0.0023323615   0.00030179968  20.389728      19.006009      1.3837189     -1.3319032      18698.844    
    431000   1.0015875      0.0023323615   0.00091013608  20.760078      19.27272       1.4873574     -1.2631507      17448.989    
    432000   0.97023153     0.0023323615  -0.0010197935   20.466659      19.025865      1.4407938     -1.5744296      16862.738    
    433000   0.95738212     0.0023323615  -0.0014716981   20.504241      19.082529      1.4217124     -1.4765812      17185.18     
    434000   1.1248529      0.0023323615   0.00037229909  20.810889      19.140483      1.6704065     -1.309993       17724.101    
    435000   1.0149704      0.0023323615   0.0013899322   20.549555      19.042324      1.5072311     -1.4983255      17570.512    
    436000   1.0037154      0.0023323615   0.0017725419   20.645665      19.155148      1.4905174     -1.2586926      17385.553    
    437000   0.94917538     0.0023323615   0.0028753147   20.341663      18.932137      1.4095254     -1.5758695      17129.118    
    438000   0.9757155      0.0023323615  -0.0024621657   20.303002      18.854065      1.4489375     -1.6305932      16611.847    
    439000   1.0443701      0.0023323615   0.0011218151   20.410291      18.859401      1.5508895     -1.5137015      15349.48     
    440000   1.0563417      0.0023323615  -0.0056450139   20.491217      18.92255       1.5686674     -1.5566263      14365.163    
    441000   0.94417944     0.0023323615   0.0042637221   20.24757       18.845463      1.4021065     -1.5676307      14127.968    
    442000   1.0439775      0.0023323615   0.0025906819   20.360134      18.809827      1.5503066     -1.6730143      14071.444    
    443000   0.94821917     0.0023323615  -8.3104078e-05  20.39034       18.982235      1.4081055     -1.503562       14156.412    
    444000   1.0471695      0.0023323615  -0.00025982813  20.27909       18.724043      1.5550467     -1.6611437      14094.947    
    445000   1.1683128      0.0023323615   0.0014749023   20.358529      18.623585      1.7349445     -1.8563956      14639.974    
    446000   0.96742413     0.0023323615  -0.0026472518   20.361077      18.924453      1.4366248     -1.5649154      14809.375    
    447000   1.120488       0.0023323615   0.0031222077   20.66746       19.003535      1.6639247     -1.4999478      15265.29     
    448000   1.0606637      0.0023323615   0.00024338307  20.792133      19.217047      1.5750856     -1.3915638      15606.769    
    449000   0.9309462      0.0023323615   0.003472043    20.324859      18.942404      1.3824551     -1.5752291      16113.887    
    450000   0.98362313     0.0023323615   0.00067746383  20.488932      19.028252      1.4606803     -1.4476005      15564.208    
    451000   1.2055452      0.0023323615   0.0044074969   20.759096      18.968861      1.7902347     -1.5172312      14527.941    
    452000   1.0805878      0.0023323615  -0.0033174217   20.347071      18.742398      1.6046729     -1.7002243      14000.866    
    453000   1.0340398      0.0023323615  -0.0004806594   20.521592      18.986043      1.535549      -1.5741828      13941.93     
    454000   1.074534       0.0023323615   0.0019722408   20.455859      18.860175      1.595683      -1.7701957      13983.51     
    455000   1.000345       0.0023323615   0.00012176231  20.440493      18.954981      1.4855123     -1.679677       14442.137    
    456000   1.0288948      0.0023323615   0.00051244656  20.543697      19.015788      1.5279088     -1.4991873      15484.385    
    457000   0.97140978     0.0023323615   0.0013496133   20.676118      19.233574      1.4425435     -1.2204821      16467.413    
    458000   1.1036918      0.0023323615  -0.001506077    20.937666      19.298684      1.6389823     -1.3185943      16429.032    
    459000   0.99535992     0.0023323615   0.0014909827   20.423697      18.945587      1.4781095     -1.5050477      16194.147    
    460000   0.95178135     0.0023323615  -0.0029614101   20.417685      19.004289      1.4133953     -1.5159286      16807.135    
    461000   1.0665106      0.0023323615  -0.00042674573  20.603856      19.020088      1.5837682     -1.4404409      17956.041    
    462000   0.86401458     0.0023323615   0.00089651163  20.381314      19.098252      1.2830616     -1.3545236      18412.061    
    463000   0.86085165     0.0023323615  -0.0016758738   20.414045      19.135681      1.2783647     -1.3115845      17998.749    
    464000   0.96741094     0.0023323615   0.0043467519   20.752835      19.316229      1.4366052     -1.189824       17909.433    
    465000   0.94956115     0.0023323615   0.0017874473   20.606667      19.196568      1.4100983     -1.3032099      17974.246    
    466000   0.9865651      0.0023323615   0.0035587641   20.722947      19.257898      1.4650492     -1.3125452      17861.015    
    467000   0.95002534     0.0023323615  -0.0020839176   20.512535      19.101747      1.4107876     -1.3308265      18417.272    
    468000   0.93906577     0.0023323615   0.00021100122  20.430567      19.036054      1.3945127     -1.3883723      18795.032    
    469000   1.070421       0.0023323615   0.0015854459   20.741301      19.151726      1.5895752     -1.2866931      19140.994    
    470000   0.88473268     0.0023323615   0.0043674328   20.212175      18.898347      1.313828      -1.5926988      19507.17     
    471000   0.94327206     0.0023323615  -0.00055583285  20.449581      19.048822      1.400759      -1.5103786      18188.707    
    472000   0.91453355     0.0023323615   0.0031227016   20.04339       18.685307      1.3580823     -1.7030351      14935.417    
    473000   1.0509269      0.0023323615  -0.00023367156  20.237362      18.676735      1.5606264     -1.7411479      13692.688    
    474000   1.0894276      0.0023323615  -0.00062483289  20.593381      18.975581      1.6178        -1.6027514      13887.647    
    475000   0.95346823     0.0023323615  -0.00026396452  20.653365      19.237464      1.4159003     -1.2630733      14902.863    
    476000   1.0596724      0.0023323615  -0.0038328038   20.916266      19.342653      1.5736135     -1.1550391      16189.224    
    477000   0.95940814     0.0023323615  -0.0010822319   20.868154      19.443433      1.4247211     -1.0016475      17693.897    
    478000   1.1070002      0.0023323615  -0.003419238    21.007278      19.363383      1.6438952     -1.1500941      18491.361    
    479000   1.056475       0.0023323615   0.0016934033   20.979193      19.410327      1.5688654     -1.1783408      18197.791    
    480000   1.1293882      0.0023323615   0.0017153657   20.736118      19.058977      1.6771415     -1.3327257      18995.021    
    481000   1.0167478      0.0023323615   0.0007894888   20.959659      19.449789      1.5098704     -1.1938781      19704.17     
    482000   0.99426361     0.0023323615   0.00127807     20.421305      18.944823      1.4764815     -1.4989117      18850.007    
    483000   1.0059419      0.0023323615  -0.0027431595   20.485696      18.991873      1.4938237     -1.5176442      17446.207    
    484000   1.0160494      0.0023323615  -0.0027943573   20.357882      18.849049      1.5088334     -1.5577668      16309.084    
    485000   0.96385378     0.0023323615  -0.0048225059   20.182329      18.751006      1.4313229     -1.6879582      15745.992    
    486000   0.9544606      0.0023323615  -0.0013138066   20.529931      19.112557      1.417374      -1.418863       15868.385    
    487000   1.0042506      0.0023323615   0.00043891199  20.283629      18.792317      1.4913122     -1.6894843      16381.013    
    488000   1.0281382      0.0023323615  -0.0011287871   20.518077      18.991292      1.5267852     -1.39303        17240.635    
    489000   1.0401938      0.0023323615  -0.0016356652   20.578516      19.033828      1.5446878     -1.4456442      18474.484    
    490000   0.93046        0.0023323615  -0.0054351338   20.343584      18.961851      1.3817331     -1.5199528      18693.787    
    491000   1.0845379      0.0023323615   0.0010028176   20.76014       19.149601      1.6105388     -1.3112074      18152.592    
    492000   0.91984568     0.0023323615   0.0049054047   20.267413      18.901443      1.3659708     -1.6188822      17081.369    
    493000   0.80757867     0.0023323615   0.00036906048  19.977806      18.778552      1.1992543     -1.6938455      16739.848    
    494000   0.91436986     0.0023323615   0.0024648078   20.724396      19.366556      1.3578392     -1.2345351      17303.821    
    495000   0.90528189     0.0023323615  -0.0011181203   20.382517      19.038173      1.3443436     -1.4688708      17359.361    
    496000   0.96390906     0.0023323615  -0.002392664    20.373329      18.941924      1.431405      -1.5803356      17866.706    
    497000   1.0472901      0.0023323615  -0.00057503709  20.591114      19.035888      1.5552259     -1.4939186      18713.126    
    498000   1.2375055      0.0023323615  -0.00078156077  20.890359      19.052663      1.8376957     -1.3797073      19270.86     
    499000   1.1767652      0.0023323615  -0.0032227179   20.977244      19.229748      1.7474963     -1.2737154      18185.129    
    500000   1.0055056      0.0023323615   0.0054800897   20.604739      19.111563      1.4931759     -1.3142074      18147.902    
    501000   0.93982369     0.0023323615  -0.0033208177   20.459371      19.063733      1.3956382     -1.4122453      18200.688    
    502000   0.88100806     0.0023323615  -0.001549198    20.331315      19.023018      1.308297      -1.3775962      17851.089    
    503000   1.0542363      0.0023323615   0.0036891433   20.342194      18.776653      1.565541      -1.6918377      15960.912    
    504000   1.1172819      0.0023323615   0.0015517387   20.487186      18.828023      1.6591636     -1.5818906      15072.225    
    505000   0.98843896     0.0023323615   0.001561239    20.262062      18.79423       1.4678319     -1.6334676      15680.134    
    506000   1.0514311      0.0023323615  -0.0026858406   20.410679      18.849304      1.5613752     -1.6997427      16830.448    
    507000   0.99994858     0.0023323615   0.0031101456   20.368952      18.884028      1.4849236     -1.6281424      18499.723    
    508000   1.0503002      0.0023323615  -0.004118091    20.845333      19.285637      1.5596959     -1.3786334      19310.002    
    509000   1.0439395      0.0023323615   0.0030276269   20.394476      18.844225      1.5502502     -1.5827062      18385.028    
    510000   1.0220994      0.0023323615  -6.2604468e-06  20.527334      19.009516      1.5178176     -1.531685       15921.815    
    511000   1.1565317      0.0023323615  -0.0034404358   20.605472      18.888023      1.7174496     -1.621689       13966.374    
    512000   0.93366246     0.0023323615   0.0044912395   20.149622      18.763134      1.3864888     -1.7173621      13905.993    
    513000   0.93501949     0.0023323615  -0.00050683193  20.171245      18.782741      1.3885039     -1.5926909      14491.547    
    514000   1.0160456      0.0023323615   0.00025777495  20.306598      18.79777       1.5088277     -1.718492       15481.944    
    515000   0.86691956     0.0023323615   0.0010994533   20.245542      18.958166      1.2873755     -1.4811127      15741.671    
    516000   0.98545271     0.0023323615   0.0015059828   20.145178      18.68178       1.4633973     -1.7792671      15098.641    
    517000   1.0011867      0.0023323615   0.0033225014   20.397679      18.910917      1.4867622     -1.5064645      14335.307    
    518000   1.0235093      0.0023323615   0.0012534602   20.541289      19.021378      1.5199113     -1.4220762      14846.828    
    519000   0.93613846     0.0023323615  -0.00050545357  20.147855      18.757689      1.3901656     -1.7348108      15541.335    
    520000   0.98753046     0.0023323615  -0.0024748772   20.598205      19.131722      1.4664827     -1.3981984      16330.608    
    521000   0.87826809     0.0023323615  -0.0015414178   20.483655      19.179427      1.3042281     -1.3522803      17252.639    
    522000   0.78482472     0.0023323615  -0.0019917679   20.038698      18.873233      1.1654647     -1.5745239      18833.66     
    523000   0.99471212     0.0023323615   0.00052826967  20.531706      19.054559      1.4771475     -1.4352797      19035.318    
    524000   0.91815047     0.0023323615   0.00021889783  20.473978      19.110525      1.3634535     -1.4219448      18668.791    
    525000   1.1156123      0.0023323615   0.0055822872   20.659793      19.003109      1.6566843     -1.5373641      17989.718    
    526000   0.96890385     0.0023323615   0.0004891003   20.453611      19.014788      1.4388222     -1.4316078      17225.004    
    527000   0.95469776     0.0023323615   0.0008281177   20.258921      18.841194      1.4177262     -1.6745713      15891.386    
    528000   0.92879199     0.0023323615  -0.0020258931   20.239047      18.859791      1.3792561     -1.6330609      14945.158    
    529000   0.95708022     0.0023323615   9.0987045e-05  20.314693      18.893429      1.4212641     -1.527067       14535.458    
    530000   0.9909409      0.0023323615  -0.0018843208   20.180008      18.70846       1.4715472     -1.7126025      14795.514    
    531000   0.89479043     0.0023323615   0.0035500028   20.124565      18.795801      1.3287638     -1.6586475      14387.054    
    532000   0.97755114     0.0023323615  -0.00016647594  20.251869      18.800206      1.4516634     -1.719844       14200.978    
    533000   1.0923459      0.0023323615   0.00012519179  20.281387      18.659253      1.6221337     -1.7184271      14195.906    
    534000   0.91690654     0.0023323615   0.0013589616   20.327543      18.965937      1.3616062     -1.5681609      14613.263    
    535000   0.94760516     0.0023323615   0.0022687816   20.404773      18.99758       1.4071937     -1.440016       15622.405    
    536000   1.0814219      0.0023323615  -0.00062437218  20.212747      18.606835      1.6059116     -1.845711       16206.194    
    537000   0.99246177     0.0023323615  -0.0019846787   20.151646      18.67784       1.4738057     -1.7190762      15532.967    
    538000   0.91862144     0.0023323615   0.0032614912   20.17844       18.814287      1.3641528     -1.6562755      15189.456    
    539000   0.96854017     0.0023323615  -0.0025080713   20.133371      18.695089      1.4382822     -1.7236806      15177.902    
    540000   0.84985122     0.0023323615  -0.0024437797   20.15332       18.891291      1.2620291     -1.6097682      15939.128    
    541000   0.96587557     0.0023323615   0.0014214358   20.39829       18.963965      1.4343252     -1.4596465      17509.003    
    542000   1.0418303      0.0023323615   0.0030646435   20.554282      19.007164      1.547118      -1.467496       18718.629    
    543000   0.96567602     0.0023323615  -0.0011850838   20.344625      18.910596      1.4340289     -1.6393846      19660.691    
    544000   0.95359846     0.0023323615   0.002684312    20.529099      19.113006      1.4160937     -1.3865574      20133.307    
    545000   1.2922549      0.0023323615  -0.00021005664  21.077559      19.15856       1.9189985     -1.336325       18635.667    
    546000   0.91605646     0.0023323615   0.0025777639   20.529438      19.169094      1.3603438     -1.2446933      15679.422    
    547000   1.1366074      0.0023323615   0.0011560122   20.711906      19.024044      1.687862      -1.4852223      14786.58     
    548000   1.0199378      0.0023323615   0.0029236537   20.616257      19.10165       1.5146077     -1.4309789      15531.693    
    549000   1.05282        0.0023323615   0.0026253466   20.821725      19.258287      1.5634377     -1.1471346      16664.913    
    550000   1.064548       0.0023323615   0.00079168119  20.840962      19.260108      1.5808538     -1.2075447      17331.933    
    551000   1.1134907      0.0023323615  -0.00028485749  21.093511      19.439977      1.6535336     -1.0970036      16877.262    
    552000   0.99850599     0.0023323615  -0.00066074711  20.481865      18.999084      1.4827814     -1.3771121      17141.794    
    553000   1.0236125      0.0023323615   0.00077697547  20.288049      18.767985      1.5200646     -1.7040385      17812.676    
    554000   0.86315081     0.0023323615   0.00015951425  20.112171      18.830392      1.281779      -1.728638       17321.544    
    555000   0.93643759     0.0023323615  -0.0024020208   20.170871      18.780262      1.3906098     -1.6577278      15572.663    
    556000   1.0637367      0.0023323615  -0.0015783108   20.470468      18.890819      1.5796491     -1.5575366      15378.442    
    557000   1.0266199      0.0023323615  -0.00096311752  20.619013      19.094483      1.5245306     -1.4314736      16784.798    
    558000   0.87097237     0.0023323615  -0.0017470697   20.478894      19.1855        1.293394      -1.4126314      18083.484    
    559000   0.89858996     0.0023323615  -0.0021491425   20.434335      19.099928      1.3344061     -1.3293024      18652.167    
    560000   0.91890021     0.0023323615   0.00077466674  20.408313      19.043746      1.3645668     -1.3628349      19280.113    
    561000   0.97130809     0.0023323615   0.0010953188   20.753968      19.311575      1.4423925     -1.2019616      19569.324    
    562000   0.86299078     0.0023323615  -8.4758066e-05  20.626281      19.344739      1.2815413     -1.238198       19486.844    
    563000   0.98953517     0.0023323615   0.0014754573   20.489266      19.019806      1.4694597     -1.404185       18967.594    
    564000   1.0780098      0.0023323615   0.0024715755   20.693318      19.092474      1.6008445     -1.4088617      17625.421    
    565000   0.98850586     0.0023323615   0.0024648561   20.197915      18.729984      1.4679312     -1.7006036      16595.27     
    566000   0.88234717     0.0023323615   0.0014514957   20.247899      18.937614      1.3102856     -1.524424       16207.186    
    567000   1.0822123      0.0023323615   0.00016387209  20.651828      19.044743      1.6070853     -1.3656462      16112.734    
    568000   1.0053088      0.0023323615   0.00059042547  20.316868      18.823985      1.4928835     -1.6375608      16828.561    
    569000   1.0139098      0.0023323615   0.0011501355   20.409652      18.903996      1.5056561     -1.567019       17687.547    
    570000   1.0830567      0.0023323615  -0.0023515215   20.44503       18.836691      1.6083391     -1.5832944      17389.424    
    571000   1.0320191      0.0023323615   0.00041196779  20.648323      19.115775      1.5325484     -1.4662193      15497.873    
    572000   1.0916334      0.0023323615   0.00027433712  20.587234      18.966158      1.6210755     -1.5708555      15603.513    
    573000   0.93887129     0.0023323615   0.00083475081  20.107454      18.71323       1.3942239     -1.7466177      16944.654    
    574000   0.97990563     0.0023323615  -0.0004334688   20.239038      18.783879      1.4551599     -1.6908         17869.479    
    575000   1.0781376      0.0023323615  -0.0014262048   20.529316      18.928282      1.6010343     -1.5883274      18373.463    
    576000   1.018369       0.0023323615  -0.0037178172   20.223764      18.711487      1.512278      -1.773286       17773.82     
    577000   0.92992376     0.0023323615   0.00057339753  20.244223      18.863287      1.3809368     -1.511954       17069.439    
    578000   0.96073764     0.0023323615   0.0013558089   20.267785      18.84109       1.4266954     -1.6397291      17126.603    
    579000   0.92021065     0.0023323615   0.0027700128   20.057674      18.691161      1.3665128     -1.7920471      16737.363    
    580000   1.01302        0.0023323615  -0.0056717388   20.5158        19.011466      1.5043347     -1.471178       14598.531    
    581000   1.0513683      0.0023323615   0.00072991336  20.27554       18.714259      1.5612819     -1.7221643      13920.05     
    582000   1.0130111      0.0023323615   0.0021265675   20.380751      18.876429      1.5043215     -1.5081381      14305.497    
    583000   0.94750037     0.0023323615  -0.0031419996   20.369446      18.962408      1.407038      -1.5313789      14916.65     
    584000   1.2715508      0.0023323615  -0.0031029281   20.977448      19.089195      1.888253      -1.4314494      15392.861    
    585000   1.1013754      0.0023323615   3.7778769e-06  20.89042       19.254878      1.6355425     -1.2651758      16921.096    
    586000   1.0318865      0.0023323615   0.00050954917  20.757999      19.225648      1.5323514     -1.2886618      18567.844    
    587000   0.88393057     0.0023323615  -0.00013551802  20.472595      19.159958      1.3126369     -1.2648817      19750.603    
    588000   1.0929702      0.0023323615  -0.0039292024   20.869343      19.246282      1.6230608     -1.264137       20271.622    
    589000   0.97477399     0.0023323615   0.001707497    20.806411      19.358871      1.4475394     -1.1272466      19782.989    
    590000   1.0310845      0.0023323615  -0.0025102399   20.641647      19.110486      1.5311605     -1.2459257      20350.947    
    591000   0.90609358     0.0023323615   0.00079014554  20.512835      19.167286      1.345549      -1.3888883      19988.869    
    592000   0.98981649     0.0023323615  -0.0053846193   20.674254      19.204377      1.4698775     -1.3338792      19271.272    
    593000   1.0943421      0.0023323615   0.00032880624  20.538135      18.913037      1.625098      -1.643643       18428.919    
    594000   0.9408307      0.0023323615  -0.0010397724   20.323148      18.926014      1.3971336     -1.5936927      17245.64     
    595000   0.89571029     0.0023323615  -0.0030127489   20.054904      18.724774      1.3301298     -1.6223294      15249.627    
    596000   1.0541872      0.0023323615   0.003098086    20.28746       18.721992      1.5654679     -1.7153414      14293.447    
    597000   1.0439572      0.0023323615  -0.00023735454  20.616017      19.065741      1.5502764     -1.4696618      14759.349    
    598000   1.0415271      0.0023323615   0.0018713079   20.423629      18.876962      1.5466678     -1.5354788      16711.022    
    599000   0.9824362      0.0023323615  -0.0021303127   20.300291      18.841373      1.4589178     -1.5141608      18169.623    
    600000   0.89411097     0.0023323615  -0.001072521    20.388492      19.060737      1.3277548     -1.4302681      17980.77     
    601000   1.0207018      0.0023323615   0.0020964126   20.198078      18.682335      1.5157421     -1.7669709      17047.46     
    602000   0.98088904     0.0023323615   0.00012660651  20.346827      18.890207      1.4566202     -1.5752492      15896.427    
    603000   0.99573931     0.0023323615  -0.0044057237   20.642226      19.163553      1.4786729     -1.5694026      15553.095    
    604000   0.90089511     0.0023323615   0.0030883643   20.344915      19.007085      1.3378292     -1.5132436      17028.463    
    605000   1.1394832      0.0023323615  -0.0016954522   20.632679      18.940547      1.6921325     -1.4638914      18482.633    
    606000   1.0919956      0.0023323615  -0.00097103272  20.723226      19.101612      1.6216135     -1.3710398      18633.406    
    607000   0.94934416     0.0023323615  -0.0023623626   20.533902      19.124126      1.4097761     -1.5505064      18436.864    
    608000   0.95839974     0.0023323615  -0.0020510326   20.412607      18.989384      1.4232236     -1.4780076      17776.935    
    609000   0.99212588     0.0023323615   0.00080035537  20.11537       18.642063      1.4733069     -1.8302021      17203.643    
    610000   0.97710778     0.0023323615   0.001434095    20.290289      18.839284      1.4510051     -1.5388658      17269.077    
    611000   1.0245092      0.0023323615  -0.0023090758   20.519173      18.997777      1.5213961     -1.438095       17219.215    
    612000   0.93787527     0.0023323615   0.00046173499  20.44638       19.053636      1.3927448     -1.3507975      16871.385    
    613000   0.91915792     0.0023323615   0.0020765171   20.299099      18.934149      1.3649495     -1.5227666      16785.727    
    614000   1.0353813      0.0023323615  -0.0016471262   20.667915      19.130374      1.5375413     -1.4050071      16055.837    
    615000   0.90739727     0.0023323615  -0.0017120476   20.287883      18.940398      1.347485      -1.5519038      15646.967    
    616000   1.029646       0.0023323615   0.0028488093   20.445688      18.916664      1.5290243     -1.5051455      15723.182    
    617000   0.97531051     0.0023323615  -0.0024404777   20.482117      19.033781      1.4483361     -1.5388998      17566.64     
    618000   0.98290108     0.0023323615  -0.0024138872   20.534349      19.074741      1.4596081     -1.3755958      18376.069    
    619000   0.97801907     0.0023323615   0.0055830625   20.532142      19.079783      1.4523583     -1.3331479      18209.547    
    620000   0.98757518     0.0023323615  -0.0012671837   20.389332      18.922783      1.4665491     -1.5167161      18573.693    
    621000   0.96189361     0.0023323615   0.00029144486  20.746698      19.318286      1.428412      -1.2110464      17747.835    
    622000   0.80695084     0.0023323615  -0.0025748474   20.28404       19.085718      1.198322      -1.4212722      17539.207    
    623000   1.072333       0.0023323615   0.005286255    20.590129      18.997714      1.5924145     -1.4345343      17700.426    
    624000   1.0853485      0.0023323615   0.0018155221   20.56481       18.953067      1.6117425     -1.4936774      17889.179    
    625000   1.1188668      0.0023323615  -0.00039698726  20.69999       19.038473      1.6615172     -1.4524025      18936.428    
    626000   0.91746708     0.0023323615   0.00088801837  20.629358      19.266919      1.3624386     -1.1888642      19890.595    
    627000   1.1178554      0.0023323615  -0.0016479477   20.707223      19.047208      1.6600153     -1.5196587      18957.622    
    628000   1.0150941      0.0023323615  -0.0042498314   20.313668      18.806254      1.5074148     -1.6879175      17405.592    
    629000   0.85363878     0.0023323615   0.002720852    20.341728      19.074074      1.2676536     -1.4645259      16070.037    
    630000   0.92712696     0.0023323615   0.00054902681  20.184639      18.807855      1.3767835     -1.6832678      15118.483    
    631000   0.83454575     0.0023323615   0.0014618332   19.952934      18.713633      1.2393004     -1.7610958      14779.217    
    632000   0.91300498     0.0023323615  -0.0020544864   20.208201      18.852388      1.3558124     -1.567721       15598.216    
    633000   0.9474624      0.0023323615  -0.001132015    20.321662      18.914681      1.4069817     -1.5834059      17090.966    
    634000   1.0889979      0.0023323615  -0.0002970558   20.708645      19.091483      1.6171619     -1.338909       18533.27     
    635000   0.90731322     0.0023323615  -0.00099060873  20.315238      18.967878      1.3473601     -1.5966859      18792.47     
    636000   0.98950368     0.0023323615   0.0011067813   20.31178       18.842367      1.469413      -1.6986687      19300.842    
    637000   0.89451169     0.0023323615   0.0027655534   20.618778      19.290428      1.3283499     -1.2855212      18732.78     
    638000   0.97360754     0.0023323615  -0.0022742558   20.57618       19.130373      1.4458072     -1.3595088      18389.882    
    639000   0.89644462     0.0023323615   0.00031538987  20.279731      18.948511      1.3312203     -1.5671535      18027.929    
    640000   1.1607512      0.0023323615   0.00030312524  20.580937      18.857222      1.7237155     -1.6052253      17752.015    
    641000   1.0916277      0.0023323615  -0.0013129394   20.521115      18.900048      1.6210672     -1.5609602      18304.483    
    642000   1.0569637      0.0023323615   0.0024921942   20.648678      19.079086      1.5695911     -1.3587744      17866.405    
    643000   1.0685628      0.0023323615   0.0022123878   20.401317      18.814501      1.5868158     -1.740343       14900.827    
    644000   0.98748155     0.0023323615   0.0042750202   20.383398      18.916988      1.4664101     -1.6212244      14349.74     
    645000   0.99424888     0.0023323615   0.0013307194   20.513301      19.036842      1.4764596     -1.5387913      15510.509    
    646000   0.95102366     0.0023323615  -0.003243082    20.505527      19.093257      1.4122701     -1.4479771      17483.554    
    647000   0.92959859     0.0023323615  -0.0012057561   20.82447       19.444016      1.3804539     -1.1541351      19183.163    
    648000   0.94067805     0.0023323615  -0.0037447654   20.612432      19.215525      1.3969069     -1.3738662      20683.696    
    649000   0.98282107     0.0023323615   0.0023683159   20.543047      19.083558      1.4594893     -1.3444203      20365.966    
    650000   0.89919489     0.0023323615  -0.0019341845   20.251281      18.915976      1.3353044     -1.4618917      19388.125    
    651000   0.98160937     0.0023323615  -0.0047549707   20.284683      18.826993      1.4576899     -1.6829382      16950.432    
    652000   0.87667319     0.0023323615   0.00058162336  20.075713      18.773853      1.3018597     -1.6466215      16301.712    
    653000   1.0342359      0.0023323615   0.0034304943   20.40253       18.866689      1.5358403     -1.6207389      16045.04     
    654000   0.99091757     0.0023323615   0.0031875748   20.499285      19.027773      1.4715126     -1.4403898      16269.127    
    655000   0.93605361     0.0023323615  -0.0039421007   20.156347      18.766307      1.3900396     -1.7305538      16735.091    
    656000   1.016113       0.0023323615   3.3403028e-05  20.093561      18.584634      1.5089277     -1.9703344      15726.296    
    657000   0.928307       0.0023323615  -0.0014523119   20.199493      18.820957      1.3785359     -1.6580604      14368.114    
    658000   0.80035609     0.0023323615   0.0001282929   20.25156       19.063032      1.1885288     -1.4223049      14087.165    
    659000   1.0080773      0.0023323615   0.0031105995   20.696879      19.199884      1.4969948     -1.4280008      14772.344    
    660000   1.0358974      0.0023323615  -0.0036562896   20.484925      18.946618      1.5383077     -1.5446997      16441.534    
    661000   1.0370106      0.0023323615  -0.0007545696   20.673588      19.133627      1.5399607     -1.4491964      17894.253    
    662000   0.96320984     0.0023323615   0.001063935    20.423563      18.993196      1.4303666     -1.5424399      18664.504    
    663000   0.91071532     0.0023323615   0.0011275819   20.46118       19.108768      1.3524123     -1.4333617      18553.662    
    664000   0.90740281     0.0023323615   0.0045383679   20.551266      19.203773      1.3474932     -1.3242251      19080.319    
    665000   0.98874287     0.0023323615  -0.0011623022   20.552741      19.084458      1.4682832     -1.4948137      20180.347    
    666000   1.0583768      0.0023323615  -0.001088709    20.616137      19.044447      1.5716895     -1.4507587      20068.877    
    667000   0.86581708     0.0023323615  -0.0031703797   20.28227       18.996532      1.2857384     -1.4554917      19519.076    
    668000   0.99456218     0.0023323615  -6.9138813e-05  20.355277      18.878352      1.4769248     -1.6405977      17930.729    
    669000   1.1058599      0.0023323615  -0.00033806932  20.629394      18.987192      1.642202      -1.5978891      15745.999    
    670000   1.0697256      0.0023323615   7.4144034e-05  20.629124      19.040581      1.5885425     -1.4664511      14522.924    
    671000   1.0022421      0.0023323615   0.00030231648  20.367262      18.878933      1.4883295     -1.6450782      14360.641    
    672000   0.98335201     0.0023323615  -0.0013809119   20.308004      18.847727      1.4602777     -1.5168866      15208.297    
    673000   1.0449195      0.0023323615  -0.00049784478  20.635859      19.084154      1.5517054     -1.4202314      17256.272    
    674000   1.0275836      0.0023323615  -0.00019484619  20.550091      19.024129      1.5259617     -1.3173389      19019.059    
    675000   0.9201567      0.0023323615   0.0021909574   20.393332      19.026899      1.3664327     -1.4103696      19321.417    
    676000   1.0352196      0.0023323615  -0.0012477741   20.508429      18.971128      1.537301      -1.5678607      17608.536    
    677000   0.99106748     0.0023323615   0.00066681412  20.264061      18.792326      1.4717352     -1.6742072      15664.227    
    678000   0.83598112     0.0023323615   0.0025188798   19.906961      18.665529      1.241432      -1.7821332      14541.033    
    679000   0.98710108     0.0023323615  -4.3372746e-05  20.62407       19.158225      1.4658451     -1.3922649      14608.688    
    680000   0.96559349     0.0023323615  -0.0034407508   20.701597      19.26769       1.4339063     -1.2392331      16471.902    
    681000   1.1511907      0.0023323615   0.0031610199   20.956182      19.246664      1.7095182     -1.3101924      18135.658    
    682000   1.0304507      0.0023323615   0.0045392612   20.74716       19.216941      1.5302193     -1.2611257      18887.989    
    683000   1.0263202      0.0023323615  -0.0029274864   20.529761      19.005675      1.5240855     -1.5080806      18064.936    
    684000   1.3360599      0.0023323615   0.00053927216  20.900682      18.916633      1.9840489     -1.5947339      16634.238    
    685000   1.0560693      0.0023323615   0.00042272165  20.427411      18.859148      1.5682628     -1.6446572      15194.242    
    686000   1.0235493      0.0023323615   0.0018739994   20.429313      18.909342      1.5199707     -1.5829309      14213.591    
    687000   1.0907652      0.0023323615   0.00085348916  20.596254      18.976467      1.6197864     -1.502922       14412.613    
    688000   1.0666878      0.0023323615  -7.584794e-05   20.487291      18.903259      1.5840314     -1.6336169      14224.369    
    689000   0.97111266     0.0023323615  -0.00032438707  20.263958      18.821855      1.4421023     -1.6958423      13942.75     
    690000   1.0118769      0.0023323615  -0.0042736998   20.261603      18.758966      1.5026372     -1.7086227      14625.374    
    691000   1.1135285      0.0023323615   0.0012010456   20.559908      18.906318      1.6535898     -1.5365797      15982.8      
    692000   1.0436155      0.0023323615   0.00051373286  20.494561      18.944792      1.549769      -1.5167846      15906.654    
    693000   1.1162476      0.0023323615   0.0041997441   20.588489      18.930861      1.6576277     -1.5265158      14531.033    
    694000   0.97508233     0.0023323615   0.001885831    20.11526       18.667263      1.4479973     -1.7313845      14519        
    695000   1.0199722      0.0023323615  -0.0032366206   20.337498      18.822839      1.5146587     -1.7089526      15440.308    
    696000   1.0564549      0.0023323615   0.0012449386   20.64244       19.073604      1.5688356     -1.3990824      16719.871    
    697000   0.92707881     0.0023323615   0.0024149946   20.567541      19.190829      1.376712      -1.2305551      16922.094    
    698000   0.91882916     0.0023323615  -0.0034074693   20.517022      19.152561      1.3644613     -1.298259       16471.983    
    699000   1.072837       0.0023323615   0.0066686675   20.3416        18.748437      1.593163      -1.618307       16028.663    
    700000   1.0685394      0.0023323615  -0.002159444    20.272551      18.68577       1.5867811     -1.7449028      15473.113    
    701000   1.0395273      0.0023323615  -0.0030416575   20.567944      19.024246      1.5436981     -1.5438908      14749.84     
    702000   1.0437594      0.0023323615  -0.0010837452   20.528647      18.978665      1.5499828     -1.4630154      14437.6      
    703000   1.0567115      0.0023323615   0.0014583871   20.466692      18.897476      1.5692166     -1.5696356      14938.289    
    704000   1.029978       0.0023323615  -0.00015204216  20.447785      18.918268      1.5295174     -1.5622248      15435.571    
    705000   1.0104456      0.0023323615  -0.00093573665  20.561937      19.061426      1.5005117     -1.4323509      16887.799    
    706000   1.0211633      0.0023323615  -0.00094387855  20.753797      19.23737       1.5164275     -1.2093055      18059.766    
    707000   1.1882999      0.0023323615   0.003644414    20.98005       19.215425      1.7646254     -1.3608972      18561.662    
    708000   1.1198578      0.0023323615   0.00066956625  20.549297      18.886308      1.6629889     -1.4843297      18564.745    
    709000   0.92392504     0.0023323615   0.0011888032   20.524999      19.15297       1.3720287     -1.3682214      17622.215    
    710000   1.0421373      0.0023323615   0.0028293764   20.7379        19.190326      1.5475739     -1.3958956      17281.644    
    711000   1.0224178      0.0023323615   0.0017950097   20.721418      19.203128      1.5182904     -1.3225305      17209.02     
    712000   1.0593987      0.0023323615   0.0011629413   20.654407      19.0812        1.5732071     -1.3615501      18528.168    
    713000   0.98729499     0.0023323615   0.0029456029   20.660927      19.194794      1.4661331     -1.2973998      19552.146    
    714000   0.93611627     0.0023323615   0.0016521937   20.321654      18.931521      1.3901327     -1.5458055      19755.164    
    715000   0.91872635     0.0023323615  -0.0036846448   20.509336      19.145027      1.3643086     -1.3153822      20072.432    
    716000   0.83716912     0.0023323615  -0.0013594605   20.281967      19.03877       1.2431961     -1.5081342      19479.363    
    717000   1.0547759      0.0023323615  -0.0023047075   20.786855      19.220513      1.5663421     -1.1947108      18592.538    
    718000   1.1540051      0.0023323615  -4.2149219e-05  20.495165      18.781468      1.7136975     -1.676546       17843.029    
    719000   0.99193446     0.0023323615   0.00055329593  20.463911      18.990888      1.4730227     -1.5014537      16575.774    
    720000   1.0235877      0.0023323615   0.0017004584   20.395563      18.875536      1.5200277     -1.685521       16348.2      
    721000   0.97763884     0.0023323615   6.7860185e-05  20.53675       19.084956      1.4517937     -1.5438011      17254.417    
    722000   1.0953839      0.0023323615  -0.0010474191   20.670879      19.044234      1.626645      -1.4800529      18524.017    
    723000   1.1561574      0.0023323615  -0.0033733515   20.774827      19.057933      1.7168937     -1.4213263      18632.703    
    724000   1.0511002      0.0023323615   0.0013406388   20.478144      18.91726       1.5608838     -1.4458211      18753.271    
    725000   1.0290745      0.0023323615  -0.0025179494   20.722805      19.194629      1.5281757     -1.3593707      18346.509    
    726000   0.95115224     0.0023323615  -0.0045292339   20.607525      19.195064      1.4124611     -1.376623       16813.16     
    727000   0.96234914     0.0023323615  -0.0032146117   20.480021      19.050933      1.4290885     -1.4697314      15890.373    
    728000   0.93037759     0.0023323615  -0.00056411491  20.664169      19.282558      1.3816107     -1.2526467      16051.651    
    729000   0.96947632     0.0023323615   0.00014456177  20.588473      19.1488        1.4396723     -1.3955551      16039.616    
    730000   0.97528402     0.0023323615  -0.00090996819  20.721863      19.273566      1.4482968     -1.3016709      17299.106    
    731000   0.98718899     0.0023323615   0.005016897    20.686676      19.2207        1.4659757     -1.3778432      19127.52     
    732000   1.0196831      0.0023323615  -0.0035818925   20.661361      19.147131      1.5142295     -1.3452106      19972.153    
    733000   1.0943576      0.0023323615  -0.0023250716   20.994959      19.369837      1.6251211     -1.0653824      20814.548    
    734000   1.0588162      0.0023323615  -0.00026725133  20.727262      19.15492       1.572342      -1.3556852      20822.294    
    735000   1.0182382      0.0023323615   0.00036474835  20.730922      19.218838      1.5120837     -1.3048349      19428.804    
    736000   1.0072575      0.0023323615   0.0024885827   20.387185      18.891407      1.4957773     -1.4979027      18525.595    
    737000   1.0451116      0.0023323615   0.00075641902  20.658568      19.106577      1.5519907     -1.3797048      17170.924    
    738000   0.89225449     0.0023323615  -0.0030760863   20.16358       18.838582      1.3249979     -1.642188       15666.496    
    739000   1.0135143      0.0023323615   0.0032777683   20.435127      18.930058      1.5050687     -1.5065988      15262.634    
    740000   0.91614899     0.0023323615  -0.0004009887   20.154016      18.793535      1.3604812     -1.6480089      15671.234    
    741000   1.0056757      0.0023323615   0.00089384902  20.324732      18.831304      1.4934284     -1.5309131      16810.398    
    742000   1.1471784      0.0023323615   0.0016828086   20.724147      19.020587      1.70356       -1.4524298      16988.26     
    743000   0.99852973     0.0023323615   0.00080066005  20.633006      19.15019       1.4828166     -1.3836393      17871.62     
    744000   0.8583805      0.0023323615  -0.0022635362   20.144031      18.869336      1.274695      -1.6056666      17752.346    
    745000   1.0970248      0.0023323615  -0.0035496338   20.719818      19.090736      1.6290818     -1.4194378      17022.918    
    746000   1.0899519      0.0023323615  -0.0034665873   20.704211      19.085632      1.6185786     -1.4073604      17004.743    
    747000   1.0806257      0.0023323615  -0.0020226384   20.696877      19.092147      1.6047292     -1.4402154      17478.6      
    748000   1.01942        0.0023323615   0.0012056739   20.789648      19.275809      1.5138387     -1.1842908      17669.493    
    749000   0.99611975     0.0023323615   0.0022134356   20.445773      18.966536      1.4792378     -1.5284783      17700.401    
    750000   1.0426558      0.0023323615  -0.0034894072   20.599139      19.050795      1.5483438     -1.4397408      17280.322    
    751000   0.91695988     0.0023323615   0.0005999152   20.428981      19.067295      1.3616854     -1.5513086      16680.615    
    752000   1.0806071      0.0023323615   0.0021672053   20.495758      18.891056      1.6047015     -1.580889       15128.364    
    753000   0.95355995     0.0023323615   0.00064685366  20.092503      18.676466      1.4160365     -1.7301681      14109.56     
    754000   0.99463918     0.0023323615   0.0052996198   20.396018      18.918978      1.4770392     -1.5676184      14652.188    
    755000   0.99447412     0.0023323615   0.0025939626   20.333007      18.856213      1.4767941     -1.6403426      16726.893    
    756000   0.96820763     0.0023323615  -0.0026590166   20.6014        19.163612      1.4377883     -1.4163912      18820.864    
    757000   1.0564067      0.0023323615  -0.0012001856   20.5412        18.972436      1.5687639     -1.5191691      19513.195    
    758000   0.96657527     0.0023323615  -0.0039935748   20.603922      19.168557      1.4353643     -1.3794804      19735.594    
    759000   0.96326548     0.0023323615  -0.0032553856   20.634325      19.203876      1.4304492     -1.2854576      19352.334    
    760000   1.0716003      0.0023323615  -0.0021170779   20.488945      18.897619      1.5913264     -1.5664515      18348.918    
    761000   1.1277327      0.0023323615  -0.00019266744  20.595807      18.921123      1.6746831     -1.5658937      17226.234    
    762000   1.183041       0.0023323615   0.0010379819   20.826631      19.069816      1.7568158     -1.4667562      16030.159    
    763000   1.0702502      0.0023323615  -0.0025794597   20.505642      18.91632       1.5893216     -1.5533681      15796.155    
    764000   1.0404468      0.0023323615   0.0010275661   20.535069      18.990006      1.5450634     -1.6114522      16728.931    
    765000   1.074446       0.0023323615  -0.0015943433   20.538378      18.942825      1.5955522     -1.591803       18207.411    
    766000   0.97606513     0.0023323615  -0.00087857579  20.633143      19.183687      1.4494567     -1.3813512      19065.776    
    767000   0.96039149     0.0023323615  -0.00236577     20.406403      18.980222      1.4261814     -1.4643581      18874.024    
    768000   1.0335461      0.0023323615  -0.00076376824  20.75782       19.223004      1.5348159     -1.3949268      17912.065    
    769000   0.96134176     0.0023323615  -0.0013646327   20.550903      19.12331       1.4275925     -1.5016899      15820.164    
    770000   1.1194834      0.0023323615  -0.0014377943   20.451894      18.789461      1.6624328     -1.7082439      14752.04     
    771000   1.219696       0.0023323615  -0.0021944248   20.736184      18.924936      1.8112486     -1.6558809      15149.146    
    772000   1.1376581      0.0023323615  -9.0781579e-05  20.684904      18.995482      1.6894223     -1.5341055      15313.971    
    773000   0.99554904     0.0023323615   0.0011968622   20.470497      18.992106      1.4783903     -1.5973018      15790.849    
    774000   1.0337844      0.0023323615   0.0020337691   20.546642      19.011472      1.5351698     -1.511673       16944.05     
    775000   0.97505198     0.0023323615  -0.0011767178   20.421838      18.973886      1.4479522     -1.5519382      17692.498    
    776000   0.94856053     0.0023323615  -0.0007007314   20.505681      19.097069      1.4086124     -1.3632114      17723.118    
    777000   0.9357015      0.0023323615  -0.0030120662   20.618281      19.228764      1.3895167     -1.2470383      17382.796    
    778000   0.8944719      0.0023323615   0.0025342932   20.342974      19.014683      1.3282908     -1.4863555      16816.239    
    779000   0.88135125     0.0023323615   0.0007299865   20.390558      19.081751      1.3088066     -1.5470537      16695.78     
    780000   0.98003505     0.0023323615  -0.0021464316   20.39394       18.938588      1.455352      -1.535513       16660.754    
    781000   1.0283579      0.0023323615   0.00062414624  20.352794      18.825682      1.5271114     -1.6004873      16338.13     
    782000   1.090942       0.0023323615   0.0037790069   20.533775      18.913727      1.6200488     -1.5782941      15582.826    
    783000   0.94343079     0.0023323615   0.0028655506   20.51595       19.114955      1.4009947     -1.3630576      16191.969    
    784000   1.0658438      0.0023323615   0.0049060496   20.743767      19.160989      1.582778      -1.2794499      17482.341    
    785000   0.91563002     0.0023323615  -0.0012386332   20.389272      19.029561      1.3597106     -1.4834251      19349.306    
    786000   1.0883593      0.0023323615  -0.00049957652  21.113448      19.497234      1.6162136     -1.1292947      19620.945    
    787000   1.0840721      0.0023323615  -0.00030785342  20.889244      19.279397      1.6098471     -1.3053526      19708.032    
    788000   1.0569793      0.0023323615  -0.0045524374   20.828655      19.25904       1.5696142     -1.2229199      19905.422    
    789000   0.80043449     0.0023323615   0.00073298753  20.421563      19.232918      1.1886452     -1.3481308      19958.14     
    790000   1.1543325      0.0023323615  -0.00063138013  20.602776      18.888593      1.7141838     -1.5808557      19472.769    
    791000   1.0402054      0.0023323615  -0.0033117864   20.642567      19.097862      1.544705      -1.4817666      17756.931    
    792000   1.1200749      0.0023323615   0.0015537819   20.590171      18.926859      1.6633112     -1.5338529      14968.997    
    793000   0.90287928     0.0023323615   0.0021249053   20.132062      18.791287      1.3407757     -1.6276442      13865.905    
    794000   1.2230542      0.0023323615   0.0022280095   20.673316      18.85708       1.8162355     -1.5919191      13753.11     
    795000   1.0771256      0.0023323615  -0.00044946272  20.349756      18.750225      1.5995315     -1.6963548      14227.618    
    796000   0.96006871     0.0023323615  -0.00021823637  20.098202      18.6725        1.425702      -1.7855967      13799.005    
    797000   0.9476042      0.0023323615  -0.00098457468  19.975087      18.567895      1.4071922     -1.8531225      13793.501    
    798000   0.95476598     0.0023323615   0.00075014701  20.245904      18.828077      1.4178275     -1.5831768      13691.491    
    799000   1.0535333      0.0023323615  -0.0036627072   20.210979      18.646482      1.5644969     -1.766647       13723.367    
    800000   1.0492282      0.0023323615   0.0019051884   20.281397      18.723293      1.5581038     -1.7801814      13574.266    
    801000   0.99949198     0.0023323615  -0.0017123147   20.370389      18.886143      1.4842456     -1.5060682      13842.882    
    802000   0.93712937     0.0023323615  -0.00090051272  20.039029      18.647392      1.3916371     -1.726597       13766.937    
    803000   1.0115076      0.0023323615  -0.0027399017   20.225645      18.723557      1.5020887     -1.6717265      13737.541    
    804000   1.0430703      0.0023323615   0.0013997027   20.502536      18.953576      1.5489594     -1.6470334      13772.789    
    805000   1.195447       0.0023323615   0.0037739324   20.869893      19.094655      1.7752388     -1.4951063      14548.916    
    806000   1.0388998      0.0023323615   8.8324877e-05  20.477684      18.934918      1.5427662     -1.4610579      15529.922    
    807000   0.88653914     0.0023323615  -0.00043644346  19.974662      18.658151      1.3165106     -1.7338957      14836.515    
    808000   0.90947536     0.0023323615  -0.00022818733  20.305949      18.955378      1.3505709     -1.5912183      14293.443    
    809000   1.0701897      0.0023323615   0.0044623422   20.315239      18.726008      1.5892317     -1.72912        15778.595    
    810000   0.95615013     0.0023323615  -0.0052335028   20.494182      19.074299      1.4198829     -1.4748049      16453.283    
    811000   1.0370726      0.0023323615   0.0030912124   20.61682       19.076768      1.5400529     -1.4216632      16915.664    
    812000   0.98812496     0.0023323615   0.002034601    20.690927      19.223561      1.4673656     -1.2908148      17476.292    
    813000   0.85639081     0.0023323615  -0.0025241335   20.337051      19.065311      1.2717403     -1.3980215      18151.875    
    814000   1.0523588      0.0023323615   0.0024946819   20.521921      18.959169      1.5627528     -1.582515       19035.564    
    815000   1.0439809      0.0023323615   0.0027696665   20.801623      19.251311      1.5503117     -1.4189106      18193.876    
    816000   0.86214435     0.0023323615  -0.00015158955  20.348147      19.067862      1.2802844     -1.3754853      16296.516    
    817000   1.0552588      0.0023323615  -0.0044104654   20.333943      18.766884      1.5670593     -1.6629288      15396.518    
    818000   0.98636009     0.0023323615   0.0020909887   20.388178      18.923434      1.4647447     -1.5956476      14223.623    
    819000   1.0631217      0.0023323615  -0.0011061261   20.591461      19.012725      1.5787357     -1.5979551      13631.294    
    820000   0.91579716     0.0023323615  -0.0011097795   20.545787      19.185829      1.3599588     -1.4576176      13950.196    
    821000   1.0852034      0.0023323615  -0.0023673407   20.479548      18.868021      1.6115271     -1.6373625      14294.452    
    822000   0.94571641     0.0023323615   0.001609221    20.29123       18.886841      1.4043889     -1.5835362      13985.768    
    823000   1.0109275      0.0023323615  -0.0037032449   20.397615      18.896387      1.5012273     -1.5672234      14083.16     
    824000   0.97198246     0.0023323615  -0.004239103    20.423696      18.980302      1.443394      -1.4374628      14442.512    
    825000   1.0786164      0.0023323615  -0.0017670938   20.377248      18.775503      1.6017453     -1.6416622      14851.564    
    826000   1.1309233      0.0023323615   0.0036005949   21.048025      19.368604      1.6794211     -1.2890722      14857.739    
    827000   0.93035618     0.0023323615  -0.0062890361   20.429031      19.047452      1.3815789     -1.3543223      15174.889    
    828000   0.93559566     0.0023323615  -0.0031047242   20.357302      18.967942      1.3893595     -1.5287414      15591.218    
    829000   0.99542934     0.0023323615  -0.00078187043  20.46392       18.985708      1.4782126     -1.5172512      16049.217    
    830000   0.86733358     0.0023323615  -0.0031378717   20.438483      19.150492      1.2879904     -1.3999487      15996.696    
    831000   0.85578306     0.0023323615  -0.0015836849   20.427492      19.156655      1.2708378     -1.4240629      16380.405    
    832000   1.0898603      0.0023323615  -0.00058450913  20.448896      18.830454      1.6184426     -1.5490024      15270.508    
    833000   0.86954739     0.0023323615   0.0021452075   19.902704      18.611427      1.2912779     -1.7694129      13978.098    
    834000   0.99499273     0.0023323615   0.00012742833  20.189672      18.712108      1.4775642     -1.7584411      13760.844    
    835000   0.92778928     0.0023323615  -0.00053939175  20.073137      18.69537       1.3777671     -1.7551644      13928.187    
    836000   0.96205548     0.0023323615   0.0018461445   20.275262      18.84661       1.4286524     -1.5505033      13597.494    
    837000   0.96038286     0.0023323615   0.00064534455  20.328783      18.902615      1.4261685     -1.5834898      14326.712    
    838000   0.80977744     0.0023323615  -0.00041839098  20.074532      18.872013      1.2025195     -1.5237547      15190.339    
    839000   0.98914045     0.0023323615   0.0014211736   20.434731      18.965857      1.4688736     -1.5119968      15005.661    
    840000   0.88133862     0.0023323615  -0.0017981089   20.327606      19.018818      1.3087879     -1.4712726      14562.828    
    841000   1.0547105      0.0023323615  -0.0021904595   20.469952      18.903707      1.5662451     -1.5805552      14910.02     
    842000   1.0151802      0.0023323615  -0.0013829827   20.405831      18.898288      1.5075426     -1.6699478      15150.988    
    843000   0.81265697     0.0023323615   0.0013851723   20.113267      18.906471      1.2067956     -1.6057746      14696.412    
    844000   1.0270341      0.0023323615   0.0021472657   20.623326      19.09818       1.5251457     -1.378281       14512.666    
    845000   1.1198068      0.0023323615   0.0017846707   20.746011      19.083098      1.662913      -1.4319512      14761.969    
    846000   1.0077178      0.0023323615   0.00066643628  20.816443      19.319982      1.4964609     -1.1511176      15407.745    
    847000   1.13214        0.0023323615   0.00035728915  20.948041      19.266813      1.6812279     -1.2938447      17381.516    
    848000   0.98854702     0.0023323615   0.001169674    20.664656      19.196664      1.4679923     -1.2395432      19063.945    
    849000   1.1043994      0.0023323615   0.0024641379   20.994503      19.35447       1.6400331     -1.1404051      19491.882    
    850000   0.99666794     0.0023323615   0.0014207986   20.839569      19.359517      1.4800519     -1.1370145      20137.457    
    851000   0.91083816     0.0023323615   0.0012228647   20.634798      19.282204      1.3525947     -1.2221557      20547.042    
    852000   0.90561877     0.0023323615  -0.00289417     20.677918      19.333074      1.3448439     -1.1544206      19869.584    
    853000   0.95309549     0.0023323615  -0.0006996286   20.60911       19.193763      1.4153468     -1.2285191      18555.321    
    854000   1.0351305      0.0023323615  -0.0022502887   20.645888      19.108719      1.5371688     -1.3687682      16905.645    
    855000   0.96109376     0.0023323615  -0.00089887829  20.624044      19.196819      1.4272242     -1.3267007      15709.949    
    856000   1.064512       0.0023323615   0.0012571524   20.540581      18.959781      1.5808003     -1.5424258      15116.072    
    857000   1.0910268      0.0023323615   0.0020864607   20.476316      18.856141      1.6201747     -1.5575636      14880.071    
    858000   0.94284752     0.0023323615   0.00095645204  20.213914      18.813785      1.4001286     -1.664879       14285.732    
    859000   1.0774625      0.0023323615  -0.0040835103   20.286643      18.686611      1.6000319     -1.7228257      13773.989    
    860000   1.0159513      0.0023323615   0.003390425    20.320597      18.811909      1.5086877     -1.6753405      13772.362    
    861000   0.95895026     0.0023323615  -0.00078148903  20.37098       18.946939      1.4240411     -1.4526772      14670.245    
    862000   0.93006649     0.0023323615  -0.0025044638   20.194896      18.813748      1.3811487     -1.5364272      16478.766    
    863000   0.95112751     0.0023323615   0.002564687    20.209497      18.797072      1.4124244     -1.6670084      17863.367    
    864000   1.0066351      0.0023323615   0.0016912586   20.391235      18.896382      1.4948531     -1.5519947      18465.297    
    865000   1.0749901      0.0023323615   0.0039738095   20.458977      18.862617      1.5963603     -1.6477955      16539.397    
    866000   0.85524561     0.0023323615  -0.0011139895   20.010069      18.740029      1.2700397     -1.7116248      14440.667    
    867000   1.0823327      0.0023323615  -0.0035006623   20.436404      18.82914       1.607264      -1.5747132      13970.167    
    868000   1.1039846      0.0023323615   0.00064554913  20.459732      18.820314      1.6394172     -1.6510383      14442.1      
    869000   0.89065116     0.0023323615   0.0025785954   20.238313      18.915696      1.322617      -1.5502405      15578.533    
    870000   1.0345806      0.0023323615   0.0015131962   20.416037      18.879685      1.5363522     -1.5440515      15572.418    
    871000   1.0438722      0.0023323615  -0.0031875777   20.212001      18.661851      1.5501503     -1.6933022      16236.311    
    872000   1.0128838      0.0023323615   0.00076605585  20.413186      18.909053      1.5041324     -1.6526599      16733.303    
    873000   1.0117158      0.0023323615  -0.0023747531   20.410513      18.908115      1.5023979     -1.5790194      16610.757    
    874000   0.92966336     0.0023323615   0.00078526039  20.549653      19.169103      1.3805501     -1.3132601      16644.787    
    875000   1.0196134      0.0023323615  -0.0029513214   20.494644      18.980518      1.5141259     -1.4605277      16763.749    
    876000   1.0089956      0.0023323615  -0.0025154837   20.444705      18.946347      1.4983585     -1.4303575      16532.805    
    877000   1.2098091      0.0023323615   0.00037329903  20.783357      18.98679       1.7965665     -1.4933691      16741.022    
    878000   0.95689129     0.0023323615  -0.003947858    20.624179      19.203195      1.4209836     -1.365269       16822.95     
    879000   1.0162576      0.0023323615   0.0044850879   20.567218      19.058075      1.5091425     -1.5172325      17642.433    
    880000   1.0061007      0.0023323615  -0.0010561244   20.529683      19.035624      1.4940596     -1.4103001      18399.374    
    881000   0.9855255      0.0023323615  -0.0027694642   20.614531      19.151026      1.4635054     -1.33085        18975.812    
    882000   1.0834974      0.0023323615   0.0016769756   20.734765      19.125772      1.6089936     -1.3975129      19453.341    
    883000   0.98685417     0.0023323615  -0.0022454869   20.826124      19.360645      1.4654784     -1.1740526      18883.176    
    884000   0.91479188     0.0023323615  -0.00013748071  20.444507      19.086041      1.3584659     -1.3980355      17717.242    
    885000   0.9544107      0.0023323615  -0.0046565786   20.393614      18.976314      1.4172999     -1.481069       18225.769    
    886000   0.99369781     0.0023323615   0.0014554794   20.463447      18.987806      1.4756412     -1.4553792      18433.428    
    887000   0.80926454     0.0023323615  -0.0010380249   20.278411      19.076653      1.2017578     -1.4136158      18646.637    
    888000   1.0151002      0.0023323615  -0.0011409873   20.385831      18.878407      1.5074238     -1.52039        17965.319    
    889000   0.84668833     0.0023323615  -0.0033254264   20.205308      18.947976      1.2573322     -1.4470866      16751.229    
    890000   0.93495339     0.0023323615  -0.0010310366   20.234286      18.845881      1.3884058     -1.629736       15120.54     
    891000   1.0464304      0.0023323615  -0.0016883373   20.373254      18.819305      1.5539491     -1.6232437      15261.206    
    892000   1.0551427      0.0023323615  -0.0045800132   20.568519      19.001633      1.5668869     -1.5151676      16366.729    
    893000   1.1706896      0.0023323615  -0.001133482    20.584865      18.846391      1.738474      -1.5740213      17667.616    
    894000   1.1830436      0.0023323615   7.9293619e-05  20.734679      18.97786       1.7568197     -1.5192128      16633.877    
    895000   1.000143       0.0023323615   0.0017223495   20.499841      19.014629      1.4852124     -1.4477705      15204.421    
    896000   1.0850794      0.0023323615  -0.0009210938   20.309978      18.698635      1.6113429     -1.6967437      14337.978    
    897000   1.0459626      0.0023323615  -0.00050899133  20.640565      19.087311      1.5532545     -1.4475317      14457.096    
    898000   0.94799367     0.0023323615  -0.001043699    20.527753      19.119982      1.4077706     -1.3326611      15301.158    
    899000   1.2000838      0.0023323615   9.9032993e-05  20.969695      19.18757       1.7821245     -1.2763506      16287.748    
    900000   0.96548811     0.0023323615   0.0020354136   21.031662      19.597912      1.4337498     -0.9526441      17539.62     
    901000   1.1833176      0.0023323615  -0.0019998859   20.935939      19.178713      1.7572267     -1.3015706      18179.322    
    902000   1.1358046      0.0023323615  -0.0013101815   20.818147      19.131477      1.6866698     -1.259645       17775.231    
    903000   1.0465185      0.0023323615  -0.0010802659   20.600046      19.045966      1.55408       -1.3864334      17463.685    
    904000   0.98235594     0.0023323615   0.00037652884  20.503961      19.045163      1.4587986     -1.4854463      16748.955    
    905000   0.98645705     0.0023323615  -0.00062436693  20.207129      18.74224       1.4648887     -1.6579329      16474.224    
    906000   0.97117709     0.0023323615  -0.0023796269   20.386879      18.944681      1.442198      -1.4818386      16363.879    
    907000   1.1374085      0.0023323615  -0.001341996    20.69263       19.003579      1.6890516     -1.4523036      16702.044    
    908000   0.84363733     0.0023323615  -0.0016678541   20.127974      18.875173      1.2528014     -1.589322       16537.166    
    909000   0.98873204     0.0023323615  -5.9975059e-05  20.066281      18.598014      1.4682671     -1.8252157      15654.393    
    910000   0.99694839     0.0023323615  -0.0002773249   20.466414      18.985946      1.4804684     -1.519703       15084.813    
    911000   1.2346337      0.0023323615  -0.0020114894   20.899317      19.065886      1.833431      -1.3496269      15127.018    
    912000   1.020719       0.0023323615   0.0010780528   20.46434       18.948572      1.5157677     -1.4407731      16288.71     
    913000   0.98369643     0.0023323615   0.0020749926   20.909046      19.448257      1.4607892     -1.1114431      17226.195    
    914000   1.1484772      0.0023323615  -0.00062932315  20.853682      19.148193      1.7054886     -1.3800708      17816.228    
    915000   0.91727403     0.0023323615  -0.0014687756   20.351021      18.988869      1.3621519     -1.4487254      18143.688    
    916000   1.1367516      0.0023323615   0.0019454004   20.736698      19.048622      1.6880761     -1.4525153      16788.632    
    917000   1.0621973      0.0023323615  -0.00048070476  20.704019      19.126656      1.577363      -1.3947917      15494.625    
    918000   1.0895858      0.0023323615   0.0034017982   20.695733      19.077698      1.6180349     -1.4597362      15096.095    
    919000   1.0719304      0.0023323615  -0.0023517466   20.282767      18.69095       1.5918167     -1.8340092      14646.585    
    920000   0.98383617     0.0023323615   0.001209449    20.25852       18.797523      1.4609967     -1.5721434      15351.374    
    921000   1.258116       0.0023323615   0.0038783419   20.664239      18.795937      1.8683022     -1.5728645      16403.533    
    922000   0.94787438     0.0023323615   0.0014205495   20.342083      18.934489      1.4075935     -1.4716855      16935.675    
    923000   1.060645       0.0023323615   0.00073637715  20.783688      19.20863       1.5750578     -1.3401919      16640.447    
    924000   0.9903184      0.0023323615   5.7804791e-05  20.297992      18.827369      1.4706228     -1.6403594      16782.902    
    925000   0.96601789     0.0023323615  -0.0018733598   20.177828      18.743291      1.4345366     -1.7561022      15300.297    
    926000   0.93955401     0.0023323615   0.0019705428   20.209756      18.814518      1.3952377     -1.6514424      14040.605    
    927000   0.86226321     0.0023323615   0.00018672297  19.89909       18.618629      1.2804609     -1.8056376      13961.916    
    928000   1.057738       0.0023323615  -0.0034419968   20.423801      18.85306       1.570741      -1.5905592      14965.817    
    929000   0.90818747     0.0023323615  -0.0017980342   20.198595      18.849936      1.3486584     -1.4851855      16639.959    
    930000   1.0033272      0.0023323615   0.0016916174   20.462061      18.97212       1.4899409     -1.4576346      17141.259    
    931000   0.87922639     0.0023323615  -0.0022964527   20.647043      19.341392      1.3056512     -1.1990407      16782.882    
    932000   1.0065065      0.0023323615  -0.0012566782   20.464777      18.970115      1.4946622     -1.5737554      16655.386    
    933000   1.0005943      0.0023323615   0.00011123483  20.222905      18.737022      1.4858825     -1.655606       15106.21     
    934000   1.016268       0.0023323615  -0.0017879842   20.103491      18.594333      1.509158      -1.873348       13441.941    
    935000   0.9343219      0.0023323615   0.0039843583   20.622389      19.234921      1.387468      -1.4248433      13735.518    
    936000   0.99897312     0.0023323615   0.0030842355   20.433427      18.949952      1.4834751     -1.5068191      14106.005    
    937000   0.97268453     0.0023323615   0.003915668    20.403865      18.959429      1.4444365     -1.4716333      15011.337    
    938000   1.1323686      0.0023323615   0.0012048499   20.498727      18.81716       1.6815673     -1.6142744      16282.612    
    939000   0.95674794     0.0023323615   0.0015957905   20.329484      18.908714      1.4207707     -1.6397866      16997.058    
    940000   0.97401717     0.0023323615  -0.0021810062   20.507313      19.060897      1.4464155     -1.4543419      17493.392    
    941000   1.1184338      0.0023323615   0.0033846139   20.777905      19.117031      1.6608741     -1.3355905      17357.495    
    942000   1.0658006      0.0023323615   0.0037766099   20.641922      19.059208      1.5827139     -1.4392694      17078.843    
    943000   0.92861198     0.0023323615   0.00059405821  20.475458      19.09647       1.3789888     -1.2660761      18517.972    
    944000   0.88260563     0.0023323615   0.0016815342   20.419033      19.108363      1.3106694     -1.4415627      17362.903    
    945000   0.99879899     0.0023323615  -0.0038748312   20.320213      18.836996      1.4832165     -1.5636246      15760.778    
    946000   1.1667266      0.0023323615   0.00068846201  20.738179      19.00559       1.7325889     -1.4338225      14708.954    
    947000   1.0336596      0.0023323615  -0.0032898699   20.597724      19.062739      1.5349845     -1.4065949      14457.071    
    948000   0.95540528     0.0023323615   0.00090182945  20.224095      18.805318      1.4187768     -1.6448881      15185.742    
    949000   0.99442042     0.0023323615  -0.00072471009  20.599166      19.122452      1.4767143     -1.4292982      16532.255    
    950000   0.94703391     0.0023323615   2.241942e-05   20.273207      18.866861      1.4063454     -1.6629613      16828.955    
    951000   0.93266678     0.0023323615   0.0012188887   20.418806      19.033796      1.3850102     -1.5202552      17128.086    
    952000   1.0547892      0.0023323615  -0.00053274218  20.588287      19.021925      1.5663619     -1.3893141      17231.665    
    953000   0.98996302     0.0023323615  -0.0013228995   20.34712       18.877025      1.4700951     -1.6331007      16473.943    
    954000   0.97139724     0.0023323615  -4.6698904e-06  20.192162      18.749638      1.4425249     -1.6702517      15868.385    
    955000   0.97947743     0.0023323615   9.8950604e-05  20.286782      18.832258      1.454524      -1.6241698      15189.574    
    956000   0.99100777     0.0023323615   0.0056155476   20.627034      19.155388      1.4716465     -1.3332241      14910.733    
    957000   1.2008984      0.0023323615  -0.002904145    20.866089      19.082754      1.7833341     -1.475346       15833.157    
    958000   0.86649767     0.0023323615   0.0016781484   20.135884      18.849135      1.286749      -1.5389864      17330.72     
    959000   0.99433526     0.0023323615  -0.0013625857   20.397945      18.921358      1.4765879     -1.5952599      17691.94     
    960000   0.89876287     0.0023323615  -0.00049205458  20.329803      18.99514       1.3346629     -1.5487703      16954.406    
    961000   1.1063077      0.0023323615  -0.0050896229   20.637789      18.994922      1.6428669     -1.4460821      16229.605    
    962000   1.106939       0.0023323615  -0.00020615528  20.377294      18.73349       1.6438044     -1.625607       15011.46     
    963000   0.99713697     0.0023323615  -0.00064891524  20.031353      18.550605      1.4807484     -1.8690363      13987.413    
    964000   1.0476496      0.0023323615   0.0029769644   20.487382      18.931623      1.5557597     -1.4700804      13904.754    
    965000   1.0990194      0.0023323615  -0.00020676496  20.654833      19.022789      1.6320438     -1.561381       15128.565    
    966000   1.0341746      0.0023323615  -0.00080152607  20.512402      18.976653      1.5357493     -1.6005248      16652.849    
    967000   0.98235386     0.0023323615  -0.0055648755   20.581848      19.123053      1.4587955     -1.3613415      17694.906    
    968000   0.89290804     0.0023323615  -0.00060890749  20.719303      19.393335      1.3259684     -1.1494548      18514.922    
    969000   1.0089558      0.0023323615  -0.0017692182   20.673123      19.174823      1.4982994     -1.2970221      19054.872    
    970000   1.1421223      0.0023323615  -0.0015508058   20.985635      19.289584      1.6960516     -1.2283638      18988.345    
    971000   0.96840578     0.0023323615  -0.0017800908   20.524608      19.086525      1.4380826     -1.5212732      18456.836    
    972000   1.0835858      0.0023323615  -0.0019983038   20.558675      18.94955       1.6091249     -1.633816       18447.87     
    973000   1.0011763      0.0023323615   5.7122784e-05  20.393946      18.907199      1.4867468     -1.5240635      16279.725    
    974000   1.1495233      0.0023323615  -0.0010913703   20.682269      18.975227      1.707042      -1.6616758      13944.926    
    975000   1.0021432      0.0023323615  -0.001063894    20.254652      18.76647       1.4881827     -1.8401488      13757.123    
    976000   0.91673084     0.0023323615  -0.0005290099   20.20959       18.848245      1.3613453     -1.5441538      14268.105    
    977000   0.93021034     0.0023323615   0.0025240803   20.209032      18.82767       1.3813624     -1.6674298      15436.6      
    978000   1.0260333      0.0023323615   0.0044366554   20.897966      19.374307      1.5236595     -1.1668359      16192.849    
    979000   0.90311961     0.0023323615  -0.00092154771  20.137282      18.79615       1.3411326     -1.695777       16575.077    
    980000   0.97298503     0.0023323615   0.00034320715  20.290346      18.845463      1.4448828     -1.7707299      16158.678    
    981000   0.92228585     0.0023323615  -0.0025758068   20.194196      18.824602      1.3695945     -1.5873138      15534.456    
    982000   0.95939532     0.0023323615  -0.0024265407   20.4882        19.063498      1.4247021     -1.55481        15784.361    
    983000   0.98720776     0.0023323615  -0.0010876826   20.293893      18.82789       1.4660035     -1.6739716      16318.478    
    984000   1.0073339      0.0023323615  -0.0025039576   20.479231      18.98334       1.4958908     -1.5121726      15936.712    
    985000   0.92203389     0.0023323615  -0.0016075086   20.33632       18.967099      1.3692203     -1.451675       14685.851    
    986000   0.93586095     0.0023323615   0.0012828644   20.263134      18.87338       1.3897535     -1.6378346      14408.845    
    987000   0.94787928     0.0023323615   0.0036872206   19.988426      18.580825      1.4076007     -1.8426372      14426.828    
    988000   0.98906966     0.0023323615   0.0004926111   20.449807      18.981038      1.4687684     -1.4127839      15238.682    
    989000   1.1307163      0.0023323615  -0.0029376569   20.801322      19.122208      1.6791138     -1.4324756      16873.205    
    990000   0.96233489     0.0023323615  -0.0026397964   20.547594      19.118527      1.4290673     -1.4333289      18525.988    
    991000   1.0918952      0.0023323615   0.0035406257   20.488105      18.86664       1.6214643     -1.5141079      18925.877    
    992000   1.0558143      0.0023323615   0.0026067476   20.69497       19.127085      1.5678843     -1.3903189      18683.478    
    993000   0.93625783     0.0023323615   0.0049793005   20.541952      19.151609      1.3903429     -1.3092206      17653.205    
    994000   0.91116459     0.0023323615   0.00061962306  20.614102      19.261023      1.3530794     -1.2786397      16675.666    
    995000   0.99270625     0.0023323615  -0.0023973213   20.487298      19.013129      1.4741688     -1.4848659      16429.037    
    996000   0.95095388     0.0023323615   0.0048118508   20.445295      19.033128      1.4121665     -1.424272       17026.089    
    997000   0.83670244     0.0023323615  -0.0031282366   20.253451      19.010948      1.2425031     -1.5330289      17265.412    
    998000   0.97476553     0.0023323615   0.0029073561   20.311356      18.863829      1.4475268     -1.5353241      16436.48     
    999000   1.0586596      0.0023323615   0.0037770972   20.449648      18.877539      1.5721095     -1.5407495      14990.985    
   1000000   0.97023839     0.0023323615  -0.0030072589   20.40982       18.969016      1.440804      -1.5043423      14810.83     
Loop time of 61.235 on 1 procs for 1000000 steps with 100 atoms

Performance: 7054784.276 tau/day, 16330.519 timesteps/s
99.8% CPU use with 1 MPI tasks x 1 OpenMP threads

MPI task timing breakdown:
Section |  min time  |  avg time  |  max time  |%varavg| %total
---------------------------------------------------------------
Pair    | 47.658     | 47.658     | 47.658     |   0.0 | 77.83
Bond    | 1.4644     | 1.4644     | 1.4644     |   0.0 |  2.39
Neigh   | 5.249      | 5.249      | 5.249      |   0.0 |  8.57
Comm    | 3.4702     | 3.4702     | 3.4702     |   0.0 |  5.67
Output  | 0.27772    | 0.27772    | 0.27772    |   0.0 |  0.45
Modify  | 2.6966     | 2.6966     | 2.6966     |   0.0 |  4.40
Other   |            | 0.4188     |            |       |  0.68

Nlocal:            100 ave         100 max         100 min
Histogram: 1 0 0 0 0 0 0 0 0 0
Nghost:            466 ave         466 max         466 min
Histogram: 1 0 0 0 0 0 0 0 0 0
Neighs:           4163 ave        4163 max        4163 min
Histogram: 1 0 0 0 0 0 0 0 0 0

Total # of neighbors = 4163
Ave neighs/atom = 41.63
Ave special neighs/atom = 1.98
Neighbor list builds = 98035
Dangerous builds = 81159

write_data      ${outputfile_assembled} nofix nocoeff
write_data      7_assembled.data nofix nocoeff
System init for write_data ...
Generated 0 of 6 mixed pair_coeff terms from geometric mixing rule

Total wall time: 0:01:03
