LAMMPS (23 Jun 2022 - Update 1)
OMP_NUM_THREADS environment is not set. Defaulting to 1 thread. (src/comm.cpp:98)
  using 1 OpenMP thread(s) per MPI task


variable        runtime equal 1000000
variable		subsample_rate equal 1000

variable		outputfile_created string '3_created.data'
variable		outputfile_relaxed string '5_relaxed.data'
variable		outputfile_selfasb string '6_a_self_assemble.lammpstrj'
variable		outputfile_trajlin string '6_b_trajlin.data'
variable		outputfile_assembled string '7_assembled.data'

units           lj
atom_style      full
dimension       3
boundary        p p p
timestep        0.005

read_data       ${outputfile_created}
read_data       3_created.data
Reading data file ...
  orthogonal box = (0 0 0) to (35 35 35)
  1 by 1 by 1 MPI processor grid
  reading atoms ...
  100 atoms
  reading velocities ...
  100 velocities
  scanning bonds ...
  1 = max bonds/atom
  reading bonds ...
  99 bonds
Finding 1-2 1-3 1-4 neighbors ...
  special bond factors lj:    0        0        0       
  special bond factors coul:  0        0        0       
     2 = max # of 1-2 neighbors
     2 = max # of 1-3 neighbors
     4 = max # of 1-4 neighbors
     6 = max # of special neighbors
  special bonds CPU = 0.000 seconds
  read_data CPU = 0.008 seconds

bond_style      fene
bond_coeff      * 30.0 1.5 1.0 1.0
special_bonds   fene
Finding 1-2 1-3 1-4 neighbors ...
  special bond factors lj:    0        1        1       
  special bond factors coul:  0        1        1       
     2 = max # of 1-2 neighbors
     6 = max # of special neighbors
  special bonds CPU = 0.000 seconds

variable        Temp equal 1.0
variable        velSeed equal 926458

velocity        all create ${Temp} ${velSeed}
velocity        all create 1 ${velSeed}
velocity        all create 1 926458

### Output
thermo_style    custom step temp density press etotal pe ke epair spcpu
thermo          1000

###########################################################################
# Soft relaxation (to remove overlaps of particles)
######################################################################

pair_style      soft 1.0
pair_coeff      * * 0.0
variable        prefactor equal ramp(0,300)
fix             rampSoft all adapt 1 pair soft a * * v_prefactor

minimize        0.0 1.0e-8 1000 100000
WARNING: Using 'neigh_modify every 1 delay 0 check yes' setting during minimization (src/min.cpp:187)
Generated 0 of 6 mixed pair_coeff terms from geometric mixing rule
Neighbor list info ...
  update every 1 steps, delay 0 steps, check yes
  max neighbors/atom: 2000, page size: 100000
  master list distance cutoff = 1.3
  ghost atom cutoff = 1.3
  binsize = 0.65, bins = 54 54 54
  1 neighbor lists, perpetual/occasional/extra = 1 0 0
  (1) pair soft, perpetual
      attributes: half, newton on
      pair build: half/bin/newton
      stencil: half/bin/3d
      bin: standard
WARNING: Communication cutoff 1.3 is shorter than a bond length based estimate of 1.7550000000000001. This may lead to errors. (src/comm.cpp:727)
Per MPI rank memory allocation (min/avg/max) = 8.346 | 8.346 | 8.346 Mbytes
   Step          Temp         Density         Press          TotEng         PotEng         KinEng         E_pair         S/CPU     
         0   1              0.0023323615  -0.0039617958   21.524174      20.039174      1.485          0              0            
       362   1              0.0023323615   0.0023090379   21.485548      20.000548      1.485          0              60531.109    
Loop time of 0.00599469 on 1 procs for 362 steps with 100 atoms

99.9% CPU use with 1 MPI tasks x 1 OpenMP threads

Minimization stats:
  Stopping criterion = force tolerance
  Energy initial, next-to-last, final = 
      20.0391741078675   20.0005480767337   20.0005480767337
  Force two-norm initial, final = 11.878422 7.9509778e-09
  Force max component initial, final = 6.6117807 1.3572772e-09
  Final line search alpha, max atom move = 1 1.3572772e-09
  Iterations, force evaluations = 362 738

MPI task timing breakdown:
Section |  min time  |  avg time  |  max time  |%varavg| %total
---------------------------------------------------------------
Pair    | 0.0002661  | 0.0002661  | 0.0002661  |   0.0 |  4.44
Bond    | 0.0028669  | 0.0028669  | 0.0028669  |   0.0 | 47.82
Neigh   | 0.0014786  | 0.0014786  | 0.0014786  |   0.0 | 24.67
Comm    | 0.0002907  | 0.0002907  | 0.0002907  |   0.0 |  4.85
Output  | 0          | 0          | 0          |   0.0 |  0.00
Modify  | 0          | 0          | 0          |   0.0 |  0.00
Other   |            | 0.001092   |            |       | 18.22

Nlocal:            100 ave         100 max         100 min
Histogram: 1 0 0 0 0 0 0 0 0 0
Nghost:             20 ave          20 max          20 min
Histogram: 1 0 0 0 0 0 0 0 0 0
Neighs:              0 ave           0 max           0 min
Histogram: 1 0 0 0 0 0 0 0 0 0

Total # of neighbors = 0
Ave neighs/atom = 0
Ave special neighs/atom = 1.98
Neighbor list builds = 17
Dangerous builds = 0

fix             nvtSoft all nvt temp ${Temp} ${Temp} 0.5
fix             nvtSoft all nvt temp 1 ${Temp} 0.5
fix             nvtSoft all nvt temp 1 1 0.5
run             100000
Generated 0 of 6 mixed pair_coeff terms from geometric mixing rule
WARNING: Communication cutoff 1.3 is shorter than a bond length based estimate of 1.7550000000000001. This may lead to errors. (src/comm.cpp:727)
Per MPI rank memory allocation (min/avg/max) = 7.221 | 7.221 | 7.221 Mbytes
   Step          Temp         Density         Press          TotEng         PotEng         KinEng         E_pair         S/CPU     
       362   1              0.0023323615   0.0023090379   21.485548      20.000548      1.485          0              0            
      1000   0.90989032     0.0023323615  -0.0021940042   21.776974      20.425787      1.3511871      0.00036425437  65774.911    
      2000   0.86546688     0.0023323615   0.0034714157   21.677128      20.39191       1.2852183      0.0025814786   64774.735    
      3000   0.98199538     0.0023323615   0.0028144228   21.866132      20.407869      1.4582631      0.0011756043   61500.691    
      4000   1.004495       0.0023323615  -0.0014058211   21.945624      20.453949      1.4916751      0.011986179    62397.543    
      5000   1.1222705      0.0023323615   0.0044495116   21.986385      20.319813      1.6665718      0.0050317639   62651.028    
      6000   1.0538243      0.0023323615   0.0023957538   21.985713      20.420784      1.564929       0.012100514    63259.177    
      7000   1.0210598      0.0023323615  -0.00038820026  21.904665      20.388391      1.5162738      0              64034.126    
      8000   0.94819751     0.0023323615   0.0024943091   21.747889      20.339816      1.4080733      0              64344.301    
      9000   0.92364502     0.0023323615   0.0020053029   21.724166      20.352554      1.3716129      1.7780894e-05  63939.085    
     10000   0.86685188     0.0023323615   0.00078277366  21.644879      20.357604      1.287275       0.0098636418   64205.808    
     11000   1.0057103      0.0023323615   0.00010113276  21.8558        20.362321      1.4934798      0.020705341    63943.836    
     12000   0.97901664     0.0023323615  -0.0026996968   21.871206      20.417366      1.4538397      0.0052928539   63801.837    
     13000   0.97718436     0.0023323615  -6.1641422e-06  21.963706      20.512587      1.4511188      0.025022446    61782.237    
     14000   1.0530014      0.0023323615  -0.0009993112   21.947994      20.384287      1.5637071      0.0020860456   62836.718    
     15000   0.99094527     0.0023323615   0.0011068478   21.895146      20.423592      1.4715537      0.0015091113   63854.416    
     16000   0.91285091     0.0023323615  -0.00025424173  21.87524       20.519657      1.3555836      0.0047853639   63808.643    
     17000   0.82806978     0.0023323615  -0.00054698156  21.701984      20.472301      1.2296836      0              63874.353    
     18000   1.043278       0.0023323615  -6.6143919e-05  22.003299      20.454031      1.5492679      0.0034319132   64112.847    
     19000   1.0879249      0.0023323615  -0.0017804642   21.998985      20.383416      1.6155685      0.015376175    63169.143    
     20000   1.1144506      0.0023323615   0.0025198298   22.190904      20.535944      1.6549592      0              64064.663    
     21000   1.0427751      0.0023323615   0.0011345349   22.099492      20.550971      1.548521       0.00040047813  64313.455    
     22000   1.0586695      0.0023323615   0.0017882747   22.05673       20.484606      1.5721242      0              63976.461    
     23000   1.0058426      0.0023323615  -0.0055245362   21.954628      20.460951      1.4936763      0.0027619031   63015.598    
     24000   0.98273442     0.0023323615   0.0015147357   21.862067      20.402707      1.4593606      0              63262.067    
     25000   0.95835343     0.0023323615   0.0017808774   21.937761      20.514606      1.4231548      0.00020839942  63463.829    
     26000   0.93993778     0.0023323615  -0.0021777292   21.884849      20.489042      1.3958076      0.0088889834   63969.614    
     27000   0.9308188      0.0023323615  -0.00011239942  21.842252      20.459986      1.3822659      0.021612409    62535.587    
     28000   1.0149581      0.0023323615   0.0041996387   21.906846      20.399633      1.5072129      0.0064059022   63078.198    
     29000   0.92841138     0.0023323615  -2.5398808e-05  21.987185      20.608494      1.3786909      0.0046112484   63360.174    
     30000   1.021043       0.0023323615   0.001589158    22.097958      20.581709      1.5162489      0.016799508    63376.232    
     31000   1.0465985      0.0023323615  -0.0021744286   22.037917      20.483718      1.5541987      0.0057879149   63559.485    
     32000   0.98907108     0.0023323615  -0.0015558606   22.044089      20.575318      1.4687705      0.009448173    63265.917    
     33000   1.0918536      0.0023323615  -0.0025643847   22.039275      20.417873      1.6214025      0              62070.314    
     34000   0.99801543     0.0023323615   0.0016279766   21.932339      20.450286      1.4820529      0.017384617    64639.411    
     35000   1.0352271      0.0023323615  -0.0052971711   22.076004      20.538692      1.5373122      0.00010473809  63532.466    
     36000   1.1141579      0.0023323615  -0.00093279925  22.222491      20.567966      1.6545245      0.00033678641  64505.097    
     37000   1.0369415      0.0023323615   0.00013065175  22.217841      20.677983      1.5398581      0.013788831    63238.783    
     38000   1.0515596      0.0023323615   0.0021717558   22.070766      20.5092        1.561566       0.0067894678   64021.519    
     39000   1.0238495      0.0023323615   0.00026414509  22.040141      20.519725      1.5204165      0.00044464649  62506.329    
     40000   1.0749111      0.0023323615  -0.0026849368   22.039327      20.443084      1.596243       0.012651334    61633.339    
     41000   0.99070886     0.0023323615  -0.0030385564   22.03241       20.561207      1.4712027      0.00092855646  64519.825    
     42000   0.95315224     0.0023323615   0.0019788197   21.965263      20.549832      1.4154311      0.020233689    62755.804    
     43000   1.0644183      0.0023323615  -0.0011168725   22.287172      20.706511      1.5806611      0.039694129    63278.792    
     44000   1.0253747      0.0023323615  -0.006676522    22.066233      20.543552      1.5226814      0              62266.326    
     45000   0.94179556     0.0023323615  -0.0047206018   21.970644      20.572077      1.3985664      0.019869988    62320.482    
     46000   1.0083495      0.0023323615  -0.0017646918   21.972114      20.474715      1.497399       0.00026040605  62667.035    
     47000   0.98767959     0.0023323615  -0.00080218158  22.091674      20.62497       1.4667042      0.024266258    62495.567    
     48000   1.1473449      0.0023323615  -0.0025885687   22.080512      20.376705      1.7038072      0.00065962995  62953.398    
     49000   1.0679312      0.0023323615   0.0017688272   21.970482      20.384604      1.5858779      0.014142422    64045.51     
     50000   0.9581935      0.0023323615   0.0014398836   21.955202      20.532284      1.4229173      0.0055011948   63987.944    
     51000   1.0215759      0.0023323615  -0.00093292688  21.934681      20.41764       1.5170402      0              63696.499    
     52000   0.98079591     0.0023323615   0.0040701936   21.977374      20.520892      1.4564819      0.0020862422   63682.529    
     53000   1.0090927      0.0023323615   0.0013324753   22.095438      20.596935      1.4985027      0              63131.106    
     54000   0.97519627     0.0023323615   0.0013260734   22.070151      20.621984      1.4481665      0.026885444    63808.485    
     55000   1.1805087      0.0023323615  -0.001586238    22.424088      20.671033      1.7530554      0.024690954    63835.335    
     56000   0.98387121     0.0023323615   0.0037155145   22.104425      20.643376      1.4610487      0.01435493     63380.936    
     57000   1.0723812      0.0023323615  -0.0037916262   22.122726      20.53024       1.592486       0.013635549    63335.085    
     58000   1.0152349      0.0023323615   0.00021908047  22.082827      20.575203      1.5076238      0.00077375639  62919.587    
     59000   1.1424502      0.0023323615  -0.0052108657   22.30072       20.604182      1.6965385      0.013308184    64270.058    
     60000   1.0359703      0.0023323615  -0.00097887545  22.188218      20.649802      1.538416       0.00011346294  62589.895    
     61000   1.1646839      0.0023323615  -0.002085017    22.239945      20.51039       1.7295556      0.012918477    64729.997    
     62000   1.101836       0.0023323615   0.0010338878   22.171386      20.53516       1.6362265      0.001396566    63724.522    
     63000   0.96616435     0.0023323615   0.00097550571  21.903821      20.469067      1.4347541      0.013027663    64675.975    
     64000   1.0068907      0.0023323615  -0.0020278726   22.061652      20.566419      1.4952327      0.013750276    63368.465    
     65000   0.98723233     0.0023323615   0.0022441476   22.031073      20.565033      1.46604        0.0066686189   63708.454    
     66000   1.0273881      0.0023323615  -0.0003515278   22.183579      20.657908      1.5256713      0              62294.386    
     67000   0.96528212     0.0023323615  -0.00014822656  21.9396        20.506156      1.4334439      0.010365557    63473.396    
     68000   1.069702       0.0023323615   9.4754668e-05  22.081119      20.492611      1.5885075      0.00049153926  61809.132    
     69000   1.1229502      0.0023323615   0.0011504079   22.200329      20.532748      1.6675811      0.0068454249   63810.402    
     70000   1.0062775      0.0023323615  -0.00085311964  22.094021      20.599699      1.4943221      0.013222355    62890.887    
     71000   1.0906935      0.0023323615   0.00015260357  22.145362      20.525682      1.6196798      0.018338513    63429.91     
     72000   1.010401       0.0023323615  -6.0487182e-06  22.154105      20.653659      1.5004455      0.0013793953   62263.294    
     73000   1.1177599      0.0023323615  -0.0034084797   22.254435      20.594562      1.6598735      0.00011231735  64605.309    
     74000   0.9768019      0.0023323615   0.00016143893  22.07312       20.622569      1.4505508      0.0084515956   63201.182    
     75000   1.1360996      0.0023323615   0.002159116    22.161595      20.474487      1.6871079      0.0089909162   63552.125    
     76000   0.97379329     0.0023323615  -0.00068458621  21.988928      20.542845      1.446083       0              62611.727    
     77000   0.94876793     0.0023323615  -0.0016073976   21.923496      20.514575      1.4089204      0.017745108    62583.811    
     78000   0.83947996     0.0023323615  -0.00062768559  21.726727      20.480099      1.2466277      0.0054510099   63273.174    
     79000   1.0090614      0.0023323615  -0.00080262643  22.068192      20.569736      1.4984562      0.00023011166  64144.414    
     80000   1.1217643      0.0023323615  -0.0038177864   22.367902      20.702082      1.66582        0.032902439    63299.977    
     81000   1.0240158      0.0023323615   0.00023547123  22.031597      20.510933      1.5206635      0.0068767308   62789.25     
     82000   1.003236       0.0023323615  -0.0022802982   21.894199      20.404393      1.4898055      0.019136282    61537.314    
     83000   1.0554159      0.0023323615   0.004011718    22.104562      20.537269      1.5672927      0.0080869707   61343.375    
     84000   0.83527346     0.0023323615  -0.0034122221   21.874648      20.634267      1.2403811      0.0030083664   62759.987    
     85000   1.036002       0.0023323615   0.0013573923   21.962923      20.42446       1.5384629      0.015709144    63526.646    
     86000   0.9432002      0.0023323615  -0.0032183248   21.913588      20.512936      1.4006523      0.013730309    63654.7      
     87000   0.95566008     0.0023323615  -0.00049614223  21.91653       20.497375      1.4191552      0.0035862035   62974.057    
     88000   0.93373351     0.0023323615  -0.00097093893  21.870485      20.483891      1.3865943      0.0018212145   62728.748    
     89000   0.9684944      0.0023323615  -0.00047342045  21.973429      20.535215      1.4382142      0.00087524744  62868.306    
     90000   0.98293324     0.0023323615  -0.0032204602   22.050919      20.591263      1.4596559      0.015353933    64238.206    
     91000   1.0832827      0.0023323615   0.0048517083   22.11977       20.511095      1.6086749      0.0052867789   65149.334    
     92000   0.85899662     0.0023323615  -0.0013049519   21.765697      20.490087      1.27561        0.0024124001   64291.747    
     93000   0.96176266     0.0023323615  -4.4223672e-05  21.874222      20.446004      1.4282176      0.0045653365   64778.1      
     94000   0.96019503     0.0023323615   0.00024459347  21.944954      20.519064      1.4258896      3.8053462e-05  63910.297    
     95000   0.94702149     0.0023323615  -0.0033658915   21.86315       20.456823      1.4063269      0              64605.852    
     96000   0.91119348     0.0023323615  -0.0013197298   21.825018      20.471896      1.3531223      0.00043282989  63431.85     
     97000   1.0016687      0.0023323615  -0.0019514304   22.013024      20.525546      1.487478       0.0048369955   62611.021    
     98000   1.02143        0.0023323615  -0.0057874974   22.177965      20.661142      1.5168235      0              62254.131    
     99000   1.032786       0.0023323615   0.0018228259   21.975336      20.441649      1.5336871      7.1595851e-05  64538.014    
    100000   1.0594928      0.0023323615   0.0036169719   22.011024      20.437677      1.5733468      0.00032948157  63264.632    
    100362   1.1904942      0.0023323615  -0.00089755607  22.316856      20.548972      1.7678839      0.00063845255  62268.514    
Loop time of 1.57787 on 1 procs for 100000 steps with 100 atoms

Performance: 27378629.020 tau/day, 63376.456 timesteps/s
100.0% CPU use with 1 MPI tasks x 1 OpenMP threads

MPI task timing breakdown:
Section |  min time  |  avg time  |  max time  |%varavg| %total
---------------------------------------------------------------
Pair    | 0.058435   | 0.058435   | 0.058435   |   0.0 |  3.70
Bond    | 0.14707    | 0.14707    | 0.14707    |   0.0 |  9.32
Neigh   | 0.89999    | 0.89999    | 0.89999    |   0.0 | 57.04
Comm    | 0.078817   | 0.078817   | 0.078817   |   0.0 |  5.00
Output  | 0.0020814  | 0.0020814  | 0.0020814  |   0.0 |  0.13
Modify  | 0.35556    | 0.35556    | 0.35556    |   0.0 | 22.53
Other   |            | 0.03592    |            |       |  2.28

Nlocal:            100 ave         100 max         100 min
Histogram: 1 0 0 0 0 0 0 0 0 0
Nghost:             60 ave          60 max          60 min
Histogram: 1 0 0 0 0 0 0 0 0 0
Neighs:             36 ave          36 max          36 min
Histogram: 1 0 0 0 0 0 0 0 0 0

Total # of neighbors = 36
Ave neighs/atom = 0.36
Ave special neighs/atom = 1.98
Neighbor list builds = 9821
Dangerous builds = 8265
unfix           nvtSoft
unfix           rampSoft
reset_timestep  0

write_data      ${outputfile_relaxed}
write_data      5_relaxed.data
System init for write_data ...
Generated 0 of 6 mixed pair_coeff terms from geometric mixing rule
WARNING: Communication cutoff 1.3 is shorter than a bond length based estimate of 1.7550000000000001. This may lead to errors. (src/comm.cpp:727)
WARNING: Not all mixed pair coeffs generated from mixing. Use write_data with 'pair ij' option to store all pair coeffs. (src/write_data.cpp:309)

###########################################################################
# Full LJ with Coulomb
######################################################################

# Cutoffs and parameters:
# - Values: Marcel Verkade's Bachelor Thesis
# - Mapping to atom groups: Patrick Onck's paper
# - 1: aliphatic, 2: aromatic, 3: anion, 4: cation
# pair_style	lj/cut/coul/cut <lj_cut_global> <coul_cut_global>
# pair_coeff	<type_1>  <type_2>  <eps>  <sigma>  <r_cut_lj>  <r_cut_coul>

# Problem: Onck's model is much more complex, and Marcel has no sigma reported
# Using sigma=1 randomly

variable		glob_ljeps equal 1.0
variable		glob_ljsig 	equal 1.0
variable		glob_coulcut equal 10.0
variable		att_ljcut equal 2.50
variable		rep_ljcut equal 1.12

pair_style		lj/cut/coul/cut 						${att_ljcut} 	${glob_coulcut}
pair_style		lj/cut/coul/cut 						2.5 	${glob_coulcut}
pair_style		lj/cut/coul/cut 						2.5 	10
pair_coeff		1 1 	${glob_ljeps} 	${glob_ljsig}	${att_ljcut} 	${glob_coulcut}
pair_coeff		1 1 	1 	${glob_ljsig}	${att_ljcut} 	${glob_coulcut}
pair_coeff		1 1 	1 	1	${att_ljcut} 	${glob_coulcut}
pair_coeff		1 1 	1 	1	2.5 	${glob_coulcut}
pair_coeff		1 1 	1 	1	2.5 	10
pair_coeff		1 2 	${glob_ljeps} 	${glob_ljsig}	${att_ljcut} 	${glob_coulcut}
pair_coeff		1 2 	1 	${glob_ljsig}	${att_ljcut} 	${glob_coulcut}
pair_coeff		1 2 	1 	1	${att_ljcut} 	${glob_coulcut}
pair_coeff		1 2 	1 	1	2.5 	${glob_coulcut}
pair_coeff		1 2 	1 	1	2.5 	10
pair_coeff		1 3 	${glob_ljeps} 	${glob_ljsig}	${rep_ljcut} 	${glob_coulcut}
pair_coeff		1 3 	1 	${glob_ljsig}	${rep_ljcut} 	${glob_coulcut}
pair_coeff		1 3 	1 	1	${rep_ljcut} 	${glob_coulcut}
pair_coeff		1 3 	1 	1	1.12 	${glob_coulcut}
pair_coeff		1 3 	1 	1	1.12 	10
pair_coeff		1 4 	${glob_ljeps} 	${glob_ljsig}	${rep_ljcut} 	${glob_coulcut}
pair_coeff		1 4 	1 	${glob_ljsig}	${rep_ljcut} 	${glob_coulcut}
pair_coeff		1 4 	1 	1	${rep_ljcut} 	${glob_coulcut}
pair_coeff		1 4 	1 	1	1.12 	${glob_coulcut}
pair_coeff		1 4 	1 	1	1.12 	10
pair_coeff		2 2 	${glob_ljeps} 	${glob_ljsig}	${att_ljcut} 	${glob_coulcut}
pair_coeff		2 2 	1 	${glob_ljsig}	${att_ljcut} 	${glob_coulcut}
pair_coeff		2 2 	1 	1	${att_ljcut} 	${glob_coulcut}
pair_coeff		2 2 	1 	1	2.5 	${glob_coulcut}
pair_coeff		2 2 	1 	1	2.5 	10
pair_coeff		2 3 	${glob_ljeps} 	${glob_ljsig}	${rep_ljcut} 	${glob_coulcut}
pair_coeff		2 3 	1 	${glob_ljsig}	${rep_ljcut} 	${glob_coulcut}
pair_coeff		2 3 	1 	1	${rep_ljcut} 	${glob_coulcut}
pair_coeff		2 3 	1 	1	1.12 	${glob_coulcut}
pair_coeff		2 3 	1 	1	1.12 	10
pair_coeff		2 4 	${glob_ljeps} 	${glob_ljsig}	${att_ljcut} 	${glob_coulcut}
pair_coeff		2 4 	1 	${glob_ljsig}	${att_ljcut} 	${glob_coulcut}
pair_coeff		2 4 	1 	1	${att_ljcut} 	${glob_coulcut}
pair_coeff		2 4 	1 	1	2.5 	${glob_coulcut}
pair_coeff		2 4 	1 	1	2.5 	10
pair_coeff		3 3 	${glob_ljeps} 	${glob_ljsig}	${rep_ljcut} 	${glob_coulcut}
pair_coeff		3 3 	1 	${glob_ljsig}	${rep_ljcut} 	${glob_coulcut}
pair_coeff		3 3 	1 	1	${rep_ljcut} 	${glob_coulcut}
pair_coeff		3 3 	1 	1	1.12 	${glob_coulcut}
pair_coeff		3 3 	1 	1	1.12 	10
pair_coeff		3 4 	${glob_ljeps} 	${glob_ljsig}	${att_ljcut} 	${glob_coulcut}
pair_coeff		3 4 	1 	${glob_ljsig}	${att_ljcut} 	${glob_coulcut}
pair_coeff		3 4 	1 	1	${att_ljcut} 	${glob_coulcut}
pair_coeff		3 4 	1 	1	2.5 	${glob_coulcut}
pair_coeff		3 4 	1 	1	2.5 	10
pair_coeff		4 4 	${glob_ljeps} 	${glob_ljsig}	${rep_ljcut} 	${glob_coulcut}
pair_coeff		4 4 	1 	${glob_ljsig}	${rep_ljcut} 	${glob_coulcut}
pair_coeff		4 4 	1 	1	${rep_ljcut} 	${glob_coulcut}
pair_coeff		4 4 	1 	1	1.12 	${glob_coulcut}
pair_coeff		4 4 	1 	1	1.12 	10


fix             noDriftRot 	all momentum 10 linear 1 1 1 angular
fix             nvt1 		all nvt temp ${Temp} ${Temp} 0.5
fix             nvt1 		all nvt temp 1 ${Temp} 0.5
fix             nvt1 		all nvt temp 1 1 0.5

# dump          assemble 	all custom 1000 				${outputfile_selfasb} id type xu yu zu vx vy vz
dump            lindump 	all custom ${subsample_rate} 	${outputfile_trajlin} id type xu yu zu vx vy vz
dump            lindump 	all custom 1000 	${outputfile_trajlin} id type xu yu zu vx vy vz
dump            lindump 	all custom 1000 	6_b_trajlin.data id type xu yu zu vx vy vz

run             ${runtime}
run             1000000
Generated 0 of 6 mixed pair_coeff terms from geometric mixing rule
Neighbor list info ...
  update every 1 steps, delay 10 steps, check yes
  max neighbors/atom: 2000, page size: 100000
  master list distance cutoff = 10.3
  ghost atom cutoff = 10.3
  binsize = 5.15, bins = 7 7 7
  1 neighbor lists, perpetual/occasional/extra = 1 0 0
  (1) pair lj/cut/coul/cut, perpetual
      attributes: half, newton on
      pair build: half/bin/newton
      stencil: half/bin/3d
      bin: standard
Per MPI rank memory allocation (min/avg/max) = 7.712 | 7.712 | 7.712 Mbytes
   Step          Temp         Density         Press          TotEng         PotEng         KinEng         E_pair         S/CPU     
         0   1.1904942      0.0023323615  -0.0016763375   21.893936      20.126052      1.7678839     -0.42228173     0            
      1000   1.0229893      0.0023323615  -6.0173965e-06  21.134374      19.615235      1.5191391     -0.80858097     24316.474    
      2000   0.91863516     0.0023323615  -0.0016832162   20.793384      19.429211      1.3641732     -1.0247512      22516.974    
      3000   1.0916645      0.0023323615   0.004005747    21.081372      19.460251      1.6211218     -1.0749777      19599.935    
      4000   0.98499931     0.0023323615  -0.0011876708   20.299806      18.837082      1.462724      -1.7022076      15376.077    
      5000   1.0288216      0.0023323615  -0.0013293074   20.141697      18.613897      1.5278        -1.8532318      13791.606    
      6000   1.0192728      0.0023323615   0.0018278527   20.175441      18.661821      1.51362       -1.8569237      13880.621    
      7000   1.0036845      0.0023323615  -0.0010554193   20.075496      18.585024      1.4904715     -1.8715518      13769.075    
      8000   1.0221422      0.0023323615  -0.0014741131   20.363195      18.845314      1.5178811     -1.7242366      13854.154    
      9000   1.1210493      0.0023323615   3.5900766e-05  20.203195      18.538437      1.6647582     -1.8627532      13895.011    
     10000   1.045817       0.0023323615   0.0019078679   20.23951       18.686472      1.5530382     -1.8639484      13793.228    
     11000   0.86927735     0.0023323615   0.0047166485   19.773535      18.482658      1.2908769     -1.963709       13810.051    
     12000   0.98235507     0.0023323615   4.3320413e-05  20.120519      18.661722      1.4587973     -1.8565727      13741.981    
     13000   0.94031727     0.0023323615  -0.0033879953   19.983917      18.587546      1.3963712     -1.9793747      13657.37     
     14000   0.89152286     0.0023323615   0.0030883548   20.039475      18.715563      1.3239115     -1.7617876      13741.024    
     15000   0.83578517     0.0023323615  -0.0079484354   20.070566      18.829425      1.241141      -1.762411       13671.307    
     16000   0.98949941     0.0023323615  -0.00042995228  20.312526      18.843119      1.4694066     -1.7274449      13696.996    
     17000   0.98343528     0.0023323615   0.0015820388   19.861849      18.401447      1.4604014     -2.0324161      13464.414    
     18000   0.88959934     0.0023323615  -0.0060059165   19.940908      18.619853      1.321055      -1.839293       13423.783    
     19000   1.1215939      0.0023323615   0.0026182369   20.320898      18.655331      1.665567      -1.8533504      13464.144    
     20000   0.97268967     0.0023323615   0.0009519281   20.043166      18.598722      1.4444442     -1.9900013      13395.7      
     21000   0.97745501     0.0023323615  -0.0020539682   19.936121      18.4846        1.4515207     -2.0010789      13434.423    
     22000   1.0434737      0.0023323615   0.0023699381   19.954317      18.404758      1.5495584     -2.0454774      13381.801    
     23000   1.0022869      0.0023323615  -0.0021142347   19.991177      18.50278       1.4883961     -1.9832938      13344.031    
     24000   0.87138766     0.0023323615   0.0065279351   19.881393      18.587382      1.2940107     -1.8869167      13445.522    
     25000   1.0274526      0.0023323615   0.0015928516   20.213931      18.688164      1.5257671     -1.8604735      13441.579    
     26000   1.0347319      0.0023323615   0.0017332241   20.2517        18.715123      1.5365769     -1.7407795      13507.336    
     27000   0.90250537     0.0023323615   0.006232218    20.05244       18.712219      1.3402205     -1.8275127      13504.529    
     28000   1.086698       0.0023323615   0.0024055945   19.995917      18.382171      1.6137465     -2.0283522      13470.109    
     29000   0.94319914     0.0023323615   0.0028708683   19.886173      18.485522      1.4006507     -2.0686116      13504.712    
     30000   1.0601189      0.0023323615   0.00076120931  20.102518      18.528241      1.5742766     -1.9632304      13167.013    
     31000   1.1174845      0.0023323615  -0.0020540004   20.220148      18.560684      1.6594645     -2.0050568      13552.451    
     32000   0.98621986     0.0023323615   0.0016457917   20.08892       18.624384      1.4645365     -1.7973385      13664.483    
     33000   0.97278099     0.0023323615  -0.0026970624   19.924335      18.479755      1.4445798     -1.9945193      13583.989    
     34000   1.0342621      0.0023323615   0.0028911269   20.137105      18.601226      1.5358793     -1.8828715      13639.027    
     35000   0.97601228     0.0023323615   0.0010842285   20.093794      18.644416      1.4493782     -1.9089674      13681.955    
     36000   1.0433238      0.0023323615  -0.0029762827   20.190056      18.640721      1.5493359     -1.9324883      13652.237    
     37000   1.0373391      0.0023323615   9.1166075e-05  20.190588      18.650139      1.5404486     -1.8607773      13571.794    
     38000   1.0299594      0.0023323615   0.0007816908   20.056765      18.527275      1.5294897     -2.0941993      13635.61     
     39000   0.92935704     0.0023323615  -0.00039325964  19.658824      18.278729      1.3800952     -2.2700941      13665.252    
     40000   0.82582166     0.0023323615  -0.003309333    19.864551      18.638206      1.2263452     -1.9931696      13568.63     
     41000   1.0160296      0.0023323615  -0.00057166917  19.99417       18.485366      1.508804      -2.1015472      13597.033    
     42000   1.0474436      0.0023323615  -0.00011015467  19.907943      18.352489      1.5554538     -2.1516782      13292.973    
     43000   1.0880611      0.0023323615   0.0012657009   20.286477      18.670706      1.6157707     -1.8090517      13340.781    
     44000   0.94913232     0.0023323615   0.0013172899   20.011413      18.601952      1.4094615     -1.9474338      13483.6      
     45000   1.0544419      0.0023323615   0.001757711    20.463086      18.897239      1.5658462     -1.693261       13436.85     
     46000   0.99054738     0.0023323615  -0.0023800566   20.014669      18.543706      1.4709629     -1.9491772      13685.078    
     47000   1.0758537      0.0023323615  -0.00096627859  20.28585       18.688207      1.5976428     -1.79935        13344.434    
     48000   1.1268205      0.0023323615   0.0031355433   20.139051      18.465723      1.6733284     -2.0697466      13618.743    
     49000   1.0561689      0.0023323615   0.0024424286   20.022151      18.45374       1.5684108     -2.1140564      13505.93     
     50000   1.0244294      0.0023323615   0.00076819229  20.253769      18.732491      1.5212776     -1.8301605      13203.914    
     51000   1.0117876      0.0023323615  -0.0043713445   20.405283      18.902779      1.5025046     -1.7397733      13597.286    
     52000   1.1091441      0.0023323615  -0.0016729887   20.365989      18.71891       1.647079      -1.8980735      13536.431    
     53000   0.9909417      0.0023323615   0.00095211734  19.93923       18.467682      1.4715484     -1.9328367      13747.777    
     54000   1.0442555      0.0023323615   0.0011307179   20.082086      18.531367      1.5507194     -1.8816657      13726.817    
     55000   1.0601266      0.0023323615   0.00041342872  20.05497       18.480682      1.574288      -2.1480124      13816.159    
     56000   0.91104332     0.0023323615  -0.0030137703   19.704005      18.351105      1.3528993     -2.1260336      13731.827    
     57000   0.98779272     0.0023323615   0.00081435034  20.13236       18.665488      1.4668722     -1.8431656      13772.568    
     58000   1.0481743      0.0023323615   0.00050408213  20.216958      18.660419      1.5565389     -1.9318692      13711.388    
     59000   0.88422372     0.0023323615  -0.0015946029   20.022021      18.708949      1.3130722     -1.896982       13431.527    
     60000   1.014313       0.0023323615   0.0053781668   20.0477        18.541445      1.5062549     -2.0281863      13518.424    
     61000   1.0038094      0.0023323615  -1.5499888e-05  19.813201      18.322544      1.4906569     -2.2117575      13773.542    
     62000   1.0659853      0.0023323615  -0.0023635891   19.927162      18.344173      1.5829882     -2.1994752      13723.882    
     63000   0.93526644     0.0023323615  -0.00085323855  19.821597      18.432727      1.3888707     -1.9678231      13759.309    
     64000   1.1883711      0.0023323615   0.0014572186   20.151212      18.386481      1.7647311     -2.0471025      13751.315    
     65000   0.9041475      0.0023323615  -0.00083741044  20.00865       18.665991      1.342659      -1.7678767      13794.281    
     66000   1.0020353      0.0023323615  -0.0012010183   20.149052      18.66103       1.4880224     -1.8869543      13729.315    
     67000   0.96157756     0.0023323615   0.00012260745  20.200388      18.772445      1.4279427     -1.8999717      13776.353    
     68000   0.95409093     0.0023323615   0.0019258988   20.074776      18.657951      1.416825      -1.9277509      13824.512    
     69000   1.0560373      0.0023323615  -0.002525697    20.286915      18.7187        1.5682154     -1.7829771      13742.341    
     70000   0.8992376      0.0023323615   0.001748589    19.744349      18.408981      1.3353678     -2.1644248      13824.243    
     71000   1.0441088      0.0023323615   0.0063179866   20.170682      18.620181      1.5505015     -1.9321357      13864.752    
     72000   0.90426871     0.0023323615  -0.0018224703   19.901027      18.558188      1.342839      -2.0155586      13580.902    
     73000   0.98749667     0.0023323615   0.002717408    20.124549      18.658117      1.4664326     -1.8733634      13309.655    
     74000   0.87615395     0.0023323615   0.0012757611   19.721333      18.420245      1.3010886     -1.9949326      13615.813    
     75000   0.94217851     0.0023323615  -0.0030560615   19.770811      18.371676      1.3991351     -2.1881672      13705.495    
     76000   0.87298958     0.0023323615   0.003807408    19.747655      18.451266      1.2963895     -2.0134686      13696.045    
     77000   1.0749164      0.0023323615   0.00045201718  20.046435      18.450185      1.5962508     -2.0827032      13731.708    
     78000   0.84494809     0.0023323615   0.0010359478   19.61718       18.362433      1.2547479     -2.0402825      13684.922    
     79000   1.078471       0.0023323615  -0.0037675882   20.161465      18.559936      1.6015294     -1.9851736      13695.848    
     80000   0.92738583     0.0023323615  -0.0031536415   20.039201      18.662033      1.377168      -1.9117363      13569.689    
     81000   0.92311254     0.0023323615  -0.00023403463  19.79878       18.427958      1.3708221     -2.0056546      13377.512    
     82000   0.99955721     0.0023323615   0.000919717    20.085937      18.601595      1.4843425     -1.9933515      13350.624    
     83000   0.96590549     0.0023323615   0.00032460535  19.905033      18.470663      1.4343697     -2.0623124      13330.37     
     84000   1.0223691      0.0023323615   0.00035879553  20.218553      18.700335      1.5182181     -1.7957991      13360.473    
     85000   0.93500289     0.0023323615  -0.0061990594   20.073134      18.684655      1.3884793     -1.8750275      13298.157    
     86000   0.75139299     0.0023323615   0.0010891304   19.676187      18.560368      1.1158186     -1.9530794      13240.497    
     87000   1.1312304      0.0023323615   2.741076e-05   20.182953      18.503076      1.6798771     -1.9270586      13339.034    
     88000   1.0295329      0.0023323615  -0.00011478961  19.943283      18.414427      1.5288564     -2.0630352      13357.505    
     89000   0.96519484     0.0023323615   0.001423681    19.789934      18.35662       1.4333143     -2.0103156      13386.663    
     90000   0.98498085     0.0023323615   0.0026912449   20.037592      18.574896      1.4626966     -1.9875866      13383.99     
     91000   0.92654297     0.0023323615  -0.00054934865  19.742177      18.36626       1.3759163     -2.0308561      13282.692    
     92000   1.0182316      0.0023323615   0.00035508208  20.116132      18.604058      1.512074      -1.9609111      13257.053    
     93000   1.0460075      0.0023323615  -0.0010973456   20.012378      18.459057      1.5533211     -2.1490653      13308.23     
     94000   1.053928       0.0023323615   0.0054803912   20.108867      18.543784      1.5650831     -1.9779736      13228.422    
     95000   0.98102383     0.0023323615   0.0012241781   20.165603      18.708783      1.4568204     -1.7894662      13322.444    
     96000   1.0423058      0.0023323615   0.0033742308   20.158093      18.610269      1.5478241     -1.7987169      13429.846    
     97000   0.97316591     0.0023323615  -0.0014143476   19.963507      18.518356      1.4451514     -1.9332618      13657.251    
     98000   1.1296867      0.0023323615   0.0026179727   20.132815      18.45523       1.6775848     -2.073895       13581.833    
     99000   1.1665846      0.0023323615   0.002366888    20.52075       18.788372      1.7323781     -1.7779791      13650.006    
    100000   1.0061406      0.0023323615  -8.9671343e-05  20.299784      18.805665      1.4941188     -1.8191036      13729.39     
    101000   1.0310959      0.0023323615   0.00063037306  20.039688      18.508511      1.5311774     -1.9763426      13667.01     
    102000   1.0977116      0.0023323615   0.0017719084   20.092994      18.462892      1.6301017     -2.0644635      13640.118    
    103000   0.91613797     0.0023323615  -0.0017810261   19.825112      18.464648      1.3604649     -2.0084775      13632.217    
    104000   1.0581687      0.0023323615  -0.0013393123   20.214453      18.643073      1.5713805     -1.8265728      13661.275    
    105000   0.99570737     0.0023323615  -0.0039597342   20.026793      18.548168      1.4786254     -2.0936396      13676.151    
    106000   0.93704198     0.0023323615   0.0044161463   19.972775      18.581267      1.3915073     -1.9079606      13650.023    
    107000   1.144179       0.0023323615   0.0036562741   20.035117      18.336011      1.6991059     -2.1805979      13682.668    
    108000   0.89589716     0.0023323615   0.0048870933   19.784859      18.454452      1.3304073     -1.963839       13632.529    
    109000   0.99492672     0.0023323615  -0.0021223367   20.314098      18.836632      1.4774662     -1.7303715      13571.536    
    110000   0.96412548     0.0023323615   0.0030250792   19.780217      18.348491      1.4317263     -2.2688497      13542.42     
    111000   0.96427948     0.0023323615   0.00028359244  20.017317      18.585362      1.431955      -1.9430882      13615.129    
    112000   0.89400856     0.0023323615  -0.00014799399  19.906718      18.579115      1.3276027     -1.9173286      13670.708    
    113000   1.1211496      0.0023323615   0.0011554912   20.085667      18.42076       1.6649072     -2.0886444      13692.023    
    114000   1.1115847      0.0023323615   0.0016794094   19.997646      18.346943      1.6507032     -2.0691316      13700.267    
    115000   0.8541655      0.0023323615   0.0019124268   19.973832      18.705396      1.2684358     -1.7768652      13625.964    
    116000   1.021305       0.0023323615   0.00046188069  20.042191      18.525553      1.5166379     -2.0239135      13740.95     
    117000   1.0340954      0.0023323615  -0.004704802    20.332933      18.797301      1.5356316     -1.7979439      13625.882    
    118000   1.0097279      0.0023323615   0.0034006061   19.886871      18.387425      1.499446      -2.1062228      13672.767    
    119000   0.98016128     0.0023323615  -0.0010032593   20.27458       18.819041      1.4555395     -1.7994028      13570.848    
    120000   1.0826398      0.0023323615  -0.0012087463   20.089299      18.481579      1.6077201     -2.0312531      13404.972    
    121000   0.9562758      0.0023323615  -0.0026203706   19.837857      18.417787      1.4200696     -2.0722635      13464.006    
    122000   0.90521267     0.0023323615  -0.0024470394   20.227939      18.883698      1.3442408     -1.8213268      13418.674    
    123000   0.98853344     0.0023323615  -0.00021420697  20.162781      18.694808      1.4679722     -1.8364145      13485.065    
    124000   0.91322845     0.0023323615  -0.0017925955   19.959109      18.602964      1.3561443     -2.0329933      13315.623    
    125000   0.98876618     0.0023323615   0.0022760818   20.103086      18.634768      1.4683178     -1.928513       13451.872    
    126000   1.1541839      0.0023323615   0.0042981007   20.330644      18.616681      1.7139631     -2.0105578      13364.194    
    127000   1.0006309      0.0023323615   0.00016776169  20.029168      18.543231      1.4859369     -1.9296812      13297.344    
    128000   1.1290617      0.0023323615  -0.00061948184  20.432833      18.756177      1.6766566     -1.7655807      13286.897    
    129000   1.0164435      0.0023323615  -0.0019081026   19.917733      18.408314      1.5094185     -2.0275733      13358.413    
    130000   0.93349        0.0023323615   0.002414649    20.047437      18.661205      1.3862327     -1.891466       13312.429    
    131000   0.93803488     0.0023323615   0.0023469154   20.013632      18.62065       1.3929818     -1.8452117      13390.337    
    132000   1.0001293      0.0023323615  -0.0011769242   20.128373      18.643181      1.485192      -1.9319643      13430.705    
    133000   1.1445351      0.0023323615   0.0040452621   20.1605        18.460865      1.6996346     -2.0379674      13439.03     
    134000   1.0337613      0.0023323615  -0.00019926725  20.169698      18.634563      1.5351356     -1.8478121      13379.975    
    135000   0.97476345     0.0023323615   0.0019074286   20.063091      18.615568      1.4475237     -2.0759006      13527.253    
    136000   0.96360167     0.0023323615  -0.0032486327   19.941602      18.510654      1.4309485     -2.0501932      13407.788    
    137000   0.96812764     0.0023323615  -0.0034736306   20.04429       18.60662       1.4376695     -1.9455505      13403.192    
    138000   0.89676214     0.0023323615   0.0011542856   19.821282      18.489591      1.3316918     -1.9927366      13778.846    
    139000   1.080262       0.0023323615   0.0013380409   19.888595      18.284406      1.604189      -2.0894875      13713.374    
    140000   1.0607171      0.0023323615  -0.00068656878  19.934059      18.358894      1.5751648     -2.1042925      13687.58     
    141000   1.0925536      0.0023323615   0.00016649169  20.254238      18.631795      1.6224421     -1.9387997      13692.922    
    142000   1.0375834      0.0023323615   0.00077273192  20.08849       18.547679      1.5408114     -2.0058617      13680.816    
    143000   0.87706348     0.0023323615  -0.00093687832  19.85853       18.55609       1.3024393     -1.8683791      13609.634    
    144000   0.98047262     0.0023323615   0.0013099176   19.895379      18.439377      1.4560018     -1.927445       13650.98     
    145000   0.9188312      0.0023323615   0.0018275426   19.90485       18.540385      1.3644643     -1.950394       13710.949    
    146000   1.0956432      0.0023323615  -0.0023962627   20.073168      18.446138      1.6270301     -2.0329934      13678.121    
    147000   1.0427374      0.0023323615  -0.0023544573   19.868297      18.319832      1.548465      -2.1020057      13641.616    
    148000   0.92950411     0.0023323615  -0.0036965883   20.016962      18.636649      1.3803136     -1.9017423      13753.142    
    149000   0.97727092     0.0023323615  -0.0046141501   20.042718      18.591471      1.4512473     -1.9355584      13637.648    
    150000   0.9405663      0.0023323615   0.001528587    20.187646      18.790905      1.396741      -1.8095565      13683.09     
    151000   1.2730934      0.0023323615   0.0020397495   20.600252      18.709708      1.8905438     -1.9148835      13655.188    
    152000   0.91217528     0.0023323615   0.0048278803   19.923249      18.568669      1.3545803     -1.9570498      13298.394    
    153000   0.92689473     0.0023323615  -0.0021107785   19.837761      18.461322      1.3764387     -1.9557886      13283.477    
    154000   0.98035552     0.0023323615  -0.00010225398  20.175207      18.719379      1.4558279     -1.8649885      13305.306    
    155000   1.0086177      0.0023323615  -0.0029279156   20.128687      18.630889      1.4977973     -1.8206908      13417.931    
    156000   0.9948964      0.0023323615  -0.0030193056   20.137539      18.660118      1.4774212     -1.9725841      13375.327    
    157000   1.012272       0.0023323615  -0.00090554521  20.162437      18.659213      1.503224      -1.9160711      13408.783    
    158000   1.0951205      0.0023323615   0.0020676564   19.917293      18.29104       1.6262539     -2.146464       13411.334    
    159000   0.8909351      0.0023323615   0.00024896254  19.674888      18.351849      1.3230386     -2.0768742      13299.548    
    160000   0.88997101     0.0023323615   7.4887179e-05  19.868754      18.547147      1.3216069     -1.9254675      13281.053    
    161000   0.87622102     0.0023323615   0.0018354904   19.7159        18.414712      1.3011882     -1.9812047      13304.145    
    162000   1.0103054      0.0023323615  -0.0034933754   20.010502      18.510199      1.5003035     -2.0280087      13293.888    
    163000   1.0470662      0.0023323615  -0.0018459332   19.981984      18.427091      1.5548934     -1.992663       13515.495    
    164000   1.054703       0.0023323615  -0.0068385279   20.492323      18.926089      1.566234      -1.7025971      13481.003    
    165000   0.94077721     0.0023323615   0.0039116681   19.95005       18.552996      1.3970542     -1.9448933      13618.808    
    166000   1.0366554      0.0023323615   0.0002579263   20.017041      18.477607      1.5394332     -2.158521       13557.927    
    167000   0.96033125     0.0023323615   0.0013190465   20.014767      18.588675      1.4260919     -1.9838523      13464.943    
    168000   1.0415504      0.0023323615   0.0037651667   20.148659      18.601956      1.5467023     -1.9497325      13433.573    
    169000   1.0755471      0.0023323615   0.0037940962   19.983741      18.386554      1.5971874     -2.0836859      13536.795    
    170000   1.0072386      0.0023323615  -0.00091196863  20.084662      18.588912      1.4957494     -1.9782862      13484.797    
    171000   1.0109824      0.0023323615   0.0020188291   19.768963      18.267654      1.5013089     -2.2303799      13455.326    
    172000   0.93430162     0.0023323615   0.0024803707   19.709471      18.322034      1.3874379     -2.1701169      13390.86     
    173000   1.0046967      0.0023323615  -0.0011309079   19.852185      18.360211      1.4919745     -2.2795287      13390.537    
    174000   0.90846186     0.0023323615   0.00050674269  19.638336      18.28927       1.3490659     -2.1802146      13440.979    
    175000   1.0421386      0.0023323615  -0.0022997818   19.96221       18.414634      1.5475759     -2.0993621      13421.48     
    176000   1.0239518      0.0023323615  -0.00020321507  19.797483      18.276914      1.5205684     -2.1563199      13341.715    
    177000   0.98169372     0.0023323615  -0.00050187262  20.159184      18.701369      1.4578152     -1.8483082      13361.698    
    178000   0.94118917     0.0023323615   0.0049926313   20.052059      18.654393      1.3976659     -1.8686571      13353.285    
    179000   1.0352622      0.0023323615   0.0028894743   20.159181      18.621817      1.5373643     -1.8196002      13389.347    
    180000   1.0163713      0.0023323615  -0.00093449432  19.987149      18.477838      1.5093114     -1.935312       13343.392    
    181000   1.0124669      0.0023323615   0.0032500991   20.057054      18.55354       1.5035134     -2.0440452      13395.79     
    182000   0.9643884      0.0023323615   0.0010259868   19.834708      18.402592      1.4321168     -2.0335237      13381.221    
    183000   1.074962       0.0023323615   0.0027390257   20.162367      18.566048      1.5963186     -1.9357701      13453.591    
    184000   1.0623253      0.0023323615   2.516474e-05   20.307054      18.729501      1.5775531     -1.939185       13436.201    
    185000   1.031379       0.0023323615   0.004762205    20.430703      18.899105      1.5315978     -1.6690786      13364.024    
    186000   1.0167868      0.0023323615   0.0014635178   20.245951      18.736023      1.5099284     -1.8815907      13547.056    
    187000   0.97970902     0.0023323615  -0.0025764592   19.885583      18.430715      1.4548679     -2.0441291      13581.122    
    188000   1.2566938      0.0023323615  -0.00057595604  20.74923       18.88304       1.8661903     -1.7997862      13509.989    
    189000   1.0681164      0.0023323615   0.0026595887   20.020309      18.434157      1.5861528     -1.9734531      13463.085    
    190000   1.0312606      0.0023323615   0.0066987248   19.935187      18.403765      1.531422      -2.0807719      13421.588    
    191000   1.0009477      0.0023323615  -4.1344999e-05  19.803691      18.317284      1.4864073     -2.0488017      13386.088    
    192000   0.91389219     0.0023323615  -0.00087288814  19.91843       18.5613        1.3571299     -1.9854816      13358.312    
    193000   1.0897662      0.0023323615   0.0011179505   20.223214      18.604911      1.6183028     -1.9590121      13356.139    
    194000   0.88997315     0.0023323615  -0.001461924    19.862263      18.540653      1.3216101     -1.9521986      13387.699    
    195000   1.1844323      0.0023323615  -0.0012387617   20.653532      18.89465       1.758882      -1.6751587      13419.334    
    196000   0.95830647     0.0023323615   0.0029229391   19.95087       18.527785      1.4230851     -2.0144329      13354.475    
    197000   0.99582312     0.0023323615  -0.0017574849   20.129844      18.651046      1.4787973     -1.9116927      13266.623    
    198000   0.95184008     0.0023323615   0.0016932252   20.08008       18.666598      1.4134825     -1.8015         13282.395    
    199000   1.0134264      0.0023323615  -0.00078248403  20.009659      18.504721      1.5049382     -1.9706074      13264.311    
    200000   1.0438341      0.0023323615  -0.0023318916   20.253124      18.70303       1.5500936     -1.7921206      13246.387    
    201000   0.87468863     0.0023323615  -0.0012162436   19.897159      18.598246      1.2989126     -1.9390933      13417.738    
    202000   0.93736775     0.0023323615   0.0050859934   20.639692      19.247701      1.3919911     -1.5108479      13478.726    
    203000   0.9942591      0.0023323615  -0.00047064995  20.289969      18.813495      1.4764748     -1.8580181      13780.65     
    204000   0.85700237     0.0023323615  -0.0037809975   20.095821      18.823172      1.2726485     -1.8354129      13381.738    
    205000   0.97931687     0.0023323615  -0.00034825482  20.184769      18.730483      1.4542855     -1.8719576      13363.215    
    206000   0.93023812     0.0023323615  -0.00041035369  20.056614      18.675211      1.3814036     -1.8541279      13342.518    
    207000   0.97430206     0.0023323615   0.0010243309   19.793563      18.346724      1.4468386     -2.1396193      13303.441    
    208000   1.1212603      0.0023323615   0.00056829933  20.413331      18.748259      1.6650715     -1.7655319      13256.267    
    209000   0.99530115     0.0023323615  -0.00086617504  20.115481      18.637459      1.4780222     -1.9355809      13445.932    
    210000   1.0065124      0.0023323615  -0.002281718    19.81476       18.320089      1.4946709     -2.1312574      13421.285    
    211000   0.93676931     0.0023323615  -0.0004525604   20.026364      18.635261      1.3911024     -2.0016033      13298.235    
    212000   0.94795943     0.0023323615  -0.0024518975   19.709043      18.301323      1.4077198     -2.1512649      13358.703    
    213000   1.0045779      0.0023323615  -0.0029412246   20.095508      18.603709      1.4917981     -1.8692738      13425.444    
    214000   1.1235385      0.0023323615   0.0012775088   20.397064      18.728609      1.6684547     -1.7991945      13356.546    
    215000   1.1816757      0.0023323615  -6.7078796e-05  20.361946      18.607157      1.7547884     -1.9725904      13394.041    
    216000   1.0499328      0.0023323615  -0.0053784103   20.227667      18.668517      1.5591502     -1.9119922      13370.178    
    217000   0.98214619     0.0023323615  -0.00075834946  20.068773      18.610286      1.4584871     -1.9171455      13399.172    
    218000   1.105837       0.0023323615   0.0049275179   19.952026      18.309858      1.642168      -2.0943558      13317.628    
    219000   0.98172701     0.0023323615  -0.0048102146   19.730456      18.272592      1.4578646     -2.285505       13389.166    
    220000   0.97370443     0.0023323615   0.0012778094   20.048459      18.602508      1.4459511     -1.8865297      13435.917    
    221000   1.1082199      0.0023323615   0.0030903211   19.965236      18.319529      1.6457065     -2.267846       13410.824    
    222000   0.93851912     0.0023323615  -0.00046187039  20.039595      18.645894      1.3937009     -1.9180619      13419.152    
    223000   1.1376805      0.0023323615   0.0011217831   20.250863      18.561407      1.6894556     -1.933276       13455.945    
    224000   1.0590305      0.0023323615   0.0003236755   20.102804      18.530143      1.5726603     -2.0905368      13397.433    
    225000   1.0283242      0.0023323615  -0.00062742874  20.128495      18.601434      1.5270614     -1.9029649      13326.259    
    226000   0.98117821     0.0023323615   0.0018105992   19.965911      18.508862      1.4570496     -2.1085982      13312.236    
    227000   1.1224821      0.0023323615   0.0018129353   20.165348      18.498462      1.6668859     -1.9749814      13430.656    
    228000   0.97599243     0.0023323615   0.00022927516  20.073942      18.624594      1.4493488     -1.9797824      13419.19     
    229000   1.0479837      0.0023323615   0.0041102156   20.191831      18.635575      1.5562558     -1.8494225      13438.817    
    230000   0.96640972     0.0023323615  -0.00047581107  19.865298      18.43018       1.4351184     -2.1070005      13471.191    
    231000   1.0630023      0.0023323615  -0.0048141813   20.436666      18.858108      1.5785585     -1.7387141      13384.028    
    232000   1.0263869      0.0023323615  -0.0018811035   20.351334      18.827149      1.5241845     -1.6943034      13289.079    
    233000   0.90580805     0.0023323615   0.0026774918   20.046392      18.701267      1.345125      -1.9001239      13381.433    
    234000   0.97811343     0.0023323615   0.0053801104   19.891935      18.439437      1.4524984     -1.9350289      13394.955    
    235000   0.93664202     0.0023323615   0.00070258123  20.093848      18.702935      1.3909134     -1.7942635      13460.376    
    236000   1.0291148      0.0023323615   0.00020698218  20.113352      18.585116      1.5282355     -1.9003116      13450.304    
    237000   1.0131777      0.0023323615   0.0038273898   20.04096       18.536391      1.5045689     -1.8571055      13534.478    
    238000   0.95391597     0.0023323615   0.0015797179   19.855126      18.43856       1.4165652     -2.0223295      13493.675    
    239000   1.030895       0.0023323615   0.0019953731   20.148233      18.617354      1.5308791     -1.892194       13533.884    
    240000   1.0283273      0.0023323615   0.0015277644   19.934017      18.406951      1.527066      -2.0832842      13499.243    
    241000   0.94268476     0.0023323615   0.0047148116   19.974307      18.57442       1.3998869     -1.9462408      13503.407    
    242000   0.97758136     0.0023323615   0.00043988037  20.016389      18.56468       1.4517083     -1.9547894      13444.104    
    243000   1.0337632      0.0023323615   0.0004612043   20.269083      18.733945      1.5351384     -1.8547817      13334.424    
    244000   1.0949201      0.0023323615   0.00015096754  20.09685       18.470893      1.6259563     -2.0935677      13404.792    
    245000   1.036437       0.0023323615  -0.00048481285  20.022626      18.483517      1.539109      -2.0868203      13313.898    
    246000   0.9877025      0.0023323615  -0.00048690232  20.018372      18.551634      1.4667382     -1.9508252      13387.983    
    247000   1.0134491      0.0023323615   0.0058504767   20.063505      18.558533      1.5049719     -1.8893628      13454.374    
    248000   0.87219392     0.0023323615   0.00063167456  19.819487      18.524279      1.295208      -1.8823995      13562.69     
    249000   1.1887782      0.0023323615   0.002948296    20.376477      18.611141      1.7653357     -1.9657825      13604.648    
    250000   0.99860464     0.0023323615   0.0023038067   20.165291      18.682363      1.4829279     -1.7764609      13645.016    
    251000   0.99821662     0.0023323615  -0.0013874635   20.006334      18.523983      1.4823517     -2.0214195      13539.918    
    252000   1.0754937      0.0023323615   0.00037318209  20.000185      18.403076      1.5971082     -2.0520098      13572.918    
    253000   1.0259206      0.0023323615  -0.00082354772  20.243962      18.72047       1.5234922     -1.809912       13706.056    
    254000   0.82030456     0.0023323615  -0.00059561838  19.679602      18.46145       1.2181523     -2.0778344      13661.758    
    255000   0.87872714     0.0023323615  -0.00062666072  19.858527      18.553617      1.3049098     -1.9988176      13749.201    
    256000   0.94916348     0.0023323615   0.0046819617   19.916196      18.506688      1.4095078     -2.0760495      13733.82     
    257000   0.93351773     0.0023323615  -0.0016901025   20.116195      18.729921      1.3862738     -1.7841764      13674.212    
    258000   0.96585808     0.0023323615   0.0018627808   19.833596      18.399297      1.4342993     -2.0936953      13727.857    
    259000   0.97236829     0.0023323615   0.0023653766   20.08903       18.645063      1.4439669     -1.8682508      13820.065    
    260000   1.1767838      0.0023323615  -0.0023713032   20.282865      18.535341      1.7475239     -1.8843817      13769.194    
    261000   0.89758698     0.0023323615  -0.00069668677  20.058535      18.725619      1.3329167     -1.7717609      13826.009    
    262000   1.0707822      0.0023323615   0.0018847169   20.114078      18.523966      1.5901116     -1.9012637      13544.594    
    263000   0.89147291     0.0023323615   0.00099439775  19.705264      18.381427      1.3238373     -2.0658745      13583.225    
    264000   1.0738884      0.0023323615  -0.00031760339  20.422641      18.827917      1.5947243     -1.6301525      13342.058    
    265000   0.90462984     0.0023323615  -0.001852157    19.881837      18.538462      1.3433753     -1.9328644      13336.093    
    266000   0.98542547     0.0023323615  -0.0054480753   19.937404      18.474047      1.4633568     -2.1376295      13314.394    
    267000   0.95018663     0.0023323615  -0.0037684228   20.381646      18.970619      1.4110271     -1.5450097      13307.429    
    268000   1.0465361      0.0023323615  -2.1148335e-05  20.073312      18.519206      1.5541061     -1.9716215      13343.519    
    269000   0.9213253      0.0023323615   9.5034322e-05  20.249858      18.88169       1.3681681     -1.6852733      13408.721    
    270000   1.0474116      0.0023323615   0.0031263464   19.955443      18.400036      1.5554062     -2.081735       13315.921    
    271000   0.8941164      0.0023323615  -0.0015894792   19.994579      18.666817      1.3277629     -1.8003913      13192.249    
    272000   1.0550573      0.0023323615   0.0031423603   19.818617      18.251857      1.5667601     -2.1898846      13218.892    
    273000   1.0296259      0.0023323615   0.00036839198  20.085333      18.556339      1.5289945     -2.0016995      13149.641    
    274000   0.96734889     0.0023323615   0.00019840057  20.034347      18.597834      1.4365131     -1.8117829      13317.611    
    275000   1.0366314      0.0023323615   0.0016695008   20.247212      18.707814      1.5393977     -1.8922476      13267.624    
    276000   1.0405067      0.0023323615   0.00039501164  19.974921      18.429769      1.5451524     -2.0187382      13231.219    
    277000   0.93979413     0.0023323615  -0.00077390511  20.043395      18.647801      1.3955943     -1.7960206      13283.906    
    278000   1.1229233      0.0023323615  -0.0011453093   20.411365      18.743824      1.6675411     -1.6887817      13417.839    
    279000   0.99413223     0.0023323615   0.0019853086   20.102216      18.625929      1.4762864     -1.7714762      13304.228    
    280000   1.0624693      0.0023323615  -0.0015029343   20.306965      18.729198      1.577767      -1.8398804      13160.51     
    281000   1.0004407      0.0023323615  -0.0013565792   20.237141      18.751486      1.4856545     -1.8061002      13205.452    
    282000   1.0409422      0.0023323615  -0.0023775369   20.205065      18.659265      1.5457992     -1.9110406      13289.784    
    283000   0.89935215     0.0023323615  -0.0043238355   19.933921      18.598383      1.3355379     -1.9104267      13386.164    
    284000   1.1320352      0.0023323615   0.00097263564  20.407384      18.726312      1.6810722     -1.751821       13414.897    
    285000   0.94040252     0.0023323615  -0.0011635011   19.8794        18.482902      1.3964977     -1.9818372      13330.599    
    286000   0.97927784     0.0023323615  -0.00035118036  20.165563      18.711335      1.4542276     -1.8104103      13294.177    
    287000   1.0659718      0.0023323615   0.00078179238  20.188389      18.605421      1.5829682     -1.8595981      13591.658    
    288000   0.87896113     0.0023323615   0.0054884521   19.786542      18.481285      1.3052573     -2.0065303      13431.984    
    289000   0.9531223      0.0023323615   0.00016972169  20.085104      18.669718      1.4153866     -1.8824587      13435.597    
    290000   1.0214045      0.0023323615   0.00047133631  20.021439      18.504653      1.5167857     -1.9301744      13388.383    
    291000   1.0472988      0.0023323615  -0.0023451071   20.122876      18.567637      1.5552387     -1.954888       13492.993    
    292000   1.1093816      0.0023323615   0.00012229983  20.190904      18.543472      1.6474317     -1.8647518      13554.81     
    293000   0.92585723     0.0023323615  -0.0014485803   20.057521      18.682623      1.374898      -1.8903074      13501.288    
    294000   0.99511434     0.0023323615  -0.00046782377  19.905831      18.428086      1.4777448     -2.0459797      13319.852    
    295000   0.96153447     0.0023323615  -0.0021672353   19.799926      18.372047      1.4278787     -2.1844057      13411.206    
    296000   0.95992923     0.0023323615  -0.0018334299   19.80428       18.378785      1.4254949     -2.05201        13314.305    
    297000   1.0201156      0.0023323615  -0.0012286366   20.155883      18.641011      1.5148717     -1.81656        13462.33     
    298000   1.0024842      0.0023323615  -0.00054062598  20.15939       18.670701      1.488689      -1.893793       13550.272    
    299000   0.94535008     0.0023323615  -0.0022264208   20.029244      18.625399      1.4038449     -2.0388124      13480.648    
    300000   0.98883678     0.0023323615  -0.0028532382   20.113891      18.645468      1.4684226     -1.9744674      13535.789    
    301000   0.82959534     0.0023323615   0.0019982621   19.774723      18.542773      1.2319491     -1.9282786      13523.646    
    302000   1.0805378      0.0023323615   0.0021081444   20.22576       18.621161      1.6045986     -1.8252027      13561.085    
    303000   1.016674       0.0023323615  -0.0016076004   20.251575      18.741814      1.509761      -1.8714972      13464.638    
    304000   1.0894611      0.0023323615   0.00037480222  20.024362      18.406512      1.6178497     -2.0336248      13476.698    
    305000   1.0261969      0.0023323615  -0.001467211    20.025122      18.501219      1.5239024     -2.0483057      13538.506    
    306000   1.0085611      0.0023323615  -0.0021330657   20.061458      18.563745      1.4977132     -1.8415904      13471.014    
    307000   1.041116       0.0023323615  -0.0013889475   20.280466      18.734409      1.5460572     -1.8130834      13411.534    
    308000   1.0548901      0.0023323615  -8.1987827e-05  20.187385      18.620874      1.5665118     -1.9882451      13452.075    
    309000   0.87442976     0.0023323615  -0.00091476758  20.070786      18.772258      1.2985282     -1.812655       13538.657    
    310000   0.86138621     0.0023323615   0.001452709    19.744533      18.465374      1.2791585     -2.082795       13460.427    
    311000   1.0848697      0.0023323615  -0.0022960348   20.090094      18.479063      1.6110315     -2.111487       13357.966    
    312000   0.97567374     0.0023323615  -0.0016762766   19.845255      18.39638       1.4488755     -2.13865        13432.98     
    313000   0.90258794     0.0023323615   0.0007717505   19.834426      18.494083      1.3403431     -1.9940002      13460.129    
    314000   1.013973       0.0023323615   0.000148328    20.266774      18.761024      1.50575       -1.816035       13573.16     
    315000   0.97902575     0.0023323615  -0.0036895666   19.799259      18.345406      1.4538532     -2.1335776      13478.411    
    316000   1.0405936      0.0023323615  -0.0016865367   20.186445      18.641163      1.5452815     -1.9820767      13525.583    
    317000   0.85629379     0.0023323615   0.0017598164   19.778396      18.5068        1.2715963     -1.9498273      13419.488    
    318000   1.1070107      0.0023323615   0.0013669622   20.479803      18.835893      1.6439108     -1.7384465      13449.51     
    319000   0.9524095      0.0023323615   0.0050497712   20.004295      18.589967      1.4143281     -1.9357118      13396.43     
    320000   1.053801       0.0023323615  -0.0047705117   20.169494      18.604599      1.5648945     -1.897569       13236.216    
    321000   0.91783731     0.0023323615   0.0018911113   19.82332       18.460332      1.3629884     -2.0883879      13300.886    
    322000   0.96601024     0.0023323615  -0.0022931062   20.021434      18.586908      1.4345252     -2.016541       13258.095    
    323000   0.96477888     0.0023323615  -0.00033955502  19.712983      18.280287      1.4326966     -2.1731768      13524.208    
    324000   0.9123763      0.0023323615   2.3572872e-05  19.850563      18.495684      1.3548788     -1.9488557      13465.608    
    325000   1.0652075      0.0023323615   0.00026760658  20.114815      18.532982      1.5818331     -1.9567625      13323.129    
    326000   0.99863268     0.0023323615   0.0015253983   19.791751      18.308781      1.4829695     -2.1314169      13381.541    
    327000   1.005764       0.0023323615   0.002851199    20.172117      18.678558      1.4935595     -1.8168832      13361.056    
    328000   1.0915502      0.0023323615   0.0070760833   20.310453      18.689501      1.620952      -1.80787        13370.844    
    329000   0.90704089     0.0023323615   0.00058524747  19.998975      18.652019      1.3469557     -1.9293176      13310.857    
    330000   0.88229373     0.0023323615  -0.0012828811   20.114794      18.804588      1.3102062     -1.828543       13367.284    
    331000   0.95807499     0.0023323615  -0.0019979347   20.146572      18.72383       1.4227414     -1.7115985      13373.698    
    332000   1.0104102      0.0023323615  -0.00066960759  20.012514      18.512054      1.5004591     -1.9965773      13439.854    
    333000   0.98771533     0.0023323615   0.0024671583   20.129173      18.662416      1.4667573     -1.9686518      13383.268    
    334000   1.1053626      0.0023323615   0.00037704438  20.231266      18.589802      1.6414635     -1.9439572      13381.205    
    335000   1.0044695      0.0023323615  -0.0022151706   20.275686      18.784049      1.4916372     -1.9164444      13427.837    
    336000   0.98810229     0.0023323615  -0.0015752005   20.009058      18.541726      1.4673319     -2.0013654      13491.884    
    337000   0.96732034     0.0023323615  -7.1335367e-05  19.983812      18.547341      1.4364707     -1.9461277      13407.045    
    338000   0.98381351     0.0023323615  -0.0014012995   20.009179      18.548216      1.4609631     -2.0511091      13304.987    
    339000   0.92213136     0.0023323615  -0.0050595483   19.62776       18.258395      1.3693651     -2.209765       13381.523    
    340000   0.94003163     0.0023323615  -0.00012506048  19.971836      18.575889      1.395947      -1.9419214      13374.237    
    341000   1.0266748      0.0023323615   0.0037619222   20.124476      18.599863      1.5246121     -1.873373       13487.842    
    342000   1.0786697      0.0023323615   0.002999976    20.128579      18.526755      1.6018245     -1.961006       13417.195    
    343000   0.94766291     0.0023323615  -0.0030672392   20.06338       18.656101      1.4072794     -1.9070667      13450.209    
    344000   1.1002371      0.0023323615  -0.00036761401  20.067096      18.433244      1.6338521     -2.1376663      13414.51     
    345000   0.93300421     0.0023323615   0.00046851088  20.026956      18.641445      1.3855113     -1.9102459      13453.85     
    346000   0.98087913     0.0023323615   0.0033632951   19.77676       18.320155      1.4566055     -2.0668946      13397.014    
    347000   0.9511527      0.0023323615  -0.0018602703   19.802816      18.390355      1.4124618     -2.1042495      13342.935    
    348000   0.99442114     0.0023323615   0.0019501064   19.774123      18.297407      1.4767154     -2.2606934      13349.365    
    349000   0.96572766     0.0023323615   0.0036602469   20.198987      18.764881      1.4341056     -1.8552676      13377.618    
    350000   1.1074033      0.0023323615  -0.0021173823   20.345037      18.700543      1.6444938     -1.7925627      13403.815    
    351000   1.0932183      0.0023323615  -0.0025563389   19.944843      18.321414      1.6234291     -2.1462947      13321.969    
    352000   1.0763889      0.0023323615  -0.00080836251  19.814629      18.216191      1.5984375     -2.3489377      13273.935    
    353000   0.95685415     0.0023323615   0.0031973469   19.765578      18.34465       1.4209284     -2.1320929      13260.688    
    354000   1.1395837      0.0023323615   0.00043583098  20.221286      18.529005      1.6922818     -1.8743098      13193.186    
    355000   1.0055659      0.0023323615  -0.00086541197  19.85526       18.361994      1.4932654     -2.2176296      13146.371    
    356000   0.95267897     0.0023323615  -0.0023100211   20.128658      18.71393       1.4147283     -1.7541058      13283.722    
    357000   0.99352481     0.0023323615   0.0029470153   20.164         18.688615      1.4753843     -1.7982955      13317.163    
    358000   1.0002547      0.0023323615   0.0024884325   20.236646      18.751268      1.4853782     -1.7485205      13201.443    
    359000   0.92643222     0.0023323615  -0.001219133    19.745656      18.369904      1.3757518     -2.172445       13221.252    
    360000   1.1754065      0.0023323615   0.0031985572   20.319666      18.574187      1.7454786     -1.9987152      13244.728    
    361000   0.9767878      0.0023323615  -0.0012000724   19.802719      18.352189      1.4505299     -2.1713638      13226.408    
    362000   1.0101317      0.0023323615  -0.0021275671   20.016319      18.516273      1.5000456     -1.9802401      13180.64     
    363000   1.0317985      0.0023323615  -0.0013197477   20.095251      18.56303       1.5322207     -1.9600792      13259.117    
    364000   1.0278912      0.0023323615  -0.0023468955   19.959749      18.433331      1.5264184     -1.970726       13354.036    
    365000   1.0100374      0.0023323615   0.00055630999  20.188272      18.688367      1.4999056     -1.8968642      13266.386    
    366000   1.0385564      0.0023323615   0.0047431451   20.26808       18.725823      1.5422562     -1.8692701      13159.093    
    367000   1.0313645      0.0023323615   0.00010718064  20.260813      18.729237      1.5315762     -1.7867819      13334.372    
    368000   1.046208       0.0023323615  -0.0030936694   20.199061      18.645442      1.5536189     -1.8707526      13386.912    
    369000   0.96489869     0.0023323615   0.00060612437  19.913249      18.480374      1.4328746     -1.9273656      13372.926    
    370000   1.058423       0.0023323615   0.0028314025   20.256602      18.684844      1.5717582     -1.7920664      13418.73     
    371000   0.88972071     0.0023323615  -0.0010736125   19.944998      18.623763      1.3212353     -1.8052089      13485.788    
    372000   1.2545063      0.0023323615  -1.2202401e-05  20.624071      18.761129      1.8629419     -1.8332168      13436.083    
    373000   1.0097646      0.0023323615   0.0010662484   19.975258      18.475757      1.4995004     -2.0378185      13471.704    
    374000   1.0464108      0.0023323615  -0.0037458038   20.089221      18.535301      1.55392       -2.0297281      13561.308    
    375000   1.143007       0.0023323615   0.00037352826  20.320348      18.622983      1.6973654     -1.9250892      13594.355    
    376000   1.0353983      0.0023323615   0.00020944744  20.226753      18.689187      1.5375664     -1.8859782      13543.567    
    377000   1.1653273      0.0023323615  -0.00023962335  20.53058       18.800069      1.7305111     -1.6401543      13559.405    
    378000   1.0527365      0.0023323615  -0.0027615608   20.388929      18.825616      1.5633137     -1.6708166      13490.4      
    379000   0.88426979     0.0023323615  -0.0013675532   19.681091      18.36795       1.3131406     -2.0511469      13359.176    
    380000   0.99296957     0.0023323615   0.0011924843   19.987992      18.513432      1.4745598     -1.9691057      13245.239    
    381000   1.0557761      0.0023323615  -0.0025999125   20.396847      18.82902       1.5678275     -1.8529302      13168.447    
    382000   0.90095049     0.0023323615   0.0027532208   19.768049      18.430138      1.3379115     -2.1728486      13150.292    
    383000   1.0395262      0.0023323615   0.0017236896   20.093474      18.549777      1.5436964     -2.0167414      13273.252    
    384000   0.85999316     0.0023323615   0.00056916724  20.023728      18.746638      1.2770898     -1.6942807      13231.533    
    385000   1.0517169      0.0023323615   6.0034329e-05  20.338985      18.777185      1.5617997     -1.844475       13220.834    
    386000   1.0481834      0.0023323615   0.0012067718   20.214949      18.658397      1.5565523     -1.8833686      13281.669    
    387000   1.115976       0.0023323615  -0.00096826304  20.4054        18.748176      1.6572243     -1.7779051      13229.052    
    388000   1.0645032      0.0023323615   0.0034542105   20.217876      18.637089      1.5807872     -1.943529       13310.257    
    389000   0.88544385     0.0023323615   0.0014985091   19.77751       18.462626      1.3148841     -2.0194514      13262.542    
    390000   0.97890374     0.0023323615   0.00038091887  19.992811      18.539139      1.4536721     -2.0182637      13238.211    
    391000   0.99385019     0.0023323615  -0.0015214479   20.299381      18.823513      1.4758675     -1.9240306      13271.756    
    392000   1.1368787      0.0023323615  -0.00082033438  20.497033      18.808768      1.6882648     -1.7848739      13236.631    
    393000   1.0083848      0.0023323615   0.0017872172   20.120133      18.622681      1.4974515     -1.8865632      13211.324    
    394000   0.95251666     0.0023323615   0.0037568791   20.034457      18.61997       1.4144872     -1.8203766      13245.649    
    395000   1.1277702      0.0023323615   0.0050525877   20.442637      18.767898      1.6747388     -1.8061146      13213.819    
    396000   1.0299444      0.0023323615  -0.00080631529  19.91026       18.380792      1.5294674     -2.0666754      13333.031    
    397000   0.98137423     0.0023323615   0.0035213375   19.675373      18.218032      1.4573407     -2.2632036      13397.53     
    398000   1.1218291      0.0023323615  -0.00019276194  19.981301      18.315384      1.6659162     -2.0562389      13226.568    
    399000   1.0746901      0.0023323615   0.0021292818   20.112226      18.516312      1.5959148     -2.0352069      13181.993    
    400000   1.0469465      0.0023323615   0.00079347949  20.282568      18.727853      1.5547155     -1.9021614      13287.59     
    401000   0.93479143     0.0023323615   0.0032805532   19.914472      18.526307      1.3881653     -2.0372282      13206.278    
    402000   1.0359487      0.0023323615  -7.9652015e-05  20.118503      18.580119      1.5383838     -1.8637946      13214.282    
    403000   0.95184454     0.0023323615   0.00096485295  19.771         18.357511      1.4134891     -2.1319794      13246.083    
    404000   1.0836161      0.0023323615  -0.0042475828   20.466867      18.857697      1.6091699     -1.621531       13472.482    
    405000   1.1639099      0.0023323615   0.0029320067   20.437348      18.708942      1.7284062     -1.7726411      13331.195    
    406000   0.92464283     0.0023323615  -0.00065529004  19.932563      18.559468      1.3730946     -1.9944813      13278.085    
    407000   1.1334584      0.0023323615  -0.0024336918   20.496559      18.813373      1.6831857     -1.7033724      13234.813    
    408000   1.0453606      0.0023323615   0.0015469651   19.837615      18.285254      1.5523605     -2.1336458      13233.902    
    409000   1.082199       0.0023323615   0.0018672774   20.079915      18.472849      1.6070656     -2.0078598      13221.217    
    410000   0.96221751     0.0023323615  -0.0055557022   20.29331       18.864417      1.428893      -1.8852211      13218.043    
    411000   0.99504461     0.0023323615   0.0022021598   20.195207      18.717566      1.4776412     -1.8282481      13283.068    
    412000   1.1118846      0.0023323615   0.0014449191   20.476521      18.825373      1.6511486     -1.7491988      13245.922    
    413000   1.0610092      0.0023323615   0.0045581163   20.013866      18.438268      1.5755986     -2.0081323      13229.905    
    414000   0.94748618     0.0023323615   0.00091897098  19.899404      18.492387      1.407017      -1.9746111      13253.284    
    415000   0.88876466     0.0023323615  -0.0031074748   19.699492      18.379676      1.3198155     -2.1091836      13189.154    
    416000   1.0664709      0.0023323615  -0.0018470701   19.970083      18.386374      1.5837094     -2.1039114      13202.961    
    417000   1.0267581      0.0023323615  -0.0016838123   19.977564      18.452829      1.5247357     -2.0337472      13274.167    
    418000   0.98162941     0.0023323615   0.0026910883   20.013556      18.555836      1.4577197     -1.9895514      13216.616    
    419000   0.99957523     0.0023323615   0.00096599689  19.897264      18.412895      1.4843692     -2.0647356      13200.306    
    420000   0.98884089     0.0023323615   0.0029043682   20.159079      18.69065       1.4684287     -1.9208122      13246.412    
    421000   0.987312       0.0023323615  -0.0004749129   19.842643      18.376485      1.4661583     -2.1096654      13279.29     
    422000   0.86381279     0.0023323615  -0.00018196061  19.598457      18.315695      1.282762      -2.1974684      13121.976    
    423000   1.1157502      0.0023323615   0.0012341527   20.231212      18.574323      1.6568891     -1.948603       12641.528    
    424000   1.0109949      0.0023323615   0.00091372778  20.05272       18.551392      1.5013274     -1.9515518      13259.361    
    425000   1.1431361      0.0023323615   0.0012576628   20.056026      18.358469      1.6975571     -2.0717915      13368.803    
    426000   1.0430843      0.0023323615   0.001595138    20.29211       18.74313       1.5489802     -1.8699849      13355.83     
    427000   1.0655601      0.0023323615   0.0055083316   20.033398      18.451041      1.5823568     -2.0758455      13402.441    
    428000   0.88753753     0.0023323615  -0.0012938249   19.877331      18.559337      1.3179932     -1.9473966      13409.341    
    429000   0.97688487     0.0023323615   0.00079224159  20.09563       18.644956      1.450674      -1.8566257      13350.254    
    430000   0.96209577     0.0023323615  -6.261826e-05   20.003291      18.574579      1.4287122     -1.9154062      13340.895    
    431000   1.0894467      0.0023323615   0.0031758509   20.502556      18.884728      1.6178283     -1.5918383      13404.401    
    432000   0.97659519     0.0023323615  -0.00043453192  19.966784      18.516541      1.4502439     -2.0230935      13421.57     
    433000   1.0736057      0.0023323615  -0.0064515896   19.974908      18.380603      1.5943045     -2.0978094      13348.419    
    434000   1.0402091      0.0023323615  -0.002360383    19.894051      18.349341      1.5447104     -2.1786059      13356.387    
    435000   1.0773297      0.0023323615  -0.0031392936   20.215831      18.615996      1.5998346     -1.845815       13425.5      
    436000   0.88161741     0.0023323615   0.00068709141  19.666308      18.357106      1.3092018     -2.2596778      13310.299    
    437000   0.97949208     0.0023323615  -0.0015083412   19.99199       18.537444      1.4545457     -1.9686976      13335.726    
    438000   1.0750924      0.0023323615   0.0017014662   20.137434      18.540921      1.5965122     -1.8909729      13379.736    
    439000   1.075097       0.0023323615   0.0034426149   20.302953      18.706434      1.596519      -1.9464164      13458.343    
    440000   0.91158644     0.0023323615  -0.00084431973  19.792071      18.438365      1.3537059     -2.0680404      13515.257    
    441000   0.94275501     0.0023323615  -0.0011592405   19.903819      18.503827      1.3999912     -2.0360018      13474.224    
    442000   1.1100116      0.0023323615   0.0014128287   20.241868      18.593501      1.6483672     -1.8788922      13471.175    
    443000   1.0764555      0.0023323615   0.00377401     19.891574      18.293037      1.5985363     -2.1697523      13493.713    
    444000   0.98307348     0.0023323615   0.0012946167   19.862542      18.402678      1.4598641     -2.1521663      13360.907    
    445000   1.0106057      0.0023323615  -0.00047015488  20.132084      18.631335      1.5007494     -1.9175137      13494.542    
    446000   1.0897185      0.0023323615  -0.0031383041   20.144603      18.526371      1.618232      -1.9648413      13390.693    
    447000   0.91772966     0.0023323615  -0.0019933465   19.945877      18.583049      1.3628285     -1.936966       13680.325    
    448000   0.96991651     0.0023323615  -0.00029243655  20.144145      18.703819      1.440326      -1.8287284      13648.63     
    449000   0.97826755     0.0023323615  -0.0010855142   19.880513      18.427785      1.4527273     -2.058251       13718.76     
    450000   0.97092667     0.0023323615  -0.002311055    20.068099      18.626273      1.4418261     -2.063491       13710.998    
    451000   0.84801177     0.0023323615   0.0026039382   19.813034      18.553736      1.2592975     -1.9473031      13715.684    
    452000   1.1853475      0.0023323615   0.0012704713   20.293562      18.533321      1.760241      -2.0296046      13733.866    
    453000   0.99678714     0.0023323615  -0.0017825925   19.879296      18.399067      1.4802289     -2.2355695      13684.506    
    454000   1.004496       0.0023323615  -0.0038813435   20.275038      18.783361      1.4916765     -1.9431949      13542.04     
    455000   0.85683989     0.0023323615  -0.00052111173  19.899605      18.627197      1.2724072     -1.8923046      13841.835    
    456000   0.99643046     0.0023323615   0.0010312592   20.352378      18.872679      1.4796992     -1.5539126      13784.801    
    457000   0.9876763      0.0023323615  -0.00051952563  20.047314      18.580614      1.4666993     -1.8864073      13733.07     
    458000   1.0263683      0.0023323615   0.00051277442  19.895252      18.371095      1.524157      -2.1300507      13654.538    
    459000   0.86235219     0.0023323615  -0.0029385076   19.769077      18.488484      1.280593      -2.0227805      13673.47     
    460000   1.0173889      0.0023323615  -0.0014528376   20.09425       18.583427      1.5108225     -1.8980014      13751.713    
    461000   0.93778653     0.0023323615   0.00039031865  19.77333       18.380717      1.392613      -2.0452242      13691.419    
    462000   1.0381714      0.0023323615  -0.0039034283   20.054897      18.513212      1.5416846     -2.0426462      13732.669    
    463000   1.0521377      0.0023323615  -0.0036470749   20.182166      18.619741      1.5624245     -1.9402059      13715.437    
    464000   0.98575936     0.0023323615  -0.003193238    20.019697      18.555844      1.4638526     -1.9682919      13747.281    
    465000   1.1974102      0.0023323615   0.00022087898  20.257777      18.479623      1.7781542     -2.1260843      13700.363    
    466000   0.96725068     0.0023323615  -0.00094903045  20.003362      18.566995      1.4363673     -1.9756278      13765.299    
    467000   1.0669089      0.0023323615   0.0017108851   20.172495      18.588135      1.5843596     -1.8518064      13730.574    
    468000   1.0582892      0.0023323615   0.0062032156   20.23143       18.659871      1.5715595     -1.8608749      13769.813    
    469000   1.0889663      0.0023323615   0.0025272261   20.201405      18.58429       1.617115      -1.9852386      13835.258    
    470000   1.0127329      0.0023323615  -0.0014351941   20.041186      18.537278      1.5039083     -1.9765161      13770.626    
    471000   1.1306427      0.0023323615   0.00084081894  20.419423      18.740419      1.6790045     -1.7741044      13810.894    
    472000   0.88652473     0.0023323615   0.00013276906  19.840717      18.524228      1.3164892     -2.0104159      13737.941    
    473000   0.99526807     0.0023323615   0.002828449    19.889891      18.411918      1.4779731     -2.107664       13700.878    
    474000   0.90941178     0.0023323615   0.0026881296   19.814216      18.46374       1.3504765     -2.1583806      13725.877    
    475000   0.83438796     0.0023323615  -1.1442648e-05  19.946859      18.707793      1.2390661     -1.9527343      13706.502    
    476000   0.96068025     0.0023323615  -0.0024504652   20.224004      18.797394      1.4266102     -1.7824052      13766.201    
    477000   0.96800518     0.0023323615   0.0037161869   19.757091      18.319604      1.4374877     -2.216055       13822.656    
    478000   0.93313238     0.0023323615   0.00058064019  19.872446      18.486744      1.3857016     -2.0298343      13666.395    
    479000   0.96571423     0.0023323615  -0.00088869079  19.916073      18.481988      1.4340856     -2.0231357      13615.646    
    480000   0.97075941     0.0023323615   0.0034516687   20.019784      18.578206      1.4415777     -1.9733799      13679.906    
    481000   0.97516834     0.0023323615  -0.0037189061   19.902898      18.454773      1.448125      -2.012834       13765.789    
    482000   1.1210619      0.0023323615   0.00033042087  20.051836      18.387059      1.6647769     -2.1607806      13671.061    
    483000   0.93367926     0.0023323615  -0.0014411194   19.972923      18.586409      1.3865137     -1.9194743      13780.692    
    484000   0.92631005     0.0023323615  -0.000431227    19.948264      18.572694      1.3755704     -1.9274939      13752.924    
    485000   1.1145136      0.0023323615  -0.0013466952   20.091632      18.436579      1.6550528     -2.0872294      13698.413    
    486000   1.034928       0.0023323615  -0.0011853092   20.245536      18.708668      1.5368681     -1.918024       13643.513    
    487000   0.92313851     0.0023323615   0.002100025    19.900551      18.52969       1.3708607     -2.0549178      13668.01     
    488000   0.966942       0.0023323615  -0.0011831739   20.012321      18.576412      1.4359089     -1.943887       13642.77     
    489000   1.0163333      0.0023323615   9.3868528e-05  20.260582      18.751327      1.5092549     -1.7546084      13528.399    
    490000   0.86263596     0.0023323615  -0.00099596475  19.737308      18.456294      1.2810144     -2.0178922      13383.757    
    491000   1.005087       0.0023323615  -0.00029627937  20.163461      18.670907      1.4925542     -1.83442        13376.066    
    492000   0.89368559     0.0023323615  -0.00041189481  20.217758      18.890635      1.3271231     -1.8191303      13329.158    
    493000   0.95927923     0.0023323615  -0.0016661795   19.959481      18.534952      1.4245297     -1.9324733      13330.226    
    494000   0.99313202     0.0023323615  -0.00026521092  20.035884      18.561083      1.4748011     -2.1427768      13423.362    
    495000   1.0017701      0.0023323615  -0.0065823643   19.872398      18.384769      1.4876286     -2.0316632      13383.873    
    496000   0.86560203     0.0023323615  -0.00035034832  20.075772      18.790353      1.285419      -1.6155667      13429.857    
    497000   0.91160976     0.0023323615  -9.3035789e-05  20.195003      18.841262      1.3537405     -1.7282143      13607.048    
    498000   1.0277187      0.0023323615   0.0019857499   20.052817      18.526655      1.5261623     -2.0912705      13801.143    
    499000   1.0891872      0.0023323615   0.00033586104  20.187766      18.570323      1.617443      -2.0049004      13734.557    
    500000   0.85695857     0.0023323615   0.0012673447   19.798701      18.526118      1.2725835     -2.0575747      9792.0655    
    501000   1.0512644      0.0023323615  -0.00085936904  20.358683      18.797555      1.5611277     -1.8862468      12865.982    
    502000   0.91557632     0.0023323615   0.0010721978   19.964616      18.604986      1.3596308     -1.9530916      13069.244    
    503000   0.88257434     0.0023323615   0.0015165016   20.049351      18.738728      1.3106229     -1.8974148      12985.183    
    504000   0.993354       0.0023323615  -0.0010982478   20.225652      18.750521      1.4751307     -1.7295848      13065.069    
    505000   1.1566174      0.0023323615   0.0015830378   20.313892      18.596315      1.7175768     -1.9156124      12785.205    
    506000   0.9009241      0.0023323615   0.00046857195  20.219437      18.881565      1.3378723     -1.6150208      13525.605    
    507000   1.0261718      0.0023323615   0.00068327219  20.236454      18.712589      1.5238652     -1.8061037      13024.504    
    508000   1.1172867      0.0023323615   6.2515605e-05  20.149726      18.490555      1.6591708     -2.1704547      13180.893    
    509000   0.89659912     0.0023323615   0.0010466005   19.732965      18.401515      1.3314497     -2.0574868      12743.973    
    510000   1.0990243      0.0023323615  -0.0031959141   19.890658      18.258607      1.6320511     -2.2371465      13139.986    
    511000   0.88647966     0.0023323615   0.0012318581   19.881333      18.564911      1.3164223     -2.116626       12926.474    
    512000   1.0351939      0.0023323615  -0.00086434382  19.842448      18.305185      1.537263      -2.0614667      12870.825    
    513000   1.0418719      0.0023323615  -0.0027700025   20.471648      18.924468      1.5471798     -1.7191586      12824.068    
    514000   0.9398669      0.0023323615   0.0026765437   19.964394      18.568691      1.3957023     -2.0080395      12827.031    
    515000   0.92298764     0.0023323615   0.00084025541  19.996067      18.62543       1.3706366     -1.8870112      13112.591    
    516000   0.93035815     0.0023323615   0.0010882273   20.199392      18.81781       1.3815818     -1.7956137      13044.835    
    517000   0.89549991     0.0023323615  -0.001492544    20.060835      18.731017      1.3298174     -1.8252867      12863.515    
    518000   1.0237502      0.0023323615   0.0020682968   20.019594      18.499325      1.520269      -1.9876397      13011.722    
    519000   0.82528572     0.0023323615  -0.0007323236   20.004715      18.779165      1.2255493     -1.7681623      12947.778    
    520000   1.1015016      0.0023323615   0.0028231811   20.223587      18.587857      1.6357299     -1.8944202      12741.773    
    521000   0.96761278     0.0023323615   0.0021615415   19.837163      18.400258      1.436905      -2.0848276      12942.555    
    522000   0.8510182      0.0023323615   0.0083008946   19.737823      18.474061      1.263762      -2.0976281      12856.814    
    523000   0.90205443     0.0023323615   0.0013196738   20.043977      18.704426      1.3395508     -1.7525563      13138.278    
    524000   1.2134395      0.0023323615  -0.0016758115   20.579522      18.777564      1.8019577     -1.8583761      12704.497    
    525000   0.95925065     0.0023323615   0.002974505    20.077866      18.653379      1.4244872     -1.7451829      12765.183    
    526000   1.0346067      0.0023323615   0.00021915414  20.133451      18.59706       1.536391      -1.9081822      12785.898    
    527000   1.0475425      0.0023323615  -0.00037499977  20.218536      18.662936      1.5556005     -1.7114518      12727.29     
    528000   0.9451287      0.0023323615  -0.0019833985   20.099672      18.696156      1.4035161     -1.7305467      12799.059    
    529000   0.90565095     0.0023323615   0.0013689549   19.951178      18.606286      1.3448917     -1.8503773      12871.346    
    530000   1.1596449      0.0023323615  -0.0006714803   20.071448      18.349375      1.7220727     -2.2284619      12904.263    
    531000   0.93003938     0.0023323615   0.00086987338  19.389649      18.00854       1.3811085     -2.375697       12801.334    
    532000   0.90623384     0.0023323615   0.0030442813   20.044133      18.698375      1.3457572     -1.84138        12996.183    
    533000   1.0800668      0.0023323615  -0.0046498454   20.443732      18.839833      1.6038992     -1.8721779      13144.742    
    534000   1.0123999      0.0023323615   0.0016408928   20.030275      18.526861      1.5034139     -2.0270039      13114.927    
    535000   0.92496432     0.0023323615  -0.0015877427   19.954187      18.580615      1.373572      -1.9522924      13223.662    
    536000   1.0948838      0.0023323615  -0.00058555842  20.127895      18.501993      1.6259024     -2.0946165      13548.382    
    537000   0.96896236     0.0023323615  -0.0009485575   20.172119      18.73321       1.4389091     -1.8954174      13283.277    
    538000   1.050371       0.0023323615   0.0051549412   20.124133      18.564332      1.5598009     -2.0314203      13308.092    
    539000   1.0136556      0.0023323615   0.0010981403   20.419463      18.914185      1.5052786     -1.7346403      13287.714    
    540000   1.003253       0.0023323615  -0.0024269664   20.082895      18.593064      1.4898308     -1.9154011      13201.869    
    541000   1.071396       0.0023323615   0.00047174379  20.069263      18.47824       1.5910231     -2.1125649      13093.168    
    542000   1.0741016      0.0023323615  -0.00097770421  20.342638      18.747597      1.5950409     -1.8457274      13192.79     
    543000   0.99112196     0.0023323615  -0.0011430546   20.082716      18.610899      1.4718161     -1.9350932      13198.456    
    544000   0.93467575     0.0023323615   0.0030235459   19.944638      18.556645      1.3879935     -2.012805       13051.831    
    545000   0.91047637     0.0023323615  -0.0028388185   19.753135      18.401078      1.3520574     -2.1068315      12932.257    
    546000   1.0967221      0.0023323615   0.0026943977   20.054986      18.426354      1.6286324     -2.1416104      13106.623    
    547000   0.96060305     0.0023323615  -0.00205664     20.128177      18.701682      1.4264955     -1.7342787      13046.022    
    548000   0.99056135     0.0023323615   0.00019661609  19.746073      18.275089      1.4709836     -2.1856956      12869.556    
    549000   0.90832832     0.0023323615  -0.0027287376   19.732896      18.384028      1.3488676     -2.177732       12948.293    
    550000   1.0650588      0.0023323615  -0.0002197758   20.354215      18.772603      1.5816123     -1.8412513      12890.389    
    551000   0.96120917     0.0023323615  -0.00030964638  19.839764      18.412369      1.4273956     -2.0617462      12826.345    
    552000   1.1763757      0.0023323615  -0.001830265    20.13869       18.391772      1.7469179     -2.140023       12951.37     
    553000   0.97070496     0.0023323615   0.00095998845  19.863391      18.421894      1.4414969     -1.9432992      12900.804    
    554000   0.89109583     0.0023323615  -0.00055221537  19.766485      18.443208      1.3232773     -1.974399       13173.819    
    555000   1.0731648      0.0023323615  -0.0014166141   20.236801      18.643151      1.5936497     -1.7940808      13262.416    
    556000   0.92080078     0.0023323615   0.004190452    19.789049      18.42166       1.3673892     -1.9521501      13246.631    
    557000   1.0313103      0.0023323615  -0.0030796382   19.958217      18.426721      1.5314959     -2.0654526      13228.282    
    558000   0.98542622     0.0023323615   0.00041568293  20.050237      18.586879      1.4633579     -2.0186864      13146.437    
    559000   0.9947672      0.0023323615   0.000390532    20.399638      18.922409      1.4772293     -1.6053491      13142.45     
    560000   0.99800689     0.0023323615   0.00012379046  20.080548      18.598507      1.4820402     -2.0786824      12890.638    
    561000   0.84112013     0.0023323615   0.004269638    19.870295      18.621232      1.2490634     -1.9740834      12795.365    
    562000   0.94707528     0.0023323615  -0.00072365327  20.285582      18.879175      1.4064068     -1.7972741      12771.003    
    563000   0.93597872     0.0023323615  -0.00019612041  19.705826      18.315897      1.3899284     -2.2577863      12904.519    
    564000   0.94257082     0.0023323615  -0.00032021621  19.758174      18.358456      1.3997177     -2.1500831      12846.075    
    565000   0.83349406     0.0023323615  -0.00034564473  19.857046      18.619307      1.2377387     -1.9155371      12906.777    
    566000   0.97854536     0.0023323615   0.0037171635   19.818574      18.365435      1.4531399     -1.9993482      12904.705    
    567000   0.93865965     0.0023323615   0.0003831151   20.081621      18.687712      1.3939096     -1.8240746      13008.002    
    568000   0.94924292     0.0023323615   0.0041657503   19.970009      18.560384      1.4096257     -1.8774852      13031.442    
    569000   0.96914123     0.0023323615   0.0016654567   19.911023      18.471849      1.4391747     -2.0553835      13179.928    
    570000   0.97030024     0.0023323615   0.00013754291  19.860586      18.41969       1.4408959     -2.1358447      13273.244    
    571000   1.0484378      0.0023323615  -0.0050776878   20.251982      18.695052      1.5569301     -1.9055963      13221.175    
    572000   0.9922259      0.0023323615  -0.0011894309   20.032762      18.559306      1.4734555     -1.9835503      13286.792    
    573000   0.84425912     0.0023323615  -6.0259696e-06  19.473356      18.219632      1.2537248     -2.2564297      13220.634    
    574000   1.0831605      0.0023323615  -0.00092283406  19.91718       18.308686      1.6084934     -2.0596827      13200.535    
    575000   1.0019049      0.0023323615  -0.0060483476   20.225427      18.737598      1.4878288     -1.8329555      13415.756    
    576000   0.91088433     0.0023323615  -0.0028360143   19.965431      18.612768      1.3526632     -1.9076158      13203.425    
    577000   0.82329615     0.0023323615  -0.0046388955   19.816509      18.593914      1.2225948     -1.8603346      13205.431    
    578000   1.0826165      0.0023323615  -0.0032125055   20.362359      18.754674      1.6076855     -1.9332837      13148.362    
    579000   0.96542152     0.0023323615  -0.00057532607  20.037355      18.603704      1.433651      -1.8504209      13017.55     
    580000   0.99785091     0.0023323615  -0.0015055174   20.368099      18.88629       1.4818086     -1.7726524      13048.154    
    581000   0.94475689     0.0023323615  -0.0052778896   20.377539      18.974575      1.402964      -1.6432668      12991.631    
    582000   1.0259618      0.0023323615   0.00162682     20.186311      18.662758      1.5235533     -1.8332766      13021.648    
    583000   0.99403684     0.0023323615  -0.001802699    19.902263      18.426119      1.4761447     -2.0468016      12798.138    
    584000   1.1685747      0.0023323615   0.0031296345   20.364676      18.629342      1.7353334     -1.9079436      12752.657    
    585000   1.0612332      0.0023323615   0.00035315597  20.099213      18.523282      1.5759313     -2.0446145      12758.567    
    586000   0.90873169     0.0023323615   0.0040492185   20.016762      18.667295      1.3494666     -1.8571848      12958.61     
    587000   1.0489834      0.0023323615   0.00035587213  20.195459      18.637719      1.5577404     -1.7843232      12912.69     
    588000   1.017959       0.0023323615   0.0023522188   19.938098      18.426429      1.5116691     -2.0759431      12769.088    
    589000   0.85359378     0.0023323615  -0.001908308    19.798819      18.531232      1.2675868     -1.9855777      12763.969    
    590000   1.1416647      0.0023323615  -0.0022228766   20.278984      18.583612      1.695372      -2.0028433      12807.578    
    591000   0.89525771     0.0023323615   0.0065857616   20.225286      18.895828      1.3294577     -1.6963807      13182.623    
    592000   0.97579039     0.0023323615   0.0026058042   19.815951      18.366902      1.4490487     -2.1400137      13192.989    
    593000   1.0504587      0.0023323615  -0.004704604    20.037101      18.47717       1.5599311     -2.0372229      13203.619    
    594000   1.0599152      0.0023323615   0.0036594536   20.011311      18.437337      1.573974      -1.9748475      12903.086    
    595000   1.06845        0.0023323615  -0.0022203833   20.023184      18.436536      1.5866482     -2.0955686      13605.826    
    596000   0.992933       0.0023323615   0.0046963421   20.233369      18.758863      1.4745055     -1.8734714      13865.421    
    597000   0.89212745     0.0023323615  -0.00060688466  19.752096      18.427287      1.3248093     -2.0515753      13363.725    
    598000   1.0562653      0.0023323615   0.0012102793   20.299504      18.73095       1.568554      -1.7727916      13479.208    
    599000   1.0841063      0.0023323615   0.001891097    20.464437      18.854539      1.6098979     -1.7703543      13239.403    
    600000   1.1207454      0.0023323615   0.00038868247  19.99587       18.331563      1.6643069     -2.1203911      13141.717    
    601000   0.89201387     0.0023323615  -0.00083326994  19.792629      18.467988      1.3246406     -2.1117798      13570.396    
    602000   0.8480384      0.0023323615  -0.00058285908  19.650004      18.390667      1.259337      -2.1596072      13514.757    
    603000   0.99676715     0.0023323615   0.00078439156  19.848368      18.368169      1.4801992     -2.1666939      13074.999    
    604000   1.052105       0.0023323615  -0.0018062504   19.96796       18.405584      1.5623759     -2.1362626      13220.497    
    605000   0.94048599     0.0023323615   0.0022836548   20.10264       18.706018      1.3966217     -1.8392779      13291.56     
    606000   1.0706666      0.0023323615   0.0031442719   20.159318      18.569378      1.5899399     -2.111031       13153.091    
    607000   1.0191097      0.0023323615   0.0019468038   19.993137      18.479759      1.5133779     -2.0283087      12885.677    
    608000   1.0536714      0.0023323615  -0.0022265592   19.942712      18.37801       1.564702      -2.092409       12915.269    
    609000   0.93970254     0.0023323615   0.0042833711   19.874407      18.478949      1.3954583     -1.9998882      13088.793    
    610000   1.0703556      0.0023323615  -0.00030093156  20.098722      18.509244      1.5894781     -1.9300288      13134.345    
    611000   0.97252159     0.0023323615  -0.002806378    19.738982      18.294787      1.4441946     -2.1473218      13614.99     
    612000   0.94727749     0.0023323615  -0.0012628708   19.988609      18.581902      1.4067071     -1.9644812      13114.023    
    613000   1.0178325      0.0023323615  -0.001400104    19.994017      18.482536      1.5114813     -2.0871307      13622.034    
    614000   0.85132339     0.0023323615   0.0013155969   20.10065       18.836434      1.2642152     -1.8662446      13109.672    
    615000   0.91856563     0.0023323615   0.002211208    20.30229       18.93822       1.36407       -1.6699775      13338.143    
    616000   0.91526134     0.0023323615   0.00058940882  20.007091      18.647928      1.3591631     -1.8002658      13017.113    
    617000   1.0686033      0.0023323615  -0.0024258512   20.231909      18.645033      1.5868759     -1.7736939      13384.5      
    618000   1.0061044      0.0023323615  -0.0013815082   19.817994      18.323929      1.4940651     -2.142706       13128.417    
    619000   0.92375755     0.0023323615  -0.0011456372   19.765148      18.393368      1.37178       -2.1771628      13015.772    
    620000   0.91052882     0.0023323615   0.0011453629   19.85908       18.506945      1.3521353     -2.0686424      13257.655    
    621000   1.0348895      0.0023323615  -0.0038865995   20.216899      18.680088      1.5368109     -1.9466873      13370.92     
    622000   0.89235118     0.0023323615  -0.0027140902   19.670917      18.345775      1.3251415     -2.186289       13166.216    
    623000   1.1286808      0.0023323615   0.0047932531   20.177819      18.501728      1.676091      -1.9875006      13339.214    
    624000   0.95580302     0.0023323615  -0.00058951087  20.001664      18.582297      1.4193675     -1.8621379      13290.203    
    625000   0.91272137     0.0023323615  -0.00051650146  19.631293      18.275902      1.3553912     -2.2366633      13286.603    
    626000   0.95230649     0.0023323615   0.0025032269   19.903035      18.48886       1.4141751     -2.1268949      13343.535    
    627000   1.0169418      0.0023323615   0.0011039612   20.160025      18.649867      1.5101586     -1.9407345      13166.776    
    628000   0.98237468     0.0023323615  -0.0019762987   19.765651      18.306824      1.4588264     -2.1242529      13358.018    
    629000   0.90438629     0.0023323615  -0.0010886882   19.725499      18.382486      1.3430136     -2.120472       13112.343    
    630000   1.0845968      0.0023323615  -0.0023028983   19.984484      18.373858      1.6106263     -2.0899369      13328.368    
    631000   1.1499906      0.0023323615   0.00080745576  20.468075      18.760339      1.7077361     -1.742661       14119.671    
    632000   1.0257032      0.0023323615   0.00046956239  20.178538      18.655369      1.5231692     -1.9472397      13568.608    
    633000   1.0696167      0.0023323615   0.0017524575   20.255602      18.667221      1.5883807     -1.8125952      13255.16     
    634000   0.78275415     0.0023323615  -0.00059036293  19.522431      18.360041      1.1623899     -2.0994848      13165.1      
    635000   0.94188438     0.0023323615   0.00054032936  20.007519      18.60882       1.3986983     -2.0748058      12155.094    
    636000   1.0193146      0.0023323615  -0.00025109453  19.965604      18.451921      1.5136822     -2.0624716      13132.922    
    637000   0.96689207     0.0023323615   0.0067908245   19.90522       18.469385      1.4358347     -1.9815662      13035.596    
    638000   0.98753573     0.0023323615  -0.00015331104  19.851828      18.385337      1.4664906     -2.1324397      12925.782    
    639000   1.0889588      0.0023323615  -0.0024839143   19.969191      18.352088      1.6171039     -2.288494       12927.542    
    640000   1.0041882      0.0023323615   0.0010963105   19.971334      18.480114      1.4912195     -1.9778334      12988.557    
    641000   1.0260739      0.0023323615   0.0063327795   20.072231      18.548511      1.5237197     -1.9272737      12997.906    
    642000   1.0341413      0.0023323615  -0.0036242362   20.257124      18.721424      1.5356998     -1.8206468      13073.064    
    643000   0.95715726     0.0023323615   0.0010682788   19.92483       18.503452      1.4213785     -1.9454486      13065.753    
    644000   1.1168354      0.0023323615  -0.00063393559  20.486045      18.827545      1.6585006     -1.7403901      13069.013    
    645000   1.0152417      0.0023323615  -0.0040157317   20.40802       18.900386      1.5076339     -1.8012043      13254.623    
    646000   1.0134666      0.0023323615  -0.0046713927   20.174913      18.669915      1.5049979     -1.9063005      13054.907    
    647000   1.0462998      0.0023323615   0.00063884349  20.260704      18.706948      1.5537553     -1.9882574      13020.348    
    648000   1.061759       0.0023323615   0.0034261785   19.981098      18.404386      1.5767121     -2.0723869      13181.659    
    649000   1.1442309      0.0023323615   0.00087899868  20.142721      18.443538      1.6991829     -1.9527694      13110.753    
    650000   0.89388597     0.0023323615   0.0024777726   19.826089      18.498668      1.3274207     -1.9949714      13064.077    
    651000   0.98467617     0.0023323615  -0.00010066935  19.817397      18.355153      1.4622441     -2.1441292      13093.621    
    652000   1.0697563      0.0023323615  -0.0027720753   20.455203      18.866615      1.5885881     -1.8113246      13156.04     
    653000   1.2025678      0.0023323615  -0.002150727    20.358877      18.573064      1.7858131     -1.9334987      13063.212    
    654000   0.96185138     0.0023323615   0.0038173371   19.993374      18.565025      1.4283493     -1.9793803      13324.585    
    655000   0.92329693     0.0023323615  -0.0016101717   19.92856       18.557464      1.3710959     -1.9975628      13229.375    
    656000   1.0136903      0.0023323615   0.0062094927   20.113775      18.608445      1.5053301     -1.9488416      12929.528    
    657000   0.98104767     0.0023323615   0.00030261924  20.038316      18.58146       1.4568558     -1.9438235      13011.968    
    658000   1.0763444      0.0023323615   0.0024935761   20.328413      18.730042      1.5983715     -1.8292172      12936.098    
    659000   0.9660243      0.0023323615   0.0027227277   19.996703      18.562157      1.4345461     -1.9691879      12556.062    
    660000   0.97647036     0.0023323615   0.0039025475   20.04188       18.591822      1.4500585     -1.925773       12669.858    
    661000   1.0277265      0.0023323615   0.0023082256   19.905273      18.379099      1.5261738     -2.1805032      12605.759    
    662000   0.98241798     0.0023323615  -0.0011299504   20.02294       18.56405       1.4588907     -1.9463755      12677.601    
    663000   1.0299658      0.0023323615   0.0016480887   20.276947      18.747448      1.5294992     -1.6927932      12833.516    
    664000   1.0275979      0.0023323615   0.0054748587   20.220091      18.694108      1.5259829     -1.8058414      13034.675    
    665000   0.84143573     0.0023323615  -0.00088298676  19.773625      18.524093      1.2495321     -2.0812962      12825.74     
    666000   1.0091872      0.0023323615   0.00097478285  20.099485      18.600842      1.498643      -1.9216163      12816.521    
    667000   0.89711081     0.0023323615   0.0010094935   19.702757      18.370547      1.3322096     -2.0915192      12589.855    
    668000   0.83878173     0.0023323615  -0.00035495236  19.83986       18.594269      1.2455909     -1.8566099      12666.988    
    669000   0.94956263     0.0023323615  -0.0046815173   19.966931      18.55683       1.4101005     -2.0725533      12765.461    
    670000   1.0044049      0.0023323615  -1.8231383e-06  20.016485      18.524944      1.4915412     -1.9917262      12660.868    
    671000   0.97130083     0.0023323615  -5.1746156e-05  19.821144      18.378762      1.4423817     -2.1518497      12583.075    
    672000   1.0051936      0.0023323615  -0.0067215448   19.954969      18.462257      1.4927125     -2.0947851      12896.693    
    673000   1.0568124      0.0023323615   0.00042835574  20.001078      18.431711      1.5693664     -1.9979509      12526.625    
    674000   0.92464208     0.0023323615  -0.00018798975  20.074198      18.701105      1.3730935     -1.8010444      12483.019    
    675000   0.97016016     0.0023323615  -0.001157199    19.891717      18.451029      1.4406878     -2.1591972      11910.421    
    676000   1.019015       0.0023323615  -0.00042835885  20.375637      18.8624        1.5132373     -1.7256324      13078.196    
    677000   1.0782624      0.0023323615   0.0034337595   20.144036      18.542816      1.6012197     -1.9357021      13143.818    
    678000   1.0076851      0.0023323615   0.00034919265  19.804396      18.307984      1.4964124     -2.0533039      13309.026    
    679000   1.0964556      0.0023323615  -0.0050438908   20.247688      18.619451      1.6282365     -2.010225       12772.379    
    680000   1.0404141      0.0023323615   0.00039890592  20.276523      18.731509      1.5450149     -1.8190945      12781.589    
    681000   1.0142715      0.0023323615  -0.00012584049  19.955928      18.449735      1.5061931     -2.0405133      13165.951    
    682000   0.93273137     0.0023323615  -0.00097402026  19.918123      18.533017      1.3851061     -1.8521745      13035.86     
    683000   0.94109558     0.0023323615   0.0048980491   19.866044      18.468517      1.3975269     -2.014162       13220.385    
    684000   0.96084997     0.0023323615  -0.0028497099   19.94075       18.513888      1.4268622     -2.0088857      12880.733    
    685000   1.0302942      0.0023323615   0.0013438853   20.140037      18.61005       1.5299868     -1.9437671      12818.881    
    686000   0.86357231     0.0023323615   0.001774999    19.676983      18.394578      1.2824049     -2.1363087      11911.325    
    687000   1.0309585      0.0023323615  -0.0007572555   20.194428      18.663455      1.5309733     -1.9412501      12728.877    
    688000   0.9909554      0.0023323615  -1.3047563e-05  20.164665      18.693097      1.4715688     -1.8298756      13433.673    
    689000   1.1052004      0.0023323615  -0.00015259583  20.200051      18.558828      1.6412226     -1.9330127      13115.786    
    690000   1.0326903      0.0023323615   0.0015347338   20.465522      18.931977      1.533545      -1.6907068      13077.569    
    691000   1.0615001      0.0023323615  -0.0021691974   20.068374      18.492047      1.5763276     -2.0276134      13148.863    
    692000   0.97101026     0.0023323615   0.0035028478   19.955714      18.513764      1.4419502     -2.0415351      13073.002    
    693000   1.1038135      0.0023323615   0.0026149365   20.022611      18.383448      1.639163      -2.1313438      13136.249    
    694000   0.97828615     0.0023323615  -0.0013862604   19.893515      18.44076       1.4527549     -2.1336511      13145.985    
    695000   0.99029294     0.0023323615   0.00043725357  19.904313      18.433728      1.470585      -2.0411848      13168.059    
    696000   0.97018314     0.0023323615  -0.0002982136   19.944866      18.504144      1.440722      -2.0043893      13377.464    
    697000   0.86586151     0.0023323615  -0.0035726867   19.70259       18.416786      1.2858043     -1.963558       13167.377    
    698000   0.95275        0.0023323615  -0.0047040352   20.121543      18.70671       1.4148337     -1.8555348      13423.359    
    699000   0.92013343     0.0023323615  -0.0018630484   19.930093      18.563695      1.3663981     -1.9697787      13066.106    
    700000   1.0226015      0.0023323615   0.00092522278  19.91748       18.398917      1.5185632     -2.0762098      13111.076    
    701000   1.1047289      0.0023323615   0.001172692    20.082008      18.441486      1.6405225     -1.9986895      13053.29     
    702000   1.2869009      0.0023323615  -0.00018525885  20.314791      18.403743      1.9110479     -2.0726647      13029.593    
    703000   0.97788652     0.0023323615   0.0052098369   20.277271      18.82511       1.4521615     -1.7190593      12965.072    
    704000   0.86380427     0.0023323615  -0.0016060903   20.087514      18.804765      1.2827493     -1.6576528      12930.937    
    705000   0.92988505     0.0023323615  -0.003701241    20.119105      18.738226      1.3808793     -1.7960872      13102.482    
    706000   0.83050398     0.0023323615   0.0026853026   19.680725      18.447427      1.2332984     -2.0320721      13312.591    
    707000   0.93976905     0.0023323615   0.00096955205  19.955518      18.559961      1.395557      -1.9021566      13098.632    
    708000   1.1090321      0.0023323615   0.0024627121   20.153016      18.506104      1.6469127     -1.9478108      12843.862    
    709000   1.0612976      0.0023323615   0.0010758037   19.933065      18.357038      1.5760269     -2.079701       12992.788    
    710000   0.91571191     0.0023323615  -0.0010816827   19.884196      18.524364      1.3598322     -1.9898175      12888.001    
    711000   0.89406269     0.0023323615   0.0024464518   19.938134      18.610451      1.3276831     -1.8237231      12971.537    
    712000   1.0006558      0.0023323615   0.0046232968   20.015137      18.529163      1.4859739     -1.9516479      12964.048    
    713000   0.91427957     0.0023323615  -0.0028988565   19.783188      18.425483      1.3577052     -1.9513379      12899.979    
    714000   1.0292126      0.0023323615   2.0672852e-05  20.182479      18.654099      1.5283806     -1.9732523      13001.886    
    715000   0.99137272     0.0023323615   0.0032602353   20.25295       18.780761      1.4721885     -1.8667217      13100.895    
    716000   1.0161159      0.0023323615  -0.00018517647  19.961978      18.453045      1.5089322     -1.9932017      12924.077    
    717000   1.1989934      0.0023323615   0.006107345    20.4831        18.702595      1.7805052     -1.8821978      12716.065    
    718000   1.0147131      0.0023323615   0.0023747413   20.045369      18.53852       1.5068489     -1.9464606      13062.827    
    719000   1.0856765      0.0023323615  -0.00023429105  20.210211      18.597982      1.6122296     -1.8254271      12968.088    
    720000   1.104626       0.0023323615  -0.0032132004   20.448337      18.807968      1.6403696     -1.8635877      13126.192    
    721000   1.0663925      0.0023323615   0.0016501409   20.154689      18.571096      1.5835928     -1.8117503      13139.409    
    722000   1.0266335      0.0023323615  -0.0038365278   20.182675      18.658124      1.5245508     -1.8755938      13231.389    
    723000   1.0774195      0.0023323615  -0.00065702221  20.075297      18.475329      1.5999679     -2.1563859      13144.197    
    724000   0.97093674     0.0023323615   0.0015891791   20.183574      18.741733      1.4418411     -1.7936731      13042.66     
    725000   0.97233671     0.0023323615   0.0046794529   20.089371      18.645451      1.44392       -1.8251209      13095.925    
    726000   1.0230171      0.0023323615  -0.0012466218   20.074641      18.555461      1.5191804     -1.9431349      13224.07     
    727000   0.93352316     0.0023323615  -0.00098274697  20.202877      18.816595      1.3862819     -1.7763134      13202.76     
    728000   0.95441636     0.0023323615  -0.0039295113   20.172695      18.755387      1.4173083     -1.7020696      12878.275    
    729000   1.0010449      0.0023323615   0.0015520508   20.308552      18.822         1.4865516     -1.6747721      12856.581    
    730000   1.1316353      0.0023323615  -0.00048439917  20.349578      18.6691        1.6804785     -1.8928235      12945.12     
    731000   0.92855585     0.0023323615  -0.0037713778   19.726897      18.347992      1.3789054     -2.1138731      12948.495    
    732000   0.97171493     0.0023323615   0.002088646    19.881117      18.43812       1.4429967     -2.2711766      12983.333    
    733000   0.883645       0.0023323615  -0.0015573229   19.781495      18.469282      1.3122128     -1.9720166      12932.295    
    734000   0.94643066     0.0023323615   0.0022296276   19.905525      18.500075      1.4054495     -2.0554274      12586.026    
    735000   0.95072581     0.0023323615   0.0021759457   19.732342      18.320515      1.4118278     -2.0969232      12877.273    
    736000   1.0301455      0.0023323615   0.0014953847   20.15675       18.626984      1.529766      -1.947224       12731.021    
    737000   0.88947014     0.0023323615   0.00084846226  20.182724      18.861861      1.3208632     -1.6740877      12700.995    
    738000   0.93671584     0.0023323615   0.0013998      19.701861      18.310838      1.391023      -2.109467       13006.39     
    739000   1.1023387      0.0023323615   0.0042185447   20.288348      18.651375      1.636973      -1.8909449      12849.995    
    740000   0.95261221     0.0023323615  -0.00071786769  20.006844      18.592214      1.4146291     -2.0043502      12745.113    
    741000   1.0780325      0.0023323615  -0.001685434    20.121962      18.521084      1.6008783     -1.9020899      12821.435    
    742000   0.90661139     0.0023323615  -0.0057412984   20.039709      18.693392      1.3463179     -2.02585        12762.443    
    743000   0.94964219     0.0023323615  -0.0031445295   20.032934      18.622716      1.4102187     -1.9004033      12971.558    
    744000   0.95887776     0.0023323615  -0.0019230445   20.067457      18.643524      1.4239335     -1.7854457      13064.158    
    745000   1.0020231      0.0023323615   0.00068590833  20.082211      18.594207      1.4880043     -1.9626924      12767.837    
    746000   1.0225549      0.0023323615   0.0011495865   20.121104      18.60261       1.5184941     -1.9614975      13064.033    
    747000   0.86304932     0.0023323615   0.0023069301   19.994158      18.71253       1.2816282     -1.6907272      12856.079    
    748000   0.80394985     0.0023323615  -0.0035408785   19.691155      18.497289      1.1938655     -2.0133691      13102.355    
    749000   0.96456213     0.0023323615   0.0021091266   20.221597      18.789222      1.4323748     -1.7612366      12758.099    
    750000   1.0626706      0.0023323615  -0.0023553174   20.1699        18.591834      1.5780658     -1.8922881      12687.332    
    751000   0.97980756     0.0023323615   0.0026544208   20.170001      18.714987      1.4550142     -1.7368368      12961.771    
    752000   0.86211596     0.0023323615  -0.0048877513   19.99971       18.719468      1.2802422     -1.9600304      12716.65     
    753000   0.91116123     0.0023323615  -0.00060883529  20.033289      18.680215      1.3530744     -1.8218345      12647.36     
    754000   0.97561267     0.0023323615  -0.0037580621   20.079186      18.630401      1.4487848     -1.9158174      12644.739    
    755000   0.97840482     0.0023323615   0.004090229    20.290805      18.837873      1.4529312     -1.6447855      12890.314    
    756000   0.98087        0.0023323615   0.001308055    20.135517      18.678925      1.4565919     -1.8952326      13016.611    
    757000   1.0183362      0.0023323615  -0.00055992792  19.998446      18.486217      1.5122293     -1.9875226      13097.566    
    758000   0.99781922     0.0023323615  -0.002068844    20.296163      18.814401      1.4817615     -1.7576545      12614.94     
    759000   1.160462       0.0023323615   0.00063154495  20.401735      18.678449      1.7232861     -1.7885938      12244.834    
    760000   1.0822904      0.0023323615   0.00021096934  20.315378      18.708176      1.6072013     -1.7535925      13034.619    
    761000   0.91564378     0.0023323615  -0.00049235248  19.876108      18.516377      1.359731      -1.9315915      13166.977    
    762000   0.89500299     0.0023323615   0.0029172826   19.835693      18.506613      1.3290794     -2.0297711      12869.129    
    763000   0.9948319      0.0023323615  -0.0034274162   20.093371      18.616045      1.4773254     -1.8814086      12813.694    
    764000   0.96975455     0.0023323615   0.00037553819  20.131         18.690915      1.4400855     -1.7863757      12660.137    
    765000   1.1038704      0.0023323615   0.0012883847   20.190995      18.551747      1.6392476     -1.904246       12736.864    
    766000   1.0199177      0.0023323615   0.0047884699   19.980607      18.466029      1.5145778     -2.1164048      12574.808    
    767000   0.967196       0.0023323615   0.0020249709   19.968631      18.532345      1.4362861     -1.9655712      12601.928    
    768000   1.0250521      0.0023323615   0.00071726628  20.21795       18.695747      1.5222024     -1.8462082      12662.272    
    769000   1.0162439      0.0023323615   0.0016031578   20.063537      18.554415      1.5091222     -1.9180943      12677.338    
    770000   0.98019679     0.0023323615   0.0012747818   20.264854      18.809262      1.4555922     -1.7594774      12655.455    
    771000   1.1031854      0.0023323615  -0.0010256413   20.197938      18.559708      1.6382303     -1.9482411      12680.537    
    772000   0.97294771     0.0023323615  -0.00078336801  19.898808      18.453981      1.4448273     -1.8716588      12599.573    
    773000   1.0701168      0.0023323615   0.00085297385  20.189356      18.600232      1.5891234     -1.8826246      12745.455    
    774000   0.91624708     0.0023323615   2.7142512e-05  20.104674      18.744047      1.3606269     -1.7414971      12661.764    
    775000   0.960929       0.0023323615   0.00090699383  20.032002      18.605023      1.4269796     -1.9806976      12683.911    
    776000   0.96452193     0.0023323615  -0.00057141575  20.053276      18.620961      1.4323151     -1.879021       12777.608    
    777000   0.9006534      0.0023323615  -0.0050904417   20.011887      18.674417      1.3374703     -1.8809866      12796.299    
    778000   1.0084105      0.0023323615  -0.00022759854  20.160484      18.662994      1.4974896     -1.9704771      12959.938    
    779000   1.0541255      0.0023323615  -0.00037437044  19.698473      18.133096      1.5653764     -2.2705033      12738.043    
    780000   0.98236201     0.0023323615   0.0024546331   20.109573      18.650765      1.4588076     -1.864382       12715.409    
    781000   0.94402446     0.0023323615  -0.00025569466  20.029011      18.627135      1.4018763     -1.9240989      12762.9      
    782000   1.076006       0.0023323615  -0.0014735025   20.26057       18.662701      1.5978688     -1.9176594      12821.102    
    783000   1.2015544      0.0023323615  -0.0025389654   20.616033      18.831725      1.7843083     -1.7964937      12796.176    
    784000   1.0891858      0.0023323615  -0.005266382    20.407177      18.789736      1.6174409     -1.8265001      12718.793    
    785000   0.88539873     0.0023323615  -0.0025951105   19.908136      18.593319      1.3148171     -2.0117496      12628.48     
    786000   0.91742772     0.0023323615   0.00063229993  19.736911      18.374531      1.3623802     -2.1080955      12862.736    
    787000   1.0109244      0.0023323615   0.0038668196   19.899999      18.398776      1.5012228     -2.1212768      12857.051    
    788000   0.96599627     0.0023323615  -0.00065401556  20.016027      18.581522      1.4345045     -1.8623682      12673.148    
    789000   0.90490807     0.0023323615   0.0028220451   19.979267      18.635478      1.3437885     -1.9195171      12869.469    
    790000   0.94577688     0.0023323615   0.001312635    19.85343       18.448952      1.4044787     -2.0295446      12790.46     
    791000   0.96435933     0.0023323615   0.0009749156   19.858522      18.426448      1.4320736     -2.0519276      12756.132    
    792000   0.96427939     0.0023323615   0.0017290749   20.007409      18.575454      1.4319549     -1.8565729      12518.081    
    793000   1.0168227      0.0023323615  -0.0010409156   20.296794      18.786812      1.5099816     -1.885545       12901.306    
    794000   1.0061621      0.0023323615  -0.00028380076  19.988967      18.494817      1.4941507     -1.8715395      13045.778    
    795000   1.1639741      0.0023323615   0.0011446358   20.150567      18.422065      1.7285016     -2.16863        12836.067    
    796000   1.0102572      0.0023323615   0.0013258806   20.077505      18.577273      1.500232      -2.0450905      12836.714    
    797000   0.94453923     0.0023323615  -0.0043704241   19.837143      18.434503      1.4026408     -1.9345822      12775.117    
    798000   0.9471141      0.0023323615   0.00047825077  20.039052      18.632587      1.4064644     -1.8799047      12845.918    
    799000   0.84382451     0.0023323615   0.0017039068   20.015484      18.762405      1.2530794     -1.7584346      13005.186    
    800000   1.0947044      0.0023323615  -0.005590872    20.348081      18.722445      1.625636      -1.8707299      12836.835    
    801000   1.1053846      0.0023323615   0.00056284316  20.356239      18.714742      1.6414961     -1.8122715      12960.64     
    802000   0.91244533     0.0023323615  -0.0024553027   20.00909       18.654109      1.3549813     -1.8767159      13066.792    
    803000   1.0083895      0.0023323615  -0.0014604487   20.079557      18.582099      1.4974584     -2.0321258      12947.67     
    804000   1.0608677      0.0023323615   0.0045464637   20.2434        18.668012      1.5753885     -1.858884       12862.081    
    805000   1.0069877      0.0023323615  -0.0010275633   19.859002      18.363625      1.4953767     -2.0465163      12990.819    
    806000   1.0885676      0.0023323615   0.00072218162  20.291031      18.674508      1.6165228     -1.8498994      12923.009    
    807000   0.91727574     0.0023323615   0.0036760137   20.079064      18.71691       1.3621545     -1.8573515      13071.795    
    808000   1.0827382      0.0023323615   0.00059576626  20.186051      18.578185      1.6078663     -1.9866587      13027.741    
    809000   0.94323655     0.0023323615  -0.0025796679   20.15546       18.754753      1.4007063     -1.7231349      12827.881    
    810000   1.0548941      0.0023323615   7.5742414e-05  20.277983      18.711465      1.5665177     -1.7694461      12798.342    
    811000   0.92448061     0.0023323615   0.0026950532   20.119038      18.746184      1.3728537     -1.7811136      12785.928    
    812000   0.95454684     0.0023323615   0.0021070139   20.266887      18.849385      1.4175021     -1.608927       12969.285    
    813000   0.92269998     0.0023323615   0.00068344682  19.982184      18.611974      1.3702095     -1.7949402      12734.352    
    814000   0.90448355     0.0023323615  -0.0060235301   19.804344      18.461186      1.3431581     -2.067453       12713.157    
    815000   0.91723944     0.0023323615  -0.0044189206   19.901454      18.539354      1.3621006     -1.9082283      12642.261    
    816000   0.93987108     0.0023323615   0.00196192     20.008162      18.612453      1.3957086     -1.818597       12715.315    
    817000   1.186982       0.0023323615   0.00067947708  20.674244      18.911576      1.7626682     -1.7368985      12867.663    
    818000   0.89087917     0.0023323615  -0.0018122047   19.723805      18.40085       1.3229556     -2.1243007      12848.957    
    819000   0.94909861     0.0023323615  -0.0032112994   20.299526      18.890115      1.4094114     -1.7162838      12573.255    
    820000   0.94474042     0.0023323615   0.00012121757  19.532493      18.129554      1.4029395     -2.268397       12853.998    
    821000   0.87780456     0.0023323615  -0.0038933856   20.089217      18.785677      1.3035398     -1.7785829      12588.347    
    822000   1.1425258      0.0023323615  -0.00012024589  20.665793      18.969142      1.6966509     -1.7049505      12812.887    
    823000   1.1260071      0.0023323615   0.0023772503   20.136813      18.464692      1.6721206     -1.9568519      12599.747    
    824000   0.97388866     0.0023323615  -0.00079472144  20.028228      18.582003      1.4462247     -1.916992       12899.715    
    825000   0.99231811     0.0023323615  -0.0010707931   20.096107      18.622515      1.4735924     -1.9111242      12850.034    
    826000   1.0303542      0.0023323615   0.0025869596   19.968674      18.438598      1.5300761     -2.062501       13011.987    
    827000   0.97369154     0.0023323615   0.0013922465   19.915346      18.469414      1.4459319     -2.1603498      13126.851    
    828000   0.85108683     0.0023323615  -0.001857151    19.610679      18.346815      1.2638639     -2.1129327      13068.104    
    829000   0.90164096     0.0023323615   0.00030061552  19.707742      18.368805      1.3389368     -2.1690539      13071.933    
    830000   0.9722095      0.0023323615  -0.000558725    19.933847      18.490116      1.4437311     -2.0668264      12815.599    
    831000   1.0341267      0.0023323615   0.0030770103   19.896593      18.360915      1.5356781     -2.1243716      13116.397    
    832000   0.87745915     0.0023323615  -0.0032927398   19.917301      18.614275      1.3030268     -1.955372       12783.985    
    833000   0.90027398     0.0023323615   0.0040259981   19.863025      18.526118      1.3369069     -1.9808401      12900.508    
    834000   1.1396363      0.0023323615  -0.0001880756   20.178677      18.486317      1.6923599     -1.9847972      13092.112    
    835000   1.1533786      0.0023323615  -0.0023505104   20.233969      18.521202      1.7127672     -1.9904303      12980.858    
    836000   0.99537975     0.0023323615  -0.0021346379   19.899469      18.42133       1.4781389     -1.9548548      12970.169    
    837000   1.1595017      0.0023323615   0.0014422767   20.210306      18.488446      1.72186       -2.0622535      12708.408    
    838000   1.0547657      0.0023323615   0.0048884973   20.213785      18.647458      1.5663271     -1.8890548      13010.103    
    839000   0.99433945     0.0023323615  -0.00097204894  20.121065      18.644471      1.4765941     -1.7518796      13069.009    
    840000   1.0130135      0.0023323615   0.0013430485   20.207543      18.703218      1.504325      -1.7740198      13049.457    
    841000   1.0077693      0.0023323615   0.0013873314   20.238203      18.741666      1.4965374     -1.6768562      12988.963    
    842000   1.0993495      0.0023323615   0.00087349662  20.245125      18.612591      1.6325341     -2.0189371      13052.141    
    843000   0.89647869     0.0023323615  -0.0022933422   19.748917      18.417646      1.3312709     -2.148002       12811.604    
    844000   0.96936231     0.0023323615   0.0013902841   20.06975       18.630247      1.439503      -1.8370424      12778.669    
    845000   0.87623774     0.0023323615   0.00032447602  20.179772      18.878559      1.301213      -1.786676       12844.171    
    846000   1.1408896      0.0023323615  -0.0027973371   20.324425      18.630204      1.694221      -1.774637       12907.733    
    847000   1.1234799      0.0023323615   0.0014214748   20.404655      18.736287      1.6683676     -1.9096753      13042.807    
    848000   1.1746832      0.0023323615   0.0019235777   20.154059      18.409655      1.7444045     -2.0791329      12928.041    
    849000   1.0654553      0.0023323615   0.0016582886   19.988294      18.406092      1.5822011     -2.0814949      12834.324    
    850000   0.89025984     0.0023323615  -0.00086258014  19.747536      18.4255        1.3220359     -2.1341783      12992.299    
    851000   1.0601379      0.0023323615  -0.00019792084  19.851056      18.276751      1.5743048     -2.2146387      13035.438    
    852000   0.99461822     0.0023323615  -0.00029675305  19.84147       18.364462      1.4770081     -2.1639092      12926.197    
    853000   0.9697254      0.0023323615   0.00032388742  19.948312      18.50827       1.4400422     -2.0469186      12948.774    
    854000   0.9679031      0.0023323615   0.0043149952   19.775262      18.337926      1.4373361     -2.1463429      12982.901    
    855000   0.87981913     0.0023323615  -0.00040336154  19.895779      18.589247      1.3065314     -1.9946228      13049.2      
    856000   0.91991611     0.0023323615  -0.00056439652  19.840016      18.473941      1.3660754     -2.0810197      12803.567    
    857000   0.88761311     0.0023323615   0.0023586526   19.700835      18.382729      1.3181055     -2.1254263      13042.106    
    858000   0.90401671     0.0023323615   0.00059799427  19.884396      18.541932      1.3424648     -2.0420115      12910.065    
    859000   0.82645955     0.0023323615   0.0018515058   19.776342      18.54905       1.2272924     -1.8696425      12829.936    
    860000   0.9773801      0.0023323615  -0.00077788403  20.263049      18.81164       1.4514095     -1.7025221      12873.277    
    861000   1.1336191      0.0023323615   0.00029244667  20.15297       18.469546      1.6834243     -1.9967517      12777.74     
    862000   0.9930841      0.0023323615  -0.0054865622   19.807026      18.332296      1.4747299     -2.066358       12645.804    
    863000   0.96491489     0.0023323615  -0.00078418574  20.082609      18.64971       1.4328986     -1.8718034      12777.717    
    864000   1.0750307      0.0023323615   0.00099753916  20.140101      18.54368       1.5964206     -1.9815631      12683.042    
    865000   1.0133295      0.0023323615  -0.001723361    20.165464      18.66067       1.5047943     -1.8347151      12632.239    
    866000   1.0530491      0.0023323615  -0.0016305816   19.880671      18.316893      1.5637779     -2.155934       12708.471    
    867000   0.8613977      0.0023323615   0.0015275517   19.940332      18.661156      1.2791756     -1.9919708      12923.342    
    868000   1.0480059      0.0023323615  -5.7171011e-05  20.108769      18.552481      1.5562888     -1.9370075      12657.957    
    869000   1.1917548      0.0023323615  -0.0012978238   20.369425      18.599669      1.7697559     -1.9727121      12669.297    
    870000   1.1013717      0.0023323615   0.0018074401   20.310071      18.674534      1.6355369     -1.7702558      12776.613    
    871000   1.0678651      0.0023323615  -0.0019634259   20.470935      18.885155      1.5857797     -1.6825099      12786.742    
    872000   1.0169358      0.0023323615   0.0060308505   20.332655      18.822506      1.5101497     -1.6921878      12745.935    
    873000   0.96277862     0.0023323615  -0.0022090567   19.987061      18.557335      1.4297263     -1.9087028      12717.829    
    874000   1.0574059      0.0023323615   0.0014324648   20.160533      18.590285      1.5702477     -1.9765731      12766.605    
    875000   0.94431737     0.0023323615  -0.003200039    20.167465      18.765153      1.4023113     -1.8597958      12327.939    
    876000   0.95472098     0.0023323615   0.0024107067   19.920465      18.502704      1.4177606     -1.9267488      12739.234    
    877000   1.0141365      0.0023323615   0.0032389468   19.936726      18.430734      1.5059928     -2.0974823      12725.875    
    878000   1.0354059      0.0023323615   0.0013195492   20.312188      18.774611      1.5375777     -1.6892448      12722.774    
    879000   0.86054423     0.0023323615  -0.0014586262   19.959086      18.681177      1.2779082     -1.82161        13188.758    
    880000   1.038103       0.0023323615   0.00086527287  20.077048      18.535465      1.541583      -1.9534421      13052.565    
    881000   1.0681432      0.0023323615   0.0018500429   20.187303      18.60111       1.5861927     -1.8458723      12611.002    
    882000   0.94828271     0.0023323615   0.00060537584  20.06407       18.65587       1.4081998     -1.7298493      12620.03     
    883000   1.2116722      0.0023323615  -0.00043075747  20.042626      18.243292      1.7993333     -2.1869832      12589.309    
    884000   1.0985472      0.0023323615  -0.00060908438  20.256757      18.625415      1.6313425     -1.8599703      12673.365    
    885000   1.0802863      0.0023323615   0.0032252883   19.976175      18.37195       1.6042251     -2.0753967      12808.132    
    886000   1.2413643      0.0023323615   0.00042281225  20.259776      18.416351      1.843426      -2.111578       12889.186    
    887000   1.1046684      0.0023323615   0.0011947245   20.101924      18.461492      1.6404325     -1.9725193      12930.292    
    888000   0.86381819     0.0023323615  -0.0026866637   19.890013      18.607243      1.28277       -1.8764742      13207.877    
    889000   1.2372425      0.0023323615   0.0036458135   20.295866      18.458561      1.8373052     -2.0202507      13153.115    
    890000   1.0473743      0.0023323615   0.0031566227   19.952339      18.396988      1.5553508     -2.0390374      13167.366    
    891000   1.056839       0.0023323615   0.00085453446  20.270043      18.700637      1.5694059     -1.8718607      13199.233    
    892000   0.90603916     0.0023323615  -0.0021840851   19.650626      18.305157      1.3454682     -2.15003        13367.623    
    893000   1.143494       0.0023323615  -0.0033653247   20.244807      18.546719      1.6980886     -2.0648529      13170.643    
    894000   0.91518512     0.0023323615  -0.0037570792   19.894648      18.535598      1.3590499     -2.039193       13105.584    
    895000   0.98278987     0.0023323615   0.0033246926   20.105532      18.646089      1.459443      -1.7614717      13229.08     
    896000   1.0923116      0.0023323615   0.0011820283   20.006064      18.383982      1.6220827     -2.0493473      13142.455    
    897000   0.98790526     0.0023323615   0.0042960872   20.023099      18.55606       1.4670393     -1.9727555      13041.5      
    898000   1.1093284      0.0023323615   0.007860287    20.068232      18.420879      1.6473526     -2.0830702      12597.398    
    899000   1.0049593      0.0023323615  -0.0033548859   19.964184      18.47182       1.4923645     -1.9855048      12634.729    
    900000   1.0083636      0.0023323615   0.0016259176   20.162937      18.665517      1.49742       -1.9423462      12888.489    
    901000   0.90593955     0.0023323615  -0.0044316538   19.832449      18.487129      1.3453202     -2.0855433      13038.137    
    902000   1.0615274      0.0023323615  -0.0019548075   20.376655      18.800287      1.5763682     -1.7854118      13157.292    
    903000   1.0196003      0.0023323615  -0.0020751775   20.361556      18.84745       1.5141065     -1.7547613      13327.202    
    904000   1.1405241      0.0023323615   0.0029017823   20.165672      18.471993      1.6936783     -2.1464425      12921.37     
    905000   1.0425052      0.0023323615   0.0016555796   20.094655      18.546535      1.5481203     -2.058071       12767.461    
    906000   1.0113466      0.0023323615  -0.00090503307  19.901546      18.399696      1.5018497     -2.0129735      12741.861    
    907000   0.884326       0.0023323615  -0.00021042481  19.780289      18.467065      1.3132241     -1.9573069      12945.165    
    908000   0.96809141     0.0023323615   0.0029143191   20.202111      18.764495      1.4376157     -1.8120349      12649.619    
    909000   1.2359195      0.0023323615  -0.0018820659   20.321161      18.48582       1.8353404     -1.990064       13026.658    
    910000   1.0604935      0.0023323615   0.0024587612   20.349529      18.774696      1.5748328     -1.8416773      13030.021    
    911000   0.80752766     0.0023323615   0.008264151    19.642581      18.443402      1.1991786     -2.0206812      12929.503    
    912000   0.92895705     0.0023323615  -0.0018693277   19.963098      18.583597      1.3795012     -1.8290509      12960.762    
    913000   1.0957475      0.0023323615   0.0026173067   20.073576      18.446391      1.6271851     -1.9589546      13252.126    
    914000   1.0807824      0.0023323615   0.00048242152  20.239761      18.634799      1.6049619     -1.8919419      13025.084    
    915000   0.95375249     0.0023323615  -0.0021741875   19.840448      18.424126      1.4163224     -2.0501889      12783.887    
    916000   1.0448815      0.0023323615   0.0044040045   19.929086      18.377437      1.551649      -2.075251       12645.417    
    917000   0.99214032     0.0023323615  -0.0005694237   20.286688      18.81336       1.4733284     -1.8820355      13069.067    
    918000   0.93259029     0.0023323615  -0.0025380514   20.00236       18.617463      1.3848966     -1.9614159      12882.54     
    919000   1.1162617      0.0023323615   0.0012151921   20.180173      18.522524      1.6576486     -2.0415664      12827.436    
    920000   1.1703091      0.0023323615   0.0032942504   20.355267      18.617358      1.7379091     -1.9792448      12976.733    
    921000   0.98311574     0.0023323615  -0.0025499837   20.008922      18.548995      1.4599269     -1.9791058      12934.747    
    922000   0.96149745     0.0023323615  -0.00029356187  19.947342      18.519518      1.4278237     -2.0274696      12650.05     
    923000   1.3419047      0.0023323615  -0.00024960794  20.827798      18.83507       1.9927285     -1.7551762      12819.332    
    924000   1.0429848      0.0023323615  -0.001878356    20.243332      18.694499      1.5488325     -1.7750351      12684.707    
    925000   1.0170634      0.0023323615  -0.001049523    20.11607       18.605731      1.5103391     -1.8118048      12780.517    
    926000   0.98669295     0.0023323615  -0.0018680325   20.512319      19.04708       1.465239      -1.5974409      12792.527    
    927000   1.0293786      0.0023323615  -1.8719604e-05  20.161764      18.633137      1.5286272     -2.0283098      12757.197    
    928000   1.111478       0.0023323615  -0.0020784791   20.108742      18.458197      1.6505448     -2.077689       12974.036    
    929000   1.0815158      0.0023323615   0.0034611388   19.955688      18.349638      1.6060509     -2.0513216      13215.958    
    930000   1.0182054      0.0023323615   0.00013871627  20.106954      18.594919      1.512035      -2.1849741      13076.851    
    931000   0.92870274     0.0023323615   0.0032405822   19.694092      18.314969      1.3791236     -2.1206999      13158.026    
    932000   0.96562633     0.0023323615   0.00057176348  19.743835      18.30988       1.4339551     -2.2302968      13102.138    
    933000   1.0418235      0.0023323615  -0.0024507939   20.198844      18.651736      1.5471079     -1.9085011      13122.452    
    934000   0.98002342     0.0023323615  -0.00042628101  20.001333      18.545998      1.4553348     -2.0527531      13062.404    
    935000   0.96831106     0.0023323615   0.0033223642   20.272951      18.835009      1.4379419     -1.7747484      13122.97     
    936000   0.91241252     0.0023323615  -0.0019422199   20.099223      18.744291      1.3549326     -1.8273191      13252.062    
    937000   1.0906036      0.0023323615  -0.0011472643   20.36967       18.750124      1.6195463     -1.9036977      12937.16     
    938000   1.0478543      0.0023323615   0.00012592643  20.074562      18.518498      1.5560637     -1.9794411      13148.536    
    939000   1.0129137      0.0023323615   0.0012480675   20.051584      18.547407      1.5041768     -1.9250006      13119.394    
    940000   1.0654646      0.0023323615   0.00055144588  19.925917      18.343702      1.5822149     -2.0186266      13186.038    
    941000   0.93775311     0.0023323615  -0.0031202919   20.28964       18.897076      1.3925634     -1.8067497      13272.793    
    942000   1.0869723      0.0023323615   0.0024840511   20.158004      18.54385       1.6141539     -1.9548112      13256.22     
    943000   1.0918428      0.0023323615   0.0028066101   20.196662      18.575275      1.6213865     -1.8497835      13420.05     
    944000   0.85172278     0.0023323615  -0.0014024918   19.557674      18.292866      1.2648083     -2.2459297      13374.209    
    945000   1.1498417      0.0023323615  -0.0057093665   20.147462      18.439947      1.7075149     -2.1653932      13357.781    
    946000   0.8957268      0.0023323615  -0.0032304958   19.794362      18.464208      1.3301543     -2.0989049      13151.762    
    947000   1.0160267      0.0023323615   0.0023170648   19.9807        18.4719        1.5087996     -1.9339777      13256.176    
    948000   0.90364042     0.0023323615  -0.00069847631  19.999949      18.658043      1.341906      -1.9809317      12892.434    
    949000   1.1100548      0.0023323615  -0.0023770002   20.541609      18.893177      1.6484314     -1.5887817      13121.222    
    950000   1.1063694      0.0023323615  -0.00018166944  20.291329      18.648371      1.6429586     -1.8134275      12894.086    
    951000   1.165512       0.0023323615   0.0020713213   20.119818      18.389033      1.7307853     -2.1291453      12989.893    
    952000   0.94888635     0.0023323615   0.0036877265   20.339739      18.930642      1.4090962     -1.6810274      13264.107    
    953000   0.92227815     0.0023323615  -0.0036668711   20.267613      18.89803       1.3695831     -1.6356832      13168.812    
    954000   0.96587193     0.0023323615  -0.0013643275   19.960605      18.526285      1.4343198     -1.9525603      13191.58     
    955000   0.97092938     0.0023323615   0.00020706054  20.286061      18.844231      1.4418301     -1.7342993      13169.625    
    956000   1.1252324      0.0023323615   0.00037393386  20.267328      18.596358      1.6709701     -2.0507082      12844.037    
    957000   0.90704268     0.0023323615   0.0038581636   19.451234      18.104276      1.3469584     -2.4087441      13126.364    
    958000   1.0446473      0.0023323615  -0.0041304149   19.906804      18.355503      1.5513013     -2.1104361      13355.689    
    959000   1.1625461      0.0023323615   0.0035130113   20.201032      18.474651      1.726381      -1.9714431      13046.243    
    960000   1.1636947      0.0023323615  -0.0016768171   20.40792       18.679833      1.7280866     -1.8643962      12932.168    
    961000   0.99438535     0.0023323615   0.0011996806   19.906066      18.429404      1.4766622     -1.9805711      13010.943    
    962000   1.012754       0.0023323615  -0.0012707127   20.201884      18.697944      1.5039397     -1.9493122      13126.39     
    963000   1.0361417      0.0023323615  -0.0037301575   20.14955       18.61088       1.5386704     -1.9709784      13119.527    
    964000   0.92022521     0.0023323615   0.00053604371  19.785644      18.41911       1.3665344     -2.0033651      13002.438    
    965000   0.89659777     0.0023323615   0.00044229832  19.846324      18.514876      1.3314477     -2.0397828      12974.235    
    966000   1.0035732      0.0023323615   0.0040964056   19.938552      18.448246      1.4903062     -2.2550282      13013.011    
    967000   1.0075316      0.0023323615   0.0014026991   19.696463      18.200279      1.4961844     -2.2161589      13062.939    
    968000   0.96006618     0.0023323615  -0.0014133775   19.846489      18.420791      1.4256983     -2.0516295      13018.502    
    969000   0.93706774     0.0023323615  -0.0026124678   19.772156      18.380611      1.3915456     -2.1250367      12971.74     
    970000   0.92930805     0.0023323615   0.0044548291   20.086966      18.706943      1.3800225     -1.8030923      13023.664    
    971000   0.89649469     0.0023323615  -0.00081635875  19.821307      18.490013      1.3312946     -1.9267444      12985.009    
    972000   0.94755581     0.0023323615  -0.0023295172   20.012352      18.605232      1.4071204     -1.8925445      12662.672    
    973000   1.0182644      0.0023323615  -8.939404e-05   20.065706      18.553584      1.5121226     -1.9381966      12745.281    
    974000   1.0765882      0.0023323615   0.003523443    20.057656      18.458922      1.5987335     -1.9700905      12851.864    
    975000   1.0441912      0.0023323615  -0.0017808021   19.996296      18.445673      1.5506239     -2.0024048      12643.225    
    976000   1.0991357      0.0023323615   0.0023943389   20.156441      18.524225      1.6322165     -1.9324096      12613.324    
    977000   0.94084908     0.0023323615   0.0036054962   19.663575      18.266414      1.3971609     -2.1753085      12859.225    
    978000   0.9810078      0.0023323615   0.0077094013   20.127863      18.671066      1.4567966     -1.9966555      12751.191    
    979000   0.9583109      0.0023323615  -0.00029738645  19.985495      18.562403      1.4230917     -1.9295801      12739.155    
    980000   1.0452833      0.0023323615   0.00014789482  20.032079      18.479834      1.5522458     -2.1155353      12709.4      
    981000   1.0333463      0.0023323615  -0.00083249353  19.937515      18.402996      1.5345192     -2.2388161      12768.694    
    982000   1.1237627      0.0023323615   0.0022487384   20.212606      18.543818      1.6687875     -2.025426       12919.11     
    983000   0.96131057     0.0023323615   0.00078771424  20.224565      18.797019      1.4275462     -1.886159       12855.251    
    984000   0.95958911     0.0023323615   0.0028593894   19.679218      18.254228      1.4249898     -2.2827094      12742.969    
    985000   1.0178039      0.0023323615   0.00014179266  20.280993      18.769554      1.5114388     -1.718232       12646.788    
    986000   0.8820378      0.0023323615   0.001511855    20.072368      18.762542      1.3098261     -1.8335652      12577.934    
    987000   1.0176437      0.0023323615  -9.8567931e-05  20.251939      18.740738      1.5112009     -1.7434155      12703.108    
    988000   1.0343596      0.0023323615   0.00020738657  20.487255      18.951231      1.536024      -1.6320251      12661.731    
    989000   0.97477128     0.0023323615  -0.0033143068   20.152781      18.705246      1.4475354     -1.8628646      12637.014    
    990000   0.97422571     0.0023323615  -0.0016196322   20.126129      18.679403      1.4467252     -1.927347       12617.063    
    991000   1.0226144      0.0023323615   0.0061785467   20.179426      18.660843      1.5185824     -1.9577518      12484.919    
    992000   0.97997913     0.0023323615   0.0058396018   20.199698      18.744429      1.455269      -1.7113566      12655.25     
    993000   1.1685939      0.0023323615   0.00029825913  20.316781      18.581419      1.7353619     -1.8959503      12611.748    
    994000   1.0515339      0.0023323615  -0.0011407454   20.172101      18.610573      1.5615279     -1.9720487      12597.268    
    995000   1.1009087      0.0023323615   0.001632184    20.310161      18.675312      1.6348494     -1.8749264      12843.639    
    996000   0.9353312      0.0023323615  -0.0031719554   20.209225      18.820258      1.3889668     -1.7855893      12927.727    
    997000   1.1927706      0.0023323615  -0.0015177122   20.340979      18.569714      1.7712644     -1.9495413      12643.831    
    998000   0.98115467     0.0023323615   0.0015134302   20.392892      18.935878      1.4570147     -1.6378044      12672.394    
    999000   0.94520647     0.0023323615   0.0017824481   20.057039      18.653408      1.4036316     -1.8640004      12623.2      
   1000000   1.0789874      0.0023323615   0.0034419644   20.239539      18.637243      1.6022963     -1.8897108      12860.197    
Loop time of 75.6622 on 1 procs for 1000000 steps with 100 atoms

Performance: 5709588.088 tau/day, 13216.639 timesteps/s
98.1% CPU use with 1 MPI tasks x 1 OpenMP threads

MPI task timing breakdown:
Section |  min time  |  avg time  |  max time  |%varavg| %total
---------------------------------------------------------------
Pair    | 61.868     | 61.868     | 61.868     |   0.0 | 81.77
Bond    | 1.503      | 1.503      | 1.503      |   0.0 |  1.99
Neigh   | 5.2645     | 5.2645     | 5.2645     |   0.0 |  6.96
Comm    | 3.1892     | 3.1892     | 3.1892     |   0.0 |  4.22
Output  | 0.29699    | 0.29699    | 0.29699    |   0.0 |  0.39
Modify  | 3.1025     | 3.1025     | 3.1025     |   0.0 |  4.10
Other   |            | 0.438      |            |       |  0.58

Nlocal:            100 ave         100 max         100 min
Histogram: 1 0 0 0 0 0 0 0 0 0
Nghost:            342 ave         342 max         342 min
Histogram: 1 0 0 0 0 0 0 0 0 0
Neighs:           4851 ave        4851 max        4851 min
Histogram: 1 0 0 0 0 0 0 0 0 0

Total # of neighbors = 4851
Ave neighs/atom = 48.51
Ave special neighs/atom = 1.98
Neighbor list builds = 97738
Dangerous builds = 78793

write_data      ${outputfile_assembled} nofix nocoeff
write_data      7_assembled.data nofix nocoeff
System init for write_data ...
Generated 0 of 6 mixed pair_coeff terms from geometric mixing rule

Total wall time: 0:01:17
