LAMMPS (23 Jun 2022 - Update 1)
OMP_NUM_THREADS environment is not set. Defaulting to 1 thread. (src/comm.cpp:98)
  using 1 OpenMP thread(s) per MPI task


variable		outputfile_created string '1_a_created.data'
variable		outputfile_relaxed string '2_relaxed.data'
variable		outputfile_selfasb string '3_a_self_assemble.lammpstrj'
variable		outputfile_trajlin string '3_b_trajlin.data'
variable		outputfile_assembled string '4_assembled.data'

units           lj
atom_style      full
dimension       3
boundary        p p p
timestep        0.005

read_data       ${outputfile_created}
read_data       1_a_created.data
Reading data file ...
  orthogonal box = (0 0 0) to (35 35 35)
  1 by 1 by 1 MPI processor grid
  reading atoms ...
  20 atoms
  reading velocities ...
  20 velocities
  scanning bonds ...
  1 = max bonds/atom
  reading bonds ...
  19 bonds
Finding 1-2 1-3 1-4 neighbors ...
  special bond factors lj:    0        0        0       
  special bond factors coul:  0        0        0       
     2 = max # of 1-2 neighbors
     2 = max # of 1-3 neighbors
     4 = max # of 1-4 neighbors
     6 = max # of special neighbors
  special bonds CPU = 0.000 seconds
  read_data CPU = 0.007 seconds

bond_style      fene
bond_coeff      * 30.0 1.5 1.0 1.0
special_bonds   fene
Finding 1-2 1-3 1-4 neighbors ...
  special bond factors lj:    0        1        1       
  special bond factors coul:  0        1        1       
     2 = max # of 1-2 neighbors
     6 = max # of special neighbors
  special bonds CPU = 0.000 seconds

variable        runtime equal 1000000
variable        Temp equal 1.0
variable        velSeed equal 926458

velocity        all create ${Temp} ${velSeed}
velocity        all create 1 ${velSeed}
velocity        all create 1 926458

### Output
thermo_style    custom step temp density press etotal pe ke epair spcpu
thermo          1000

###########################################################################
# Soft relaxation (to remove overlaps of particles)
######################################################################

pair_style      soft 1.0
pair_coeff      * * 0.0
variable        prefactor equal ramp(0,300)
fix             rampSoft all adapt 1 pair soft a * * v_prefactor

minimize        0.0 1.0e-8 1000 100000
WARNING: Using 'neigh_modify every 1 delay 0 check yes' setting during minimization (src/min.cpp:187)
Generated 0 of 6 mixed pair_coeff terms from geometric mixing rule
Neighbor list info ...
  update every 1 steps, delay 0 steps, check yes
  max neighbors/atom: 2000, page size: 100000
  master list distance cutoff = 1.3
  ghost atom cutoff = 1.3
  binsize = 0.65, bins = 54 54 54
  1 neighbor lists, perpetual/occasional/extra = 1 0 0
  (1) pair soft, perpetual
      attributes: half, newton on
      pair build: half/bin/newton
      stencil: half/bin/3d
      bin: standard
WARNING: Communication cutoff 1.3 is shorter than a bond length based estimate of 1.7550000000000001. This may lead to errors. (src/comm.cpp:727)
Per MPI rank memory allocation (min/avg/max) = 8.344 | 8.344 | 8.344 Mbytes
   Step          Temp         Density         Press          TotEng         PotEng         KinEng         E_pair         S/CPU     
         0   1              0.0004664723  -0.00076034465  20.654511      19.229511      1.425          0              0            
        78   1              0.0004664723   0.00044314869  20.617445      19.192445      1.425          0              153200.72    
Loop time of 0.000523052 on 1 procs for 78 steps with 20 atoms

32.3% CPU use with 1 MPI tasks x 1 OpenMP threads

Minimization stats:
  Stopping criterion = force tolerance
  Energy initial, next-to-last, final = 
      19.2295105075496   19.1924451241383   19.1924451241383
  Force two-norm initial, final = 11.878422 5.2971227e-09
  Force max component initial, final = 6.6117807 1.7379241e-09
  Final line search alpha, max atom move = 1 1.7379241e-09
  Iterations, force evaluations = 78 156

MPI task timing breakdown:
Section |  min time  |  avg time  |  max time  |%varavg| %total
---------------------------------------------------------------
Pair    | 2.0271e-05 | 2.0271e-05 | 2.0271e-05 |   0.0 |  3.88
Bond    | 0.0001355  | 0.0001355  | 0.0001355  |   0.0 | 25.91
Neigh   | 0.00023564 | 0.00023564 | 0.00023564 |   0.0 | 45.05
Comm    | 2.8401e-05 | 2.8401e-05 | 2.8401e-05 |   0.0 |  5.43
Output  | 0          | 0          | 0          |   0.0 |  0.00
Modify  | 0          | 0          | 0          |   0.0 |  0.00
Other   |            | 0.0001032  |            |       | 19.74

Nlocal:             20 ave          20 max          20 min
Histogram: 1 0 0 0 0 0 0 0 0 0
Nghost:              7 ave           7 max           7 min
Histogram: 1 0 0 0 0 0 0 0 0 0
Neighs:              0 ave           0 max           0 min
Histogram: 1 0 0 0 0 0 0 0 0 0

Total # of neighbors = 0
Ave neighs/atom = 0
Ave special neighs/atom = 1.9
Neighbor list builds = 3
Dangerous builds = 0

fix             nvtSoft all nvt temp ${Temp} ${Temp} 0.5
fix             nvtSoft all nvt temp 1 ${Temp} 0.5
fix             nvtSoft all nvt temp 1 1 0.5
run             100000
Generated 0 of 6 mixed pair_coeff terms from geometric mixing rule
WARNING: Communication cutoff 1.3 is shorter than a bond length based estimate of 1.7550000000000001. This may lead to errors. (src/comm.cpp:727)
Per MPI rank memory allocation (min/avg/max) = 7.219 | 7.219 | 7.219 Mbytes
   Step          Temp         Density         Press          TotEng         PotEng         KinEng         E_pair         S/CPU     
        78   1              0.0004664723   0.00044314869  20.617445      19.192445      1.425          0              0            
      1000   0.77543841     0.0004664723  -0.0012026657   20.958329      19.85333       1.1049997      0.073319147    113954.63    
      2000   0.85298763     0.0004664723   0.001030718    20.788584      19.573076      1.2155074      0              109330.63    
      3000   0.79706676     0.0004664723   0.00082096535  20.784683      19.648863      1.1358201      0              113819.86    
      4000   0.84842105     0.0004664723  -0.00063266649  20.965738      19.756738      1.209          0.030498084    108551.79    
      5000   1.0290601      0.0004664723  -0.0016786282   21.144627      19.678216      1.4664106      0              114357.28    
      6000   1.0609617      0.0004664723   0.00078446302  21.058958      19.547087      1.5118704      0              113755.91    
      7000   0.78954233     0.0004664723  -0.00028673212  20.692306      19.567208      1.1250978      0              110281.28    
      8000   0.85199116     0.0004664723   0.0004627235   20.810547      19.596459      1.2140874      0.10063924     116716.31    
      9000   0.96553439     0.0004664723  -0.00016746495  20.939958      19.564071      1.3758865      0.016150463    110795.2     
     10000   0.7374526      0.0004664723   0.0005849825   20.777853      19.726983      1.05087        0.21727352     110935.32    
     11000   1.0577779      0.0004664723  -0.00015240197  21.108963      19.60163       1.5073335      0              110239.63    
     12000   0.96925683     0.0004664723  -0.00050725377  20.835576      19.454385      1.381191       0              110322.12    
     13000   0.74928169     0.0004664723   0.00029026622  20.529949      19.462223      1.0677264      0.0042495188   106778.51    
     14000   1.0451674      0.0004664723  -0.00073613156  21.049746      19.560383      1.4893635      0.0010294124   117071.97    
     15000   0.84523661     0.0004664723  -0.00067050564  21.070571      19.866109      1.2044622      0              110691.23    
     16000   1.1810068      0.0004664723   0.0014905715   21.209045      19.52611       1.6829347      0.001559852    115976.77    
     17000   1.0015869      0.0004664723   0.0023193532   20.91297       19.485708      1.4272614      0.0035225107   108228.35    
     18000   1.0475824      0.0004664723   0.0007440731   21.051059      19.558254      1.4928049      0.046646448    112820.86    
     19000   0.96630112     0.0004664723   0.00068177431  21.126394      19.749415      1.3769791      0              111903.57    
     20000   0.99391656     0.0004664723  -0.00088261215  21.330679      19.914348      1.4163311      0              112132.39    
     21000   1.2101008      0.0004664723   0.0012673593   21.434368      19.709974      1.7243936      0              114361.99    
     22000   0.80467142     0.0004664723  -0.00041195634  21.258694      20.112037      1.1466568      0.0014192015   114055.66    
     23000   0.93563411     0.0004664723  -0.0010856979   21.022903      19.689625      1.3332786      0.030521705    118384.3     
     24000   1.0697245      0.0004664723   0.00035802301  21.366434      19.842077      1.5243573      0.051893832    111762.24    
     25000   1.2648431      0.0004664723  -0.00037658282  21.499699      19.697297      1.8024015      0.026125049    107063.02    
     26000   1.0691046      0.0004664723   0.0007487213   21.255751      19.732277      1.5234741      0.075889953    111788.52    
     27000   1.2554807      0.0004664723  -0.00083096077  21.408457      19.619396      1.78906        0.0083043633   106155.28    
     28000   1.2976375      0.0004664723   0.00091643005  21.288833      19.439699      1.8491335      0              112613.01    
     29000   1.0787299      0.0004664723  -0.00030141663  21.253216      19.716026      1.5371901      0.01138894     114702.23    
     30000   0.86288887     0.0004664723  -0.00077497865  21.230867      20.001251      1.2296166      0              117296.08    
     31000   0.99532322     0.0004664723  -0.00064521795  21.083375      19.665039      1.4183356      0.021613812    113012.37    
     32000   0.99305835     0.0004664723  -0.0011316286   21.188187      19.773079      1.4151081      0.055204936    114541.79    
     33000   0.86825815     0.0004664723   0.0014310876   20.778529      19.541262      1.2372679      0              110367       
     34000   0.52711646     0.0004664723   0.00025956945  20.485554      19.734413      0.75114096     0.1007458      108870.05    
     35000   0.90441378     0.0004664723   0.000184781    20.915884      19.627095      1.2887896      0              116630.4     
     36000   0.77316531     0.0004664723   0.00028213561  21.038121      19.93636       1.1017606      0.00087040701  111374.64    
     37000   1.093566       0.0004664723   0.00028584024  21.250496      19.692164      1.5583316      0              111646.11    
     38000   1.1492257      0.0004664723   0.0012260192   21.385457      19.74781       1.6376466      0.005645322    121998.58    
     39000   1.2662845      0.0004664723  -0.00056177276  21.52052       19.716064      1.8044554      0.043957733    115323.4     
     40000   1.0091303      0.0004664723   0.00098364794  21.176886      19.738875      1.4380107      0              126219.41    
     41000   1.2783109      0.0004664723  -0.00025492352  21.329279      19.507686      1.821593       0              116459.05    
     42000   1.1490338      0.0004664723   0.0010130984   21.359957      19.722584      1.6373732      0.0012015503   110673.68    
     43000   0.93433812     0.0004664723   0.00092296684  21.09973       19.768298      1.3314318      0              117163.92    
     44000   0.81467625     0.0004664723   7.6027033e-05  21.041177      19.880263      1.1609137      0.00098359013  113161.75    
     45000   0.92883205     0.0004664723  -0.0013807686   20.969765      19.646179      1.3235857      0              116047.16    
     46000   1.2795144      0.0004664723  -0.0024173471   21.719668      19.89636       1.8233081      0              114267.2     
     47000   1.098349       0.0004664723   0.00084691902  21.282031      19.716883      1.5651473      0.0092641495   116947.42    
     48000   0.96535824     0.0004664723   0.00047871159  21.20834       19.832705      1.3756355      0.0029159117   116715.49    
     49000   1.1384331      0.0004664723   0.0020524295   21.46055       19.838283      1.6222671      0              121833.89    
     50000   1.4276231      0.0004664723  -2.2115705e-05  21.974475      19.940112      2.034363       0              122673.75    
     51000   1.0131019      0.0004664723  -0.0010899611   21.370795      19.927125      1.4436703      0.001322607    110506.44    
     52000   1.3289687      0.0004664723   0.0021436516   21.904984      20.011204      1.8937805      0              117857.57    
     53000   1.3473415      0.0004664723  -0.00043639966  21.370727      19.450766      1.9199616      0              111798.66    
     54000   1.1857024      0.0004664723   0.00034136929  21.513672      19.824046      1.689626       0.025034878    112197.56    
     55000   1.1065871      0.0004664723   0.00066424559  21.350047      19.77316       1.5768866      0.12703273     110873.47    
     56000   0.67825044     0.0004664723  -0.000254962    20.594784      19.628277      0.96650687     0              109754.15    
     57000   0.92534307     0.0004664723  -0.00024944871  21.209209      19.890595      1.3186139      0              112681.53    
     58000   0.89510902     0.0004664723   0.00033787409  21.024097      19.748567      1.2755303      0              116496.15    
     59000   0.78251244     0.0004664723  -0.0011312039   20.665255      19.550175      1.1150802      0              115589.3     
     60000   0.95881059     0.0004664723   0.0004992672   20.940532      19.574227      1.3663051      0              108943.85    
     61000   0.91842828     0.0004664723  -0.00041342579  21.073322      19.764562      1.3087603      0              109962.49    
     62000   1.0349417      0.0004664723   0.0015954297   20.906333      19.431541      1.4747919      0              110997.5     
     63000   0.78503592     0.0004664723  -0.00047706157  20.688632      19.569956      1.1186762      0              115520.13    
     64000   1.0037771      0.0004664723   0.0017636166   21.34272       19.912338      1.4303824      0.046979854    116585.17    
     65000   1.077815       0.0004664723   0.00035746248  21.347933      19.812046      1.5358864      0              112929.35    
     66000   0.94480607     0.0004664723  -0.0014526671   21.438132      20.091783      1.3463487      0              117130.79    
     67000   0.78003974     0.0004664723  -0.0016035376   20.782678      19.671121      1.1115566      0              114757.1     
     68000   0.65804183     0.0004664723   0.0024140376   21.178553      20.240844      0.93770961     0.020046528    112896.93    
     69000   0.88200302     0.0004664723  -0.00010160054  20.777007      19.520153      1.2568543      0              121837.3     
     70000   0.98318096     0.0004664723  -0.0013620448   21.355102      19.954069      1.4010329      0              122335.91    
     71000   1.330652       0.0004664723   0.0012782854   21.538656      19.642477      1.8961791      0              108156.11    
     72000   1.2920881      0.0004664723  -0.00036387559  21.799165      19.957939      1.8412256      0              116838.85    
     73000   1.1709316      0.0004664723  -0.00064386686  21.269571      19.600994      1.6685775      0.013323499    113772.9     
     74000   1.0579435      0.0004664723   0.00036746765  21.090066      19.582497      1.5075694      0.030973895    113134.94    
     75000   1.0928413      0.0004664723   0.00039599875  21.29193       19.734631      1.5572989      0              109788.67    
     76000   1.0119981      0.0004664723  -0.00047870938  20.988768      19.546671      1.4420972      0.0014259486   111892.04    
     77000   0.90323099     0.0004664723   0.0013181732   20.973331      19.686226      1.2871042      0              110523.56    
     78000   1.0720514      0.0004664723   0.0014537816   20.994559      19.466886      1.5276733      0              115183.53    
     79000   0.98038764     0.0004664723  -0.0018205241   21.230233      19.83318       1.3970524      0              115907.02    
     80000   1.0815309      0.0004664723  -0.00053437917  21.353303      19.812121      1.5411816      0              109850.66    
     81000   1.1211832      0.0004664723  -0.00048460611  21.452658      19.854972      1.5976861      0.01996015     118858.53    
     82000   0.90191122     0.0004664723  -0.00047009149  20.819539      19.534315      1.2852235      0              118368.55    
     83000   0.8238813      0.0004664723  -0.0010845314   20.927087      19.753056      1.1740309      0              112039.01    
     84000   0.91715275     0.0004664723  -0.00089500887  20.859913      19.55297       1.3069427      0              117934.85    
     85000   0.86729813     0.0004664723   0.0015978225   20.856535      19.620635      1.2358998      0.0023838186   112815.39    
     86000   1.2771309      0.0004664723  -7.6092283e-05  21.984906      20.164994      1.8199116      0              124287.01    
     87000   1.3574928      0.0004664723  -0.0016450466   21.607338      19.67291       1.9344272      0.0038547831   105635.55    
     88000   1.1118419      0.0004664723   0.00062880699  21.41074       19.826366      1.5843748      0              118299.54    
     89000   0.8073656      0.0004664723   0.0010324982   21.00144       19.850944      1.150496       0.062406267    116261.95    
     90000   1.002119       0.0004664723  -0.0013605964   21.193107      19.765087      1.4280195      0.0050671641   112890.8     
     91000   0.97582896     0.0004664723  -2.6546607e-06  21.00211       19.611553      1.3905563      0.0034727938   109123.82    
     92000   0.89436333     0.0004664723   0.00095530607  20.828313      19.553846      1.2744677      0              118555.98    
     93000   1.0362825      0.0004664723  -0.00016601574  21.132393      19.655691      1.4767025      0.1271156      117406.6     
     94000   0.83470722     0.0004664723  -0.0011966048   20.895336      19.705878      1.1894578      0              112959.42    
     95000   1.238593       0.0004664723  -0.00099377744  21.293723      19.528728      1.7649951      0.0016963614   116269.54    
     96000   1.1155032      0.0004664723  -0.0010372965   21.545796      19.956204      1.589592       0              116784.3     
     97000   1.0281056      0.0004664723   0.002035313    21.195214      19.730163      1.4650505      0              111794.3     
     98000   0.89466824     0.0004664723  -0.0019246683   21.039684      19.764782      1.2749022      0              113036.55    
     99000   0.84362407     0.0004664723  -0.00039593337  20.756864      19.5547        1.2021643      0              120574.33    
    100000   0.74124731     0.0004664723   0.00011262414  21.119894      20.063617      1.0562774      0              112985.49    
    100078   1.1365479      0.0004664723  -0.0017754708   21.535817      19.916237      1.6195807      0              97830.545    
Loop time of 0.87868 on 1 procs for 100000 steps with 20 atoms

Performance: 49164678.512 tau/day, 113807.126 timesteps/s
99.5% CPU use with 1 MPI tasks x 1 OpenMP threads

MPI task timing breakdown:
Section |  min time  |  avg time  |  max time  |%varavg| %total
---------------------------------------------------------------
Pair    | 0.018017   | 0.018017   | 0.018017   |   0.0 |  2.05
Bond    | 0.032699   | 0.032699   | 0.032699   |   0.0 |  3.72
Neigh   | 0.58853    | 0.58853    | 0.58853    |   0.0 | 66.98
Comm    | 0.035612   | 0.035612   | 0.035612   |   0.0 |  4.05
Output  | 0.0019094  | 0.0019094  | 0.0019094  |   0.0 |  0.22
Modify  | 0.17418    | 0.17418    | 0.17418    |   0.0 | 19.82
Other   |            | 0.02773    |            |       |  3.16

Nlocal:             20 ave          20 max          20 min
Histogram: 1 0 0 0 0 0 0 0 0 0
Nghost:              6 ave           6 max           6 min
Histogram: 1 0 0 0 0 0 0 0 0 0
Neighs:              3 ave           3 max           3 min
Histogram: 1 0 0 0 0 0 0 0 0 0

Total # of neighbors = 3
Ave neighs/atom = 0.15
Ave special neighs/atom = 1.9
Neighbor list builds = 8401
Dangerous builds = 2322
unfix           nvtSoft
unfix           rampSoft
reset_timestep  0

write_data      ${outputfile_relaxed}
write_data      2_relaxed.data
System init for write_data ...
Generated 0 of 6 mixed pair_coeff terms from geometric mixing rule
WARNING: Communication cutoff 1.3 is shorter than a bond length based estimate of 1.7550000000000001. This may lead to errors. (src/comm.cpp:727)
WARNING: Not all mixed pair coeffs generated from mixing. Use write_data with 'pair ij' option to store all pair coeffs. (src/write_data.cpp:309)

###########################################################################
# Full LJ with Coulomb
######################################################################

# Cutoffs and parameters:
# - Values: Marcel Verkade's Bachelor Thesis
# - Mapping to atom groups: Patrick Onck's paper
# - 1: aliphatic, 2: aromatic, 3: anion, 4: cation
# pair_style	lj/cut/coul/cut <lj_cut_global> <coul_cut_global>
# pair_coeff	<type_1>  <type_2>  <eps>  <sigma>  <r_cut_lj>  <r_cut_coul>

# Problem: Onck's model is much more complex, and Marcel has no sigma reported
# Using sigma=1 randomly

variable		glob_ljeps equal 1.0
variable		glob_ljsig 	equal 1.0
variable		glob_coulcut equal 10.0
variable		att_ljcut equal 2.50
variable		rep_ljcut equal 1.12

pair_style		lj/cut/coul/cut 						${att_ljcut} 	${glob_coulcut}
pair_style		lj/cut/coul/cut 						2.5 	${glob_coulcut}
pair_style		lj/cut/coul/cut 						2.5 	10
pair_coeff		1 1 	${glob_ljeps} 	${glob_ljsig}	${att_ljcut} 	${glob_coulcut}
pair_coeff		1 1 	1 	${glob_ljsig}	${att_ljcut} 	${glob_coulcut}
pair_coeff		1 1 	1 	1	${att_ljcut} 	${glob_coulcut}
pair_coeff		1 1 	1 	1	2.5 	${glob_coulcut}
pair_coeff		1 1 	1 	1	2.5 	10
pair_coeff		1 2 	${glob_ljeps} 	${glob_ljsig}	${att_ljcut} 	${glob_coulcut}
pair_coeff		1 2 	1 	${glob_ljsig}	${att_ljcut} 	${glob_coulcut}
pair_coeff		1 2 	1 	1	${att_ljcut} 	${glob_coulcut}
pair_coeff		1 2 	1 	1	2.5 	${glob_coulcut}
pair_coeff		1 2 	1 	1	2.5 	10
pair_coeff		1 3 	${glob_ljeps} 	${glob_ljsig}	${rep_ljcut} 	${glob_coulcut}
pair_coeff		1 3 	1 	${glob_ljsig}	${rep_ljcut} 	${glob_coulcut}
pair_coeff		1 3 	1 	1	${rep_ljcut} 	${glob_coulcut}
pair_coeff		1 3 	1 	1	1.12 	${glob_coulcut}
pair_coeff		1 3 	1 	1	1.12 	10
pair_coeff		1 4 	${glob_ljeps} 	${glob_ljsig}	${rep_ljcut} 	${glob_coulcut}
pair_coeff		1 4 	1 	${glob_ljsig}	${rep_ljcut} 	${glob_coulcut}
pair_coeff		1 4 	1 	1	${rep_ljcut} 	${glob_coulcut}
pair_coeff		1 4 	1 	1	1.12 	${glob_coulcut}
pair_coeff		1 4 	1 	1	1.12 	10
pair_coeff		2 2 	${glob_ljeps} 	${glob_ljsig}	${att_ljcut} 	${glob_coulcut}
pair_coeff		2 2 	1 	${glob_ljsig}	${att_ljcut} 	${glob_coulcut}
pair_coeff		2 2 	1 	1	${att_ljcut} 	${glob_coulcut}
pair_coeff		2 2 	1 	1	2.5 	${glob_coulcut}
pair_coeff		2 2 	1 	1	2.5 	10
pair_coeff		2 3 	${glob_ljeps} 	${glob_ljsig}	${rep_ljcut} 	${glob_coulcut}
pair_coeff		2 3 	1 	${glob_ljsig}	${rep_ljcut} 	${glob_coulcut}
pair_coeff		2 3 	1 	1	${rep_ljcut} 	${glob_coulcut}
pair_coeff		2 3 	1 	1	1.12 	${glob_coulcut}
pair_coeff		2 3 	1 	1	1.12 	10
pair_coeff		2 4 	${glob_ljeps} 	${glob_ljsig}	${att_ljcut} 	${glob_coulcut}
pair_coeff		2 4 	1 	${glob_ljsig}	${att_ljcut} 	${glob_coulcut}
pair_coeff		2 4 	1 	1	${att_ljcut} 	${glob_coulcut}
pair_coeff		2 4 	1 	1	2.5 	${glob_coulcut}
pair_coeff		2 4 	1 	1	2.5 	10
pair_coeff		3 3 	${glob_ljeps} 	${glob_ljsig}	${rep_ljcut} 	${glob_coulcut}
pair_coeff		3 3 	1 	${glob_ljsig}	${rep_ljcut} 	${glob_coulcut}
pair_coeff		3 3 	1 	1	${rep_ljcut} 	${glob_coulcut}
pair_coeff		3 3 	1 	1	1.12 	${glob_coulcut}
pair_coeff		3 3 	1 	1	1.12 	10
pair_coeff		3 4 	${glob_ljeps} 	${glob_ljsig}	${att_ljcut} 	${glob_coulcut}
pair_coeff		3 4 	1 	${glob_ljsig}	${att_ljcut} 	${glob_coulcut}
pair_coeff		3 4 	1 	1	${att_ljcut} 	${glob_coulcut}
pair_coeff		3 4 	1 	1	2.5 	${glob_coulcut}
pair_coeff		3 4 	1 	1	2.5 	10
pair_coeff		4 4 	${glob_ljeps} 	${glob_ljsig}	${rep_ljcut} 	${glob_coulcut}
pair_coeff		4 4 	1 	${glob_ljsig}	${rep_ljcut} 	${glob_coulcut}
pair_coeff		4 4 	1 	1	${rep_ljcut} 	${glob_coulcut}
pair_coeff		4 4 	1 	1	1.12 	${glob_coulcut}
pair_coeff		4 4 	1 	1	1.12 	10


fix             noDrift 	all momentum 10 linear 1 1 1
fix             nvt1 		all nvt temp ${Temp} ${Temp} 0.5
fix             nvt1 		all nvt temp 1 ${Temp} 0.5
fix             nvt1 		all nvt temp 1 1 0.5

dump            assemble 	all custom 1000 	${outputfile_selfasb} id type xu yu zu vx vy vz
dump            assemble 	all custom 1000 	3_a_self_assemble.lammpstrj id type xu yu zu vx vy vz
dump            lindump 	all custom 10000 	${outputfile_trajlin} id type xu yu zu vx vy vz
dump            lindump 	all custom 10000 	3_b_trajlin.data id type xu yu zu vx vy vz

run             ${runtime}
run             1000000
Generated 0 of 6 mixed pair_coeff terms from geometric mixing rule
Neighbor list info ...
  update every 1 steps, delay 10 steps, check yes
  max neighbors/atom: 2000, page size: 100000
  master list distance cutoff = 10.3
  ghost atom cutoff = 10.3
  binsize = 5.15, bins = 7 7 7
  1 neighbor lists, perpetual/occasional/extra = 1 0 0
  (1) pair lj/cut/coul/cut, perpetual
      attributes: half, newton on
      pair build: half/bin/newton
      stencil: half/bin/3d
      bin: standard
Per MPI rank memory allocation (min/avg/max) = 8.945 | 8.945 | 8.945 Mbytes
   Step          Temp         Density         Press          TotEng         PotEng         KinEng         E_pair         S/CPU     
         0   1.1365479      0.0004664723  -0.0020091936   21.096108      19.476527      1.6195807     -0.43970976     0            
      1000   1.468685       0.0004664723  -0.00069820633  21.031116      18.93824       2.0928762     -0.84466638     199553.52    
      2000   1.117759       0.0004664723   0.001042907    20.180268      18.587461      1.5928066     -1.3224413      203607.14    
      3000   1.1788797      0.0004664723   9.9551518e-05  20.904556      19.224652      1.6799035     -0.59361144     203734.7     
      4000   1.288488       0.0004664723  -0.00082468392  20.871964      19.035869      1.8360954     -0.73021081     197479.53    
      5000   1.2660373      0.0004664723   0.0011648816   20.538685      18.734582      1.8041031     -0.96186879     204185.64    
      6000   1.0407913      0.0004664723   0.0006609849   20.360118      18.876991      1.4831275     -0.81424794     208488.74    
      7000   0.74247426     0.0004664723  -0.00099167466  19.465262      18.407236      1.0580258     -1.0478288      210934.86    
      8000   1.1109052      0.0004664723   0.00036514141  20.672078      19.089038      1.5830399     -0.67637461     206921.01    
      9000   1.0545534      0.0004664723  -0.00074203686  20.00829       18.505551      1.5027386     -1.19904        212264.97    
     10000   0.93867514     0.0004664723   5.4627736e-05  19.800023      18.462411      1.3376121     -0.94713444     204575.7     
     11000   0.94034664     0.0004664723   0.00065482715  19.990059      18.650065      1.339994      -1.0659396      209813.08    
     12000   0.9746423      0.0004664723   0.00030391527  20.226922      18.838056      1.3888653     -0.80979964     206196.45    
     13000   1.1391465      0.0004664723   8.3044122e-05  20.292412      18.669128      1.6232837     -1.0448669      214791.95    
     14000   1.0174599      0.0004664723   0.00089493918  19.597334      18.147454      1.4498803     -1.3019954      207868.18    
     15000   1.0191744      0.0004664723   0.0034097809   19.639514      18.18719       1.4523235     -1.4486619      208742.86    
     16000   1.0074842      0.0004664723   0.00099807668  20.208714      18.773049      1.435665      -0.98960697     207230.35    
     17000   0.90847478     0.0004664723   0.00063317522  20.415118      19.120541      1.2945766     -1.0148793      217053.08    
     18000   1.1849755      0.0004664723   6.939612e-06   20.379236      18.690646      1.6885901     -0.97356186     206984.1     
     19000   1.0128991      0.0004664723   0.0013525338   20.533817      19.090436      1.4433812     -0.6899954      207826.63    
     20000   1.1188742      0.0004664723   0.00016902295  19.879979      18.285583      1.5943957     -1.2795964      206072.59    
     21000   1.0407393      0.0004664723  -0.00046841244  20.226908      18.743855      1.4830535     -0.89297032     207417.2     
     22000   1.0454225      0.0004664723  -0.00038232861  20.363145      18.873418      1.4897271     -0.8435554      202764.61    
     23000   0.93290008     0.0004664723  -0.00025103178  19.726929      18.397546      1.3293826     -1.1994987      205629.35    
     24000   0.88973481     0.0004664723   0.0007423513   20.003873      18.736001      1.2678721     -1.1927258      204678.5     
     25000   0.87132442     0.0004664723   0.00059266932  19.870324      18.628686      1.2416373     -1.3425353      203411.25    
     26000   1.0221815      0.0004664723  -0.0027643978   20.184365      18.727756      1.4566087     -1.0785986      210977.27    
     27000   1.0399347      0.0004664723   0.0018690061   20.515049      19.033142      1.481907      -0.63661163     204758.67    
     28000   0.8812326      0.0004664723   0.00081775081  19.838582      18.582826      1.2557565     -0.96315893     208961.39    
     29000   0.76715187     0.0004664723  -0.0011227414   19.817705      18.724514      1.0931914     -1.1092722      206161.13    
     30000   1.0907227      0.0004664723  -0.0010305694   20.348043      18.793764      1.5542798     -0.8256806      200540.66    
     31000   0.79525127     0.0004664723  -0.00017186372  20.293986      19.160753      1.1332331     -0.51821608     200436.27    
     32000   1.1328245      0.0004664723   0.00084726268  20.119406      18.505132      1.6142749     -1.0122948      205980.31    
     33000   0.81635179     0.0004664723   0.00024214502  19.513675      18.350374      1.1633013     -1.2212682      205405.11    
     34000   0.96431472     0.0004664723  -7.113041e-05   19.738623      18.364474      1.3741485     -1.3361023      216064.01    
     35000   0.67704138     0.0004664723  -0.00097592839  19.843618      18.878834      0.96478396    -1.2949176      206951.07    
     36000   0.79134497     0.0004664723  -0.00015961267  20.170838      19.043171      1.1276666     -0.98327084     208756.81    
     37000   1.1028859      0.0004664723   0.00020657953  20.368742      18.797129      1.5716124     -1.0051009      206431.03    
     38000   1.3263109      0.0004664723   0.0028514201   20.476977      18.586984      1.889993      -1.181793       213530.03    
     39000   1.0635298      0.0004664723  -0.00045596046  19.622937      18.107407      1.51553       -1.4217966      205051.06    
     40000   0.82505623     0.0004664723  -0.00041545279  20.039068      18.863363      1.1757051     -0.89421775     206286.8     
     41000   1.0819062      0.0004664723  -0.0012615049   20.196211      18.654495      1.5417163     -0.97498068     200941.53    
     42000   0.87011477     0.0004664723   0.00040561829  20.325643      19.085729      1.2399135     -0.71261726     204841.05    
     43000   0.95574892     0.0004664723   0.0001965663   19.671063      18.30912       1.3619422     -1.0966178      207528.08    
     44000   0.79787509     0.0004664723   5.9022637e-05  19.952656      18.815684      1.136972      -0.94605639     205082.22    
     45000   1.2698117      0.0004664723   0.00057885107  20.460486      18.651004      1.8094816     -0.82973748     202725.03    
     46000   1.1411979      0.0004664723   0.00070838964  20.773818      19.147611      1.626207      -0.76474493     199381.76    
     47000   1.092881       0.0004664723   0.00021179822  20.728515      19.17116       1.5573554     -0.77293535     204853.22    
     48000   0.97854016     0.0004664723   9.9598777e-05  19.973775      18.579355      1.3944197     -1.1024158      201736.34    
     49000   1.241007       0.0004664723   0.00076976792  20.739874      18.971439      1.768435      -0.91054938     204228.3     
     50000   0.85279063     0.0004664723  -0.0017097345   19.551378      18.336151      1.2152266     -1.3121708      203883.7     
     51000   1.0033103      0.0004664723   0.00065413816  20.033441      18.603724      1.4297171     -0.95320517     207015.42    
     52000   0.80834977     0.0004664723   0.00015319285  20.382016      19.230118      1.1518984     -0.87934012     212758.58    
     53000   1.1376351      0.0004664723   0.0026826657   20.525053      18.903923      1.62113       -0.61992547     211607.92    
     54000   0.92408109     0.0004664723   0.0003457692   19.994803      18.677987      1.3168156     -1.0721643      202619.71    
     55000   0.92202373     0.0004664723   0.000536259    19.908705      18.594821      1.3138838     -1.1304201      206594.67    
     56000   1.4705343      0.0004664723   0.00022056769  20.594267      18.498756      2.0955114     -1.1032593      209236.01    
     57000   1.0932586      0.0004664723  -0.0002141993   20.556869      18.998975      1.5578935     -0.5182641      208290.72    
     58000   0.93665602     0.0004664723  -0.0026925117   20.327628      18.992893      1.3347348     -0.76072395     209548.32    
     59000   1.7489246      0.0004664723   0.0018372849   20.828794      18.336576      2.4922176     -1.2714941      207412.51    
     60000   1.0173536      0.0004664723   0.00042904327  20.280566      18.830837      1.4497288     -0.75118291     203528.24    
     61000   1.2769976      0.0004664723   0.00095856393  20.521495      18.701773      1.8197216     -0.93874176     211823.48    
     62000   1.0372662      0.0004664723  -0.0020928957   20.504632      19.026527      1.4781043     -0.64918388     210686.04    
     63000   1.0184375      0.0004664723   0.00061105168  20.303198      18.851925      1.4512734     -0.86679268     208325.91    
     64000   1.1214515      0.0004664723  -0.0011508058   20.124144      18.526075      1.5980684     -1.1685309      210191.73    
     65000   1.0091546      0.0004664723  -0.00091671701  20.225481      18.787436      1.4380453     -0.77935444     207171.45    
     66000   1.0902455      0.0004664723   0.0027655789   20.365121      18.811521      1.5535998     -0.95791475     206631       
     67000   0.90456561     0.0004664723  -0.00024140479  19.714589      18.425583      1.289006      -0.94832055     205761.19    
     68000   0.9778928      0.0004664723  -0.00046177458  20.1733        18.779803      1.3934972     -0.77013019     208067.53    
     69000   0.68633063     0.0004664723  -0.001016231    20.006693      19.028671      0.97802114    -0.69787104     205117.22    
     70000   0.940454       0.0004664723   0.0013469319   20.357864      19.017717      1.340147      -0.67858579     202293.6     
     71000   0.96512451     0.0004664723  -0.00055522014  19.945999      18.570696      1.3753024     -0.96483131     212018.75    
     72000   1.0083219      0.0004664723   8.7330661e-05  20.199879      18.76302       1.4368587     -0.88412491     205088.53    
     73000   1.013468       0.0004664723  -0.00063113612  20.163769      18.719577      1.4441919     -0.92660885     200433.94    
     74000   0.76563567     0.0004664723   0.00065391383  20.217613      19.126582      1.0910308     -0.74515724     203425.4     
     75000   0.89065735     0.0004664723  -0.00013881724  19.938234      18.669048      1.2691867     -1.0527125      208932.05    
     76000   0.71369771     0.0004664723  -0.00068888877  19.462633      18.445613      1.0170192     -1.2890286      207707.27    
     77000   1.091556       0.0004664723   0.0010763301   19.953727      18.39826       1.5554673     -1.1878007      206918.87    
     78000   0.79067597     0.0004664723   0.00041719296  19.984493      18.85778       1.1267133     -0.83680321     207317.69    
     79000   0.67710364     0.0004664723   0.0015425841   19.465928      18.501055      0.96487269    -1.1657608      204052.15    
     80000   0.99609408     0.0004664723   0.00024471294  19.530301      18.110867      1.4194341     -1.3308092      206843.37    
     81000   1.1021362      0.0004664723  -0.00030327349  20.357126      18.786581      1.570544      -0.81315122     201905.3     
     82000   0.86328217     0.0004664723   0.00040346201  19.797937      18.56776       1.2301771     -1.2382435      208472.53    
     83000   0.83494232     0.0004664723   0.00074380897  20.044903      18.85511       1.1897928     -0.93129337     208686.58    
     84000   1.0031537      0.0004664723  -0.0013133132   20.726577      19.297083      1.429494      -0.87315154     203395.15    
     85000   1.4133166      0.0004664723  -0.00059626052  20.450587      18.436611      2.0139761     -1.1763296      209003.36    
     86000   0.91228662     0.0004664723  -0.00040918242  19.668321      18.368312      1.3000084     -1.2408922      204966.8     
     87000   0.94840972     0.0004664723   0.00025152374  19.732858      18.381374      1.3514839     -1.2041038      203068.24    
     88000   0.76974199     0.0004664723  -0.00044772634  19.590111      18.493229      1.0968823     -1.2147247      208248.95    
     89000   0.85820437     0.0004664723   0.0015568978   19.874999      18.652058      1.2229412     -1.0113026      214371.19    
     90000   1.0000916      0.0004664723  -0.0010099373   20.070944      18.645814      1.4251305     -1.2177807      207347.87    
     91000   1.1788087      0.0004664723  -0.0016764966   20.163314      18.483511      1.6798025     -1.1868932      216804.1     
     92000   0.73624147     0.0004664723  -0.000585976    19.63711       18.587966      1.0491441     -1.1851686      211068.29    
     93000   1.0365257      0.0004664723  -0.00045269626  20.028127      18.551077      1.4770492     -1.1408582      208434.29    
     94000   1.2310859      0.0004664723   0.00074791573  20.398417      18.64412       1.7542973     -1.0849309      205833.32    
     95000   0.7825318      0.0004664723   0.00048646905  19.486872      18.371764      1.1151078     -1.5115288      207786.81    
     96000   1.2306165      0.0004664723  -0.00088175069  20.458077      18.704448      1.7536285     -0.96854368     211639.36    
     97000   1.1883768      0.0004664723  -9.8815072e-05  20.11329       18.419853      1.6934369     -1.2207668      212705.49    
     98000   0.98924148     0.0004664723  -0.00078512625  19.730616      18.320946      1.4096691     -1.3185423      204459.63    
     99000   1.0542114      0.0004664723   0.001849309    20.213005      18.710754      1.5022512     -0.92964108     211308.25    
    100000   1.0429865      0.0004664723  -0.00099534757  20.344071      18.857816      1.4862558     -0.82271488     206988.38    
    101000   0.81200395     0.0004664723   0.00069769519  19.524326      18.36722       1.1571056     -1.1395092      210259.93    
    102000   1.1433128      0.0004664723  -0.0014536451   20.026723      18.397502      1.6292208     -1.0958655      213798.56    
    103000   1.0171523      0.0004664723  -0.0018253213   20.144994      18.695552      1.449442      -1.006595       213593.15    
    104000   0.96453027     0.0004664723  -0.00075780181  20.19483       18.820374      1.3744556     -0.92429232     205656.46    
    105000   1.0259344      0.0004664723   0.00052440705  19.857795      18.395839      1.4619565     -1.1436682      204939.07    
    106000   1.1181398      0.0004664723  -0.00084744817  21.179933      19.586584      1.5933492     -0.63026294     204181.47    
    107000   0.99966452     0.0004664723   0.0012498852   20.59113       19.166608      1.4245219     -0.67100673     206764.59    
    108000   1.2392552      0.0004664723  -0.00076923739  20.313152      18.547213      1.7659387     -1.3238711      205018.61    
    109000   1.1943078      0.0004664723  -0.0021134836   20.326827      18.624938      1.7018886     -1.1018981      205883.45    
    110000   1.2744467      0.0004664723  -0.00018558908  20.715672      18.899585      1.8160865     -0.82665343     203166.93    
    111000   0.79905729     0.0004664723  -0.0011416846   19.570689      18.432032      1.1386566     -1.1086457      206151.73    
    112000   1.123645       0.0004664723  -0.0005489516   20.080511      18.479317      1.6011941     -1.1416713      213175.3     
    113000   0.65319384     0.0004664723   8.1380231e-05  19.702351      18.77155       0.93080122    -0.91613172     212537.05    
    114000   1.1061236      0.0004664723  -0.00020596769  20.419191      18.842965      1.5762261     -0.80198772     205387.31    
    115000   1.1704278      0.0004664723   0.00078510338  20.645684      18.977825      1.6678597     -0.63066491     204066.68    
    116000   0.97332971     0.0004664723   0.00039745456  20.264529      18.877535      1.3869948     -0.83426633     207986.91    
    117000   0.89322006     0.0004664723  -0.00078183807  19.857138      18.5843        1.2728386     -0.90885038     205341.68    
    118000   0.79087092     0.0004664723   0.001736468    20.14734       19.020349      1.1269911     -0.6974598      213942       
    119000   0.97198052     0.0004664723   0.00089779993  20.04471       18.659638      1.3850722     -0.99634935     202282.97    
    120000   0.70392445     0.0004664723  -0.0028923959   19.687191      18.684098      1.0030923     -1.0425318      204123.87    
    121000   1.0012231      0.0004664723   0.00068195733  20.077208      18.650465      1.426743      -1.0857509      207838.33    
    122000   0.96928673     0.0004664723  -0.0015092888   20.053373      18.672139      1.3812336     -1.3682779      209162.88    
    123000   1.1994191      0.0004664723  -0.0015730658   20.543615      18.834442      1.7091721     -0.86976038     201403.34    
    124000   1.1672393      0.0004664723  -0.0017894727   20.770451      19.107135      1.6633159     -0.63641052     205344.63    
    125000   1.1061776      0.0004664723  -0.00066602228  20.092683      18.51638       1.5763031     -0.97334823     207899.39    
    126000   0.7786561      0.0004664723  -0.0016333545   19.761496      18.651911      1.1095849     -1.1647129      207344.39    
    127000   0.90490025     0.0004664723   0.00034546627  20.199354      18.909871      1.2894829     -1.0929558      209697.63    
    128000   0.59015595     0.0004664723  -0.00058717364  18.982423      18.141451      0.84097223    -1.350891       208682.66    
    129000   1.0315628      0.0004664723  -0.0012244655   20.40602       18.936043      1.469977      -0.7485908      207862.14    
    130000   0.98573734     0.0004664723   0.00029969412  19.684879      18.280203      1.4046757     -1.3800253      204416.5     
    131000   0.86140649     0.0004664723   0.0022309994   20.211862      18.984358      1.2275042     -0.59268025     207183.89    
    132000   0.76661636     0.0004664723   0.00093917302  19.898862      18.806434      1.0924283     -0.79308345     204140.13    
    133000   0.95234487     0.0004664723  -0.0011301903   19.508135      18.151043      1.3570914     -1.540339       205325.65    
    134000   1.1569288      0.0004664723   0.0005543289   19.951037      18.302414      1.6486235     -1.2930968      206443.81    
    135000   1.0934023      0.0004664723  -0.0017248153   20.135673      18.577575      1.5580983     -1.0938265      203400.9     
    136000   0.79050319     0.0004664723   0.0012641773   20.216381      19.089914      1.126467      -0.723622       208116.59    
    137000   0.74254055     0.0004664723  -0.0003949299   20.335687      19.277567      1.0581203     -0.58869088     208200.74    
    138000   0.68365995     0.0004664723   0.00043521149  19.673408      18.699193      0.97421543    -0.88745783     206084.1     
    139000   1.0678157      0.0004664723  -0.00049891968  19.711223      18.189586      1.5216374     -1.4224239      207702.52    
    140000   1.0008015      0.0004664723   0.00032812695  19.834231      18.408089      1.4261421     -1.044696       198353.51    
    141000   0.95647015     0.0004664723   0.0016760405   20.272618      18.909648      1.36297       -1.0141722      203552.73    
    142000   1.1261453      0.0004664723  -0.00050336331  20.228437      18.62368       1.6047571     -0.88973914     210399.15    
    143000   1.1743548      0.0004664723   0.0013219526   20.557483      18.884028      1.6734556     -0.67226162     204567.29    
    144000   0.76065284     0.0004664723   0.00028586737  19.976663      18.892733      1.0839303     -0.66426659     197918.88    
    145000   0.9675041      0.0004664723   0.00039526831  20.329916      18.951223      1.3786933     -0.71573672     205286.37    
    146000   1.0283344      0.0004664723   0.0016905991   20.085038      18.619662      1.4653765     -1.0196758      201736.39    
    147000   1.0672946      0.0004664723  -0.00058543357  19.551347      18.030452      1.5208947     -1.3043762      206279.56    
    148000   0.80132957     0.0004664723   0.0011169005   19.809255      18.66736       1.1418946     -1.0193972      205231.05    
    149000   0.99632072     0.0004664723   0.0012854498   19.793763      18.374006      1.419757      -1.2947364      206172.18    
    150000   0.8084384      0.0004664723  -0.0025454312   19.898525      18.746501      1.1520247     -1.1678513      206867.42    
    151000   0.90697391     0.0004664723   0.00037336328  19.784843      18.492405      1.2924378     -1.2515262      204979.86    
    152000   0.95833029     0.0004664723  -0.00019886228  20.159639      18.794018      1.3656207     -1.0637998      206821.13    
    153000   0.77183399     0.0004664723   0.00053247797  19.93815       18.838287      1.0998634     -0.76060923     201633.23    
    154000   1.1927864      0.0004664723   0.00040266012  20.262976      18.563255      1.6997207     -1.1244852      203528.66    
    155000   1.1717807      0.0004664723  -0.00024135883  20.556618      18.88683       1.6697875     -0.69089013     204563.57    
    156000   1.5235468      0.0004664723   0.00048369329  20.63977       18.468716      2.1710542     -0.9723909      201918.75    
    157000   0.96437968     0.0004664723   0.0013587363   20.484952      19.110711      1.374241      -0.91410771     204773.43    
    158000   0.86646535     0.0004664723  -0.00010932679  19.53525       18.300537      1.2347131     -1.2438188      203073.11    
    159000   0.87343836     0.0004664723  -0.0021807682   19.636424      18.391774      1.2446497     -1.5661095      204881       
    160000   0.73675734     0.0004664723  -0.0010379431   19.697949      18.64807       1.0498792     -1.124599       205866.03    
    161000   1.0424143      0.0004664723   0.00080637632  19.97544       18.49          1.4854403     -1.0585282      209406.8     
    162000   1.1795256      0.0004664723   0.00061029624  20.533994      18.85317       1.680824      -0.96239114     210412.87    
    163000   0.93757282     0.0004664723  -5.068145e-05   19.425881      18.08984       1.3360413     -1.5242099      204111.75    
    164000   1.2520295      0.0004664723   0.0026949606   20.010993      18.226851      1.784142      -1.3711099      206728.18    
    165000   0.62742059     0.0004664723  -0.0009434476   19.455794      18.56172       0.89407433    -1.1613121      203079.37    
    166000   1.0182136      0.0004664723   5.9010093e-05  20.234142      18.783188      1.4509544     -1.0888599      205025.29    
    167000   0.77888386     0.0004664723  -1.7878227e-05  18.963341      17.853431      1.1099095     -1.694406       205980.31    
    168000   1.0282827      0.0004664723   0.0002625249   20.750674      19.285372      1.4653029     -0.5967486      206761.17    
    169000   0.95660229     0.0004664723   0.00012297519  19.757091      18.393933      1.3631583     -1.3565665      207932.67    
    170000   0.77818304     0.0004664723   0.0020555546   19.990122      18.881211      1.1089108     -1.1231668      201321.31    
    171000   0.85600307     0.0004664723   0.0013416103   19.595388      18.375584      1.2198044     -1.524352       202804.54    
    172000   0.98740299     0.0004664723  -4.7388139e-05  19.736781      18.329732      1.4070493     -1.1754517      204483.09    
    173000   1.0486695      0.0004664723  -0.00024691266  20.056828      18.562474      1.494354      -1.0871902      203517.85    
    174000   0.96139782     0.0004664723   0.00124234     19.502407      18.132415      1.3699919     -1.3267693      204728.45    
    175000   1.4003997      0.0004664723   0.00037685286  20.476992      18.481423      1.9955695     -1.0669292      206847.69    
    176000   0.69196113     0.0004664723  -0.00031052754  19.87655       18.890505      0.98604461    -0.62084847     207026.18    
    177000   0.83953379     0.0004664723   0.00092465612  20.214661      19.018325      1.1963356     -0.48580789     203693.53    
    178000   0.92958691     0.0004664723   0.00079874555  20.086023      18.761361      1.3246613     -0.97151522     205494.34    
    179000   0.91044851     0.0004664723  -0.0019508962   20.447328      19.149938      1.2973891     -0.81183679     205031.22    
    180000   1.1024661      0.0004664723  -0.0017404245   20.727564      19.156549      1.5710142     -0.71229055     201914.72    
    181000   1.0774986      0.0004664723   9.5287787e-05  20.351654      18.816219      1.5354355     -1.0097186      208035.89    
    182000   0.89288766     0.0004664723   0.00076061452  20.001478      18.729113      1.2723649     -1.0361611      206971.2     
    183000   1.1525268      0.0004664723   0.00090691573  20.818517      19.176167      1.6423507     -0.63797741     205593.75    
    184000   1.0245001      0.0004664723   0.00033533047  20.026054      18.566141      1.4599127     -1.123202       203653.67    
    185000   1.1645451      0.0004664723   0.00093688931  20.428059      18.768583      1.6594767     -1.0113675      208296.79    
    186000   1.2025355      0.0004664723   0.00061056119  20.630478      18.916865      1.7136131     -1.0585805      206779.13    
    187000   0.52662154     0.0004664723   0.00026577835  19.019543      18.269107      0.7504357     -1.2739847      208150.85    
    188000   1.0161967      0.0004664723   0.0012289373   19.889354      18.441274      1.4480802     -1.3370055      206589.5     
    189000   1.2066979      0.0004664723  -0.00012948016  20.123419      18.403875      1.7195445     -1.2279069      205996.43    
    190000   0.77848337     0.0004664723   0.002268569    19.296379      18.18704       1.1093388     -1.7157048      210779.03    
    191000   0.86568708     0.0004664723  -0.0016709529   20.247294      19.01369       1.2336041     -0.93995765     209941.53    
    192000   1.0565875      0.0004664723   0.00080290519  20.399146      18.893509      1.5056372     -0.95983843     220566.41    
    193000   0.77091046     0.0004664723  -0.0010930042   19.997396      18.898849      1.0985474     -0.75664562     211926.55    
    194000   1.1243699      0.0004664723  -0.0012704132   20.21047       18.608243      1.6022272     -1.0500761      216216.08    
    195000   1.1139794      0.0004664723   0.0022511804   20.197688      18.610267      1.5874207     -1.0033302      203146.78    
    196000   0.798216       0.0004664723  -8.2011314e-05  19.622485      18.485028      1.1374578     -0.95020286     201879.95    
    197000   1.4621274      0.0004664723  -0.00065963873  21.139445      19.055913      2.0835316     -0.55616076     203477.64    
    198000   1.040552       0.0004664723   0.00062085498  20.275151      18.792365      1.4827866     -0.57746913     202137.93    
    199000   0.98495172     0.0004664723  -0.0011998576   20.123049      18.719493      1.4035562     -0.89185939     199380.52    
    200000   1.109301       0.0004664723   0.0002694838   20.522962      18.942209      1.5807539     -0.68238748     203553.97    
    201000   0.75643324     0.0004664723  -0.0013261798   19.951971      18.874054      1.0779174     -0.88632672     206235.66    
    202000   0.88708447     0.0004664723   0.00052243138  19.990804      18.726708      1.2640954     -0.79544042     210462.51    
    203000   0.83637628     0.0004664723  -0.00015431593  19.965167      18.77333       1.1918362     -0.88091649     212443.04    
    204000   1.3490192      0.0004664723  -0.00051020102  20.46259       18.540238      1.9223523     -1.0693119      211966.93    
    205000   1.2663417      0.0004664723   0.0019245742   20.52297       18.718433      1.804537      -0.89477899     209045.87    
    206000   0.91559152     0.0004664723   0.0011288387   19.50276       18.198042      1.3047179     -1.3986417      205566.24    
    207000   0.78079429     0.0004664723  -0.0015651075   20.196679      19.084048      1.1126319     -0.61528497     203395.9     
    208000   1.1375848      0.0004664723   0.0013327033   20.425518      18.80446       1.6210583     -1.0371609      203791.71    
    209000   1.0993725      0.0004664723   0.00042943607  20.604944      19.038339      1.5666058     -0.69818839     206410.53    
    210000   1.50931        0.0004664723   0.0016879001   20.936474      18.785708      2.1507668     -1.0720091      200958.57    
    211000   1.1321977      0.0004664723  -0.0007992819   20.288554      18.675172      1.6133817     -0.81381796     205803.62    
    212000   0.96972519     0.0004664723   7.4976772e-06  19.967445      18.585586      1.3818584     -0.9649528      206532.2     
    213000   1.0906761      0.0004664723  -0.00081220828  20.125343      18.571129      1.5542135     -0.92049896     212459.25    
    214000   0.88363999     0.0004664723  -0.00056523917  20.249528      18.990341      1.259187      -0.90168327     208312.85    
    215000   1.3342763      0.0004664723   0.0020276313   20.66197       18.760626      1.9013437     -0.79355792     211956.64    
    216000   0.9942368      0.0004664723  -0.0015623619   20.311644      18.894857      1.4167874     -1.2224233      214837.22    
    217000   1.2196541      0.0004664723  -0.00092452475  20.818837      19.08083       1.738007      -0.62601704     206689.21    
    218000   0.87277253     0.0004664723  -0.002566291    19.956962      18.713262      1.2437009     -1.1527802      203123.59    
    219000   0.83215112     0.0004664723  -6.5382191e-05  20.175082      18.989266      1.1858153     -0.60860948     204080.84    
    220000   0.98850763     0.0004664723  -0.000655927    20.217903      18.80928       1.4086234     -0.74009612     207860.84    
    221000   1.0053903      0.0004664723  -0.00066773893  20.344914      18.912232      1.4326811     -0.83467903     205623.43    
    222000   1.216421       0.0004664723   0.00050207246  20.193459      18.460059      1.7334        -1.2634195      207017.61    
    223000   0.92256089     0.0004664723   0.0012079798   19.68946       18.374811      1.3146493     -1.1501293      212739.52    
    224000   0.81380599     0.0004664723  -0.0021226875   20.323928      19.164254      1.1596735     -0.72332466     209132.57    
    225000   1.4787781      0.0004664723  -0.00038461837  20.871283      18.764024      2.1072588     -0.96817297     208390.29    
    226000   1.3618444      0.0004664723  -0.0005036607   20.408221      18.467593      1.9406283     -1.2824066      206500.6     
    227000   1.3056542      0.0004664723  -0.00036202486  20.128421      18.267864      1.8605573     -1.2336079      206651.19    
    228000   0.83222193     0.0004664723   0.00069676114  20.076306      18.89039       1.1859163     -0.74143939     208717.98    
    229000   1.1568084      0.0004664723  -3.818182e-05   20.510767      18.862315      1.6484519     -1.0483188      210669.08    
    230000   0.91437286     0.0004664723   0.0019397106   20.268059      18.965077      1.3029813     -0.86120115     208548.79    
    231000   0.77340762     0.0004664723  -0.00074521406  20.072582      18.970476      1.1021059     -1.0002568      208932.93    
    232000   0.93954019     0.0004664723  -0.00022080114  19.577218      18.238373      1.3388448     -1.3546296      203725.57    
    233000   0.92788203     0.0004664723   0.00068911208  20.237793      18.915561      1.3222319     -0.72135036     203805.41    
    234000   1.409506       0.0004664723   0.002779304    20.482233      18.473687      2.0085461     -1.1117325      205171.22    
    235000   0.86369586     0.0004664723  -0.0011793801   20.537188      19.306421      1.2307666     -0.77918774     206725.14    
    236000   0.9954859      0.0004664723   0.0013747505   20.235231      18.816664      1.4185674     -0.8511474      207788.58    
    237000   1.2114971      0.0004664723   0.00090535211  20.204055      18.477672      1.7263834     -1.1813101      204838.11    
    238000   0.82712845     0.0004664723   0.00030447295  20.276977      19.098319      1.178658      -0.92067741     206986.67    
    239000   0.92376587     0.0004664723  -0.0027717465   20.312092      18.995725      1.3163664     -0.98811761     208809.68    
    240000   0.99721703     0.0004664723  -0.00056528576  19.673225      18.252191      1.4210343     -1.4288916      201536.35    
    241000   0.77941853     0.0004664723  -0.0016587272   20.332456      19.221784      1.1106714     -0.7722954      208388.56    
    242000   1.1583697      0.0004664723   0.00050129933  20.740409      19.089732      1.6506768     -0.81643922     211429.99    
    243000   1.023418       0.0004664723  -0.00071385043  20.130109      18.671738      1.4583707     -1.1213463      203563.09    
    244000   1.2465118      0.0004664723   0.00083531007  20.92986       19.153581      1.7762793     -0.7364848      206680.66    
    245000   0.98879148     0.0004664723  -0.0010095421   20.527326      19.118299      1.4090279     -0.69934912     207075.09    
    246000   1.3932871      0.0004664723   0.0009285784   20.733266      18.747832      1.9854341     -0.85447101     204246.28    
    247000   1.1349433      0.0004664723  -0.00081608476  20.138198      18.520904      1.6172942     -1.1673805      204784.29    
    248000   1.3171941      0.0004664723   0.0012227382   20.602055      18.725053      1.8770016     -1.0064808      206628.43    
    249000   0.94477342     0.0004664723   0.00019292686  20.303424      18.957122      1.3463021     -0.89207021     206818.56    
    250000   0.84609064     0.0004664723  -2.5782312e-05  19.955088      18.749408      1.2056792     -1.0538575      203966.2     
    251000   0.98021715     0.0004664723   0.00017915005  20.103143      18.706333      1.3968094     -0.90309827     206114.3     
    252000   1.2939247      0.0004664723  -0.00032049227  20.44857       18.604728      1.8438427     -1.1580162      203948.28    
    253000   1.0287467      0.0004664723  -0.001763257    20.180575      18.714611      1.4659641     -0.94373615     209327.73    
    254000   0.94715251     0.0004664723  -0.00041355787  19.806574      18.456881      1.3496923     -1.3716918      210925.56    
    255000   1.1292903      0.0004664723  -0.00022648277  20.254477      18.645239      1.6092386     -0.98040752     208262.48    
    256000   1.2381616      0.0004664723  -0.00020818818  20.672025      18.907645      1.7643803     -0.71387891     207885.51    
    257000   0.65756099     0.0004664723  -0.0013367699   19.515097      18.578073      0.9370244     -1.1644252      214113.14    
    258000   0.83260179     0.0004664723  -0.0020304817   19.708319      18.521861      1.1864575     -1.2227224      207065.66    
    259000   1.34309        0.0004664723  -2.9314612e-05  20.684889      18.770986      1.9139033     -1.1351633      208983.31    
    260000   0.8658345      0.0004664723  -0.00071632443  20.103526      18.869712      1.2338142     -1.0506842      205715.39    
    261000   0.55678249     0.0004664723   0.0013753694   19.412306      18.618891      0.79341505    -1.2230941      205133.17    
    262000   0.8205894      0.0004664723  -0.00063553275  20.099916      18.930576      1.1693399     -0.99818433     199630.17    
    263000   0.93206413     0.0004664723   0.00097601695  19.813314      18.485123      1.3281914     -0.9639426      208911.1     
    264000   0.65652209     0.0004664723   1.2500637e-06  19.409359      18.473815      0.93554397    -1.1201127      203492.96    
    265000   1.115772       0.0004664723  -0.000411018    19.986786      18.396811      1.5899751     -1.1278967      215376.83    
    266000   0.77632191     0.0004664723  -0.00061063683  20.068865      18.962606      1.1062587     -0.66590142     225605.81    
    267000   1.1302424      0.0004664723  -2.5748206e-05  20.122218      18.511623      1.6105954     -0.97355223     222238.12    
    268000   0.99932071     0.0004664723   0.00085023923  20.011278      18.587246      1.424032      -0.79964473     220389.71    
    269000   1.3067988      0.0004664723  -0.00026479372  21.074737      19.212548      1.8621882     -1.0005715      213801.76    
    270000   1.0504289      0.0004664723   0.0018310092   20.196904      18.700043      1.4968611     -1.0871716      218465.97    
    271000   1.0039541      0.0004664723   0.00099007061  19.991935      18.5613        1.4306346     -1.0531107      218617.61    
    272000   1.1015208      0.0004664723   0.00021266656  20.203591      18.633924      1.5696672     -0.87498904     211305.57    
    273000   0.80305867     0.0004664723   0.00063796092  19.879128      18.73477       1.1443586     -1.0068521      212230.64    
    274000   1.2294135      0.0004664723  -0.00029049608  20.302731      18.550816      1.7519142     -0.91913132     211934.59    
    275000   1.2403853      0.0004664723   0.00034519664  20.425402      18.657853      1.767549      -0.91601109     212372.44    
    276000   0.92960706     0.0004664723   0.00020665753  20.03304       18.708349      1.3246901     -0.92418688     211797.82    
    277000   1.1457158      0.0004664723   0.00076018312  19.970832      18.338187      1.632645      -1.2303973      211884.2     
    278000   1.1524036      0.0004664723  -0.001458887    19.986764      18.344589      1.6421752     -1.3748958      210166.07    
    279000   0.81893001     0.0004664723  -0.0016320884   19.988698      18.821723      1.1669753     -0.76825439     213998.91    
    280000   0.85412542     0.0004664723   0.00022291725  19.897929      18.6808        1.2171287     -0.91111121     202933.61    
    281000   1.0677481      0.0004664723   0.001256653    20.638477      19.116936      1.521541      -0.66017691     217477.26    
    282000   0.91947732     0.0004664723  -0.0019208744   20.414524      19.104269      1.3102552     -0.68907571     219082.14    
    283000   0.96643652     0.0004664723  -0.00070467544  19.836367      18.459195      1.377172      -1.2338757      208679.18    
    284000   1.0788834      0.0004664723  -0.00019714825  19.729642      18.192233      1.5374088     -1.25906        207450.85    
    285000   0.82119151     0.0004664723  -0.001770193    19.943515      18.773317      1.1701979     -0.80519159     212298.76    
    286000   0.87422412     0.0004664723   0.00082799869  20.19025       18.94448       1.2457694     -0.90051777     218422.97    
    287000   0.6196833      0.0004664723  -0.000339684    19.632221      18.749173      0.8830487     -0.80465946     206917.59    
    288000   0.79139277     0.0004664723   0.001406198    20.227694      19.09996       1.1277347     -0.43289024     203192.64    
    289000   1.2145943      0.0004664723   0.00066308189  20.213428      18.482631      1.7307969     -0.98455042     206411.34    
    290000   1.0700448      0.0004664723   0.0011748613   19.953575      18.428761      1.5248138     -1.1822065      210423.5     
    291000   1.1105886      0.0004664723  -0.0013489996   20.518083      18.935494      1.5825888     -1.1541695      207559.14    
    292000   0.87303575     0.0004664723   0.00078447263  20.31366       19.069584      1.2440759     -0.88974796     206935.61    
    293000   0.5798469      0.0004664723  -0.00045183303  19.787631      18.961349      0.82628183    -0.91550661     207960.43    
    294000   0.7947224      0.0004664723   0.00058167075  20.186691      19.054212      1.1324794     -0.45262994     208635.12    
    295000   0.79859319     0.0004664723  -0.0015210043   19.909675      18.77168       1.1379953     -0.82723931     214756.75    
    296000   0.83508306     0.0004664723  -0.00075377297  19.954944      18.764951      1.1899934     -0.98859879     212744.95    
    297000   1.1062411      0.0004664723   0.0008946005   20.471299      18.894905      1.5763936     -0.88644082     214918.67    
    298000   1.0373068      0.0004664723  -0.00030176934  19.841665      18.363503      1.4781622     -1.2447476      211259.01    
    299000   0.75708211     0.0004664723   0.00035937999  19.362169      18.283327      1.078842      -1.3520934      210761.61    
    300000   1.0897468      0.0004664723   0.0014208565   19.983731      18.430841      1.5528892     -1.2304667      210475.4     
    301000   1.0577761      0.0004664723   0.00065830528  20.060955      18.553624      1.507331      -1.2134206      208248.65    
    302000   0.82725953     0.0004664723  -0.00046824567  19.775412      18.596567      1.1788448     -0.94356509     212698.26    
    303000   0.87533586     0.0004664723   0.00043733174  19.886141      18.638788      1.2473536     -1.2074944      211530.75    
    304000   0.62876145     0.0004664723  -0.0024038462   19.611633      18.715648      0.89598507    -1.0649172      216474.53    
    305000   1.0478659      0.0004664723  -0.00087213109  19.552342      18.059133      1.4932089     -1.5066441      210612.64    
    306000   0.7330515      0.0004664723   0.00069375233  19.31773       18.273132      1.0445984     -1.2073704      216528.02    
    307000   0.79226578     0.0004664723   0.00058057927  19.633888      18.504909      1.1289787     -1.1970235      218795.93    
    308000   0.95846863     0.0004664723  -0.00086303336  20.328403      18.962585      1.3658178     -0.93866211     212892.88    
    309000   1.2629365      0.0004664723  -0.00064884308  20.595656      18.795971      1.7996845     -1.024588       217685.08    
    310000   0.92995011     0.0004664723  -0.0019045076   19.972589      18.64741       1.3251789     -1.1212055      208370.71    
    311000   0.72141751     0.0004664723  -0.00068879617  19.065218      18.037198      1.02802       -1.5475522      224716.93    
    312000   0.99365933     0.0004664723   6.2276947e-05  20.048442      18.632478      1.4159645     -1.1718432      212531.58    
    313000   0.71932223     0.0004664723  -0.00083050724  20.060392      19.035358      1.0250342     -0.82456423     204171.88    
    314000   0.80371475     0.0004664723   0.00077972526  20.139708      18.994414      1.1452935     -0.87641433     203005.46    
    315000   0.98201942     0.0004664723  -0.0013798017   20.015604      18.616226      1.3993777     -0.85301297     207724.14    
    316000   0.73039349     0.0004664723   0.00067043066  19.412502      18.371692      1.0408107     -1.1168701      216693.93    
    317000   1.2819566      0.0004664723   0.00037448489  20.684797      18.858009      1.8267881     -1.0289242      214974.15    
    318000   0.85660504     0.0004664723  -4.5041807e-05  19.742159      18.521497      1.2206622     -1.0308558      205196.06    
    319000   1.3393784      0.0004664723   0.00053985717  20.856998      18.948384      1.9086142     -0.67527521     202333.43    
    320000   0.85850595     0.0004664723  -0.00033584093  19.754659      18.531288      1.223371      -1.2646843      206109.63    
    321000   1.078873       0.0004664723   0.0031497563   20.244025      18.706631      1.537394      -1.0914087      204683.49    
    322000   0.97961228     0.0004664723   0.00042202163  19.979615      18.583668      1.3959475     -1.2102367      205916.6     
    323000   0.85572947     0.0004664723   0.00038647143  19.990356      18.770942      1.2194145     -0.99672851     216797       
    324000   0.63318904     0.0004664723   2.7980013e-05  19.591955      18.689661      0.90229438    -0.9819226      216786.28    
    325000   0.92573295     0.0004664723   0.00029036767  19.999203      18.680034      1.3191695     -1.0812618      222479.9     
    326000   0.90617496     0.0004664723  -0.00032657387  20.110704      18.819405      1.2912993     -0.68367435     213082.45    
    327000   1.2190257      0.0004664723  -0.00085261828  20.485456      18.748345      1.7371116     -0.9445344      214239.56    
    328000   1.1711266      0.0004664723   0.00084464574  20.682771      19.013915      1.6688553     -0.96324882     228358.99    
    329000   1.0620034      0.0004664723   0.0014121159   20.181246      18.667891      1.5133548     -1.1289164      224169.81    
    330000   1.0716611      0.0004664723   0.0025652683   20.179255      18.652138      1.5271171     -1.1540172      214136.11    
    331000   1.2390347      0.0004664723  -0.00040179934  20.938897      19.173272      1.7656244     -0.63432695     221677       
    332000   1.0357031      0.0004664723   0.00095284624  20.107946      18.632069      1.475877      -1.0181802      225203.16    
    333000   0.86625165     0.0004664723   0.0004912873   20.188627      18.954219      1.2344086     -0.91501564     209470.1     
    334000   0.7452711      0.0004664723   0.001151736    19.413112      18.351101      1.0620113     -1.3973399      215990.14    
    335000   1.0888718      0.0004664723  -0.00066189806  19.638521      18.086879      1.5516423     -1.4155484      221304.89    
    336000   1.0038123      0.0004664723   0.0010280507   20.029434      18.599002      1.4304325     -1.0043477      211239.82    
    337000   0.9231111      0.0004664723  -0.00078478007  19.806814      18.49138       1.3154333     -1.2018537      224937.72    
    338000   0.8040423      0.0004664723  -0.00021642396  20.051339      18.905579      1.1457603     -0.95671504     223461.19    
    339000   1.046787       0.0004664723  -0.00078379293  20.801215      19.309543      1.4916715     -0.59197591     224295.71    
    340000   1.1303071      0.0004664723  -0.00037182522  20.016735      18.406047      1.6106877     -1.1548537      207087.19    
    341000   1.052063       0.0004664723   0.0012892991   20.415754      18.916564      1.4991898     -0.81027283     222794.76    
    342000   0.83006906     0.0004664723  -0.0013781992   19.797173      18.614324      1.1828484     -0.91649973     218535.29    
    343000   0.8452102      0.0004664723  -0.00070680319  19.95149       18.747066      1.2044245     -0.99386603     208146.13    
    344000   1.2936541      0.0004664723   0.00093268538  21.190532      19.347075      1.8434571     -0.75760544     211768.21    
    345000   1.0291057      0.0004664723  -0.0009347297   20.021516      18.55504       1.4664757     -1.06512        202810.71    
    346000   0.99352371     0.0004664723  -9.5873151e-05  19.745086      18.329315      1.4157713     -1.2808729      212644.8     
    347000   0.77278216     0.0004664723  -0.00041233861  19.549566      18.448352      1.1012146     -1.3212492      223088.55    
    348000   0.68499553     0.0004664723   0.00081766807  19.733948      18.757829      0.97611863    -0.8605         216657.31    
    349000   0.94487499     0.0004664723   0.00081755151  20.505895      19.159448      1.3464469     -0.49463337     224525.3     
    350000   1.0814477      0.0004664723   0.00011910994  19.960677      18.419614      1.5410629     -1.0990953      222969.52    
    351000   1.3588555      0.0004664723   0.0011761702   20.542576      18.606207      1.936369      -1.0324222      216768.8     
    352000   1.0451273      0.0004664723   0.00091992276  20.846148      19.356842      1.4893064     -0.80761235     205573.89    
    353000   0.76478187     0.0004664723  -6.7531055e-06  20.114607      19.024792      1.0898142     -0.80173983     206876.83    
    354000   1.243984       0.0004664723   6.3406743e-05  19.971525      18.198848      1.7726772     -1.3636535      212613.1     
    355000   1.160641       0.0004664723   0.0012808846   20.457389      18.803476      1.6539134     -0.97053126     216831.93    
    356000   0.85312532     0.0004664723  -0.0011037137   19.505704      18.290001      1.2157036     -1.2534751      226641.07    
    357000   1.2798735      0.0004664723   0.00019112651  20.916138      19.092319      1.8238198     -0.50651792     214026.89    
    358000   1.3219265      0.0004664723  -0.00038290023  21.142035      19.25829       1.8837453     -0.61660753     221478.25    
    359000   0.98798062     0.0004664723  -0.0002599967   20.198247      18.790374      1.4078724     -0.83338581     213970.43    
    360000   0.78518716     0.0004664723   0.00067295192  19.735292      18.6164        1.1188917     -1.1745019      208359.42    
    361000   0.82572675     0.0004664723   0.0001118936   20.25002       19.073359      1.1766606     -0.75475186     212030.93    
    362000   0.98889163     0.0004664723   0.0027551347   20.450759      19.041589      1.4091706     -0.65106856     216180.55    
    363000   0.78388717     0.0004664723  -0.0011018891   19.71749       18.60045       1.1170392     -1.0606489      215752.48    
    364000   0.85751511     0.0004664723  -0.0012294659   19.709208      18.487249      1.221959      -1.0565676      219829.55    
    365000   0.96026831     0.0004664723   0.00033041162  19.968203      18.599821      1.3683823     -1.0782107      217831.32    
    366000   1.1873157      0.0004664723   0.00056123115  19.920273      18.228348      1.6919249     -1.3675528      220760.64    
    367000   0.7732146      0.0004664723   0.0011784832   19.541651      18.43982       1.1018308     -1.3362716      218750.79    
    368000   1.0289074      0.0004664723  -0.00038419535  20.321569      18.855376      1.466193      -0.92094231     208281.22    
    369000   0.94033886     0.0004664723  -0.0004790839   20.015014      18.675031      1.3399829     -0.93179586     205333.67    
    370000   1.0290361      0.0004664723   0.00021153191  20.136701      18.670325      1.4663765     -0.94598947     203376.87    
    371000   0.84842288     0.0004664723  -0.0021475687   19.238933      18.029931      1.2090026     -1.6472557      204925.97    
    372000   1.1692964      0.0004664723  -0.00051696679  20.094084      18.427837      1.6662473     -1.2564185      201738.38    
    373000   1.4805658      0.0004664723   0.0014698097   21.046434      18.936627      2.1098063     -1.0246333      200486.66    
    374000   0.75313961     0.0004664723  -1.2224311e-05  19.645113      18.571889      1.0732239     -1.1078615      205004.32    
    375000   1.2343629      0.0004664723  -0.00012925627  20.517497      18.75853       1.7589672     -1.0001657      205145.46    
    376000   1.140929       0.0004664723   0.00030409248  20.49855       18.872727      1.6258239     -0.82862081     208742.86    
    377000   1.0679225      0.0004664723   0.00022145436  19.915502      18.393713      1.5217895     -1.0642278      210054.16    
    378000   0.85089448     0.0004664723  -0.00077085408  19.795801      18.583277      1.2125246     -1.0760501      210624.18    
    379000   0.7207261      0.0004664723  -0.00032411241  19.410122      18.383088      1.0270347     -1.144531       206129.21    
    380000   0.8592748      0.0004664723   0.0013730802   20.005127      18.780661      1.2244666     -0.90013566     204341.56    
    381000   1.0929668      0.0004664723   0.00054814431  19.812046      18.254568      1.5574777     -1.253927       207320.36    
    382000   0.83972323     0.0004664723   0.00029986242  19.81388       18.617274      1.1966056     -1.1833729      213499.44    
    383000   0.99629154     0.0004664723   0.00047015502  20.373466      18.953751      1.4197154     -0.90069414     207704.25    
    384000   1.496546       0.0004664723   7.0372379e-06  20.486266      18.353688      2.1325781     -1.1224952      209947.26    
    385000   0.62246545     0.0004664723  -0.00041275821  19.257975      18.370962      0.88701327    -1.2967577      211581.46    
    386000   0.92275691     0.0004664723   0.0023636026   20.049118      18.734189      1.3149286     -1.12989        204563.99    
    387000   1.1193702      0.0004664723  -0.0003403429   20.352203      18.757101      1.5951025     -0.91960214     204915.89    
    388000   1.2527146      0.0004664723  -0.00030699495  20.831926      19.046807      1.7851182     -0.76426706     207269.91    
    389000   1.1789299      0.0004664723   0.0014847164   20.198227      18.518252      1.6799752     -0.99627701     210269.3     
    390000   0.96292648     0.0004664723  -0.00091634673  20.522987      19.150817      1.3721702     -0.52756045     203724.7     
    391000   0.73531458     0.0004664723  -0.0011902089   19.855038      18.807215      1.0478233     -1.1155925      210978.16    
    392000   0.97675584     0.0004664723  -0.0011593802   19.9921        18.600223      1.3918771     -1.285786       206463.46    
    393000   0.91546597     0.0004664723  -0.0017878175   19.845443      18.540904      1.304539      -1.2307124      203979.56    
    394000   0.68338843     0.0004664723  -0.0016192202   20.04016       19.066332      0.97382851    -0.8573747      206691.77    
    395000   1.0156548      0.0004664723  -0.00036406766  20.448532      19.001224      1.4473082     -0.8216394      213458.79    
    396000   1.0265707      0.0004664723   0.0020040816   20.426571      18.963708      1.4628633     -0.92048655     205241.62    
    397000   0.73690067     0.0004664723   0.00019736377  19.924         18.873916      1.0500835     -0.82269418     207867.36    
    398000   1.1394416      0.0004664723  -0.0013018048   19.8504        18.226696      1.6237042     -1.2654958      205866.83    
    399000   1.100556       0.0004664723  -6.82998e-06    20.786083      19.217791      1.5682923     -0.53988421     209646.07    
    400000   1.1467741      0.0004664723  -0.00037167715  20.563343      18.92919       1.6341531     -0.58086489     205371.66    
    401000   0.78062207     0.0004664723  -0.00013150363  19.675322      18.562935      1.1123864     -1.1608005      207395.69    
    402000   1.0414432      0.0004664723  -0.00012720509  20.257123      18.773067      1.4840566     -0.90204889     201712.74    
    403000   1.328701       0.0004664723  -0.0021779233   21.12447       19.231071      1.893399      -0.76841076     213498.58    
    404000   1.1657818      0.0004664723  -0.00060613391  20.34092       18.679681      1.661239      -1.13541        212149.46    
    405000   0.71267385     0.0004664723  -0.00046254423  19.653949      18.638388      1.0155602     -1.203452       205993.89    
    406000   1.0179268      0.0004664723   0.00040095242  19.872529      18.421983      1.4505457     -1.0982643      207987.73    
    407000   1.3261117      0.0004664723  -0.0023492782   20.923906      19.034196      1.8897092     -0.85256606     208302.91    
    408000   1.075422       0.0004664723  -0.00014288641  20.698314      19.165838      1.5324763     -0.43135933     205516.26    
    409000   1.3795627      0.0004664723  -0.00067057571  20.429243      18.463366      1.9658768     -1.3646903      207254.44    
    410000   1.2085774      0.0004664723  -0.00023356244  20.751582      19.029359      1.7222228     -1.012899       205183.85    
    411000   0.90845966     0.0004664723  -0.0007194933   20.034768      18.740213      1.294555      -1.1151186      204878.9     
    412000   1.1863063      0.0004664723  -0.00061639086  20.565759      18.875273      1.6904864     -1.3141239      207575.51    
    413000   1.0427295      0.0004664723  -0.0001054706   20.625136      19.139247      1.4858895     -0.79412375     208822.81    
    414000   0.68408799     0.0004664723  -0.00024830047  19.959062      18.984237      0.97482539    -0.70079059     210581.6     
    415000   0.892607       0.0004664723   5.8233928e-05  19.693117      18.421152      1.271965      -1.0897228      206368.23    
    416000   1.2160096      0.0004664723  -0.00010620058  20.185478      18.452664      1.7328137     -1.0652271      208646       
    417000   1.0376301      0.0004664723   0.00064435838  20.642402      19.163779      1.4786228     -0.70970822     206767.16    
    418000   0.9342076      0.0004664723  -0.00043772267  20.242351      18.911106      1.3312458     -0.94363513     205994.74    
    419000   1.121549       0.0004664723  -0.0010603761   20.700071      19.101863      1.5982073     -0.77716197     206832.68    
    420000   1.044362       0.0004664723  -0.0016914334   20.867719      19.379503      1.4882159     -0.950824       197171.38    
    421000   0.74419918     0.0004664723  -0.00020415567  19.498241      18.437758      1.0604838     -1.0974124      207210.94    
    422000   1.1492955      0.0004664723   0.00013204219  20.249668      18.611922      1.6377461     -0.9993663      204164.8     
    423000   1.0430642      0.0004664723  -0.00025300718  19.997849      18.511483      1.4863665     -1.0789472      206927.9     
    424000   1.1296784      0.0004664723   0.00021919927  20.599407      18.989615      1.6097918     -0.63323862     204961.29    
    425000   1.0194467      0.0004664723   0.00024929013  20.080416      18.627705      1.4527115     -0.96164251     212791.76    
    426000   1.0666145      0.0004664723  -0.00090482452  20.519083      18.999158      1.5199257     -1.3606974      212530.68    
    427000   1.2281311      0.0004664723   0.0026843037   20.073292      18.323205      1.7500868     -1.4545953      209932.67    
    428000   1.0929983      0.0004664723  -0.001879219    20.488612      18.931089      1.5575226     -1.0661109      207421.54    
    429000   0.87601025     0.0004664723  -5.5564892e-05  20.432853      19.184538      1.2483146     -0.87251948     206121.52    
    430000   1.1093219      0.0004664723  -0.0014567241   19.76073       18.179946      1.5807836     -1.4339731      203075.66    
    431000   1.0320176      0.0004664723   0.0012617199   20.356382      18.885757      1.4706252     -0.72687807     212553.81    
    432000   0.75456791     0.0004664723  -0.0013670408   19.709217      18.633957      1.0752593     -0.85288991     208659.06    
    433000   0.98110028     0.0004664723  -0.0010531121   20.249489      18.851421      1.3980679     -0.71758626     208968.82    
    434000   0.89318932     0.0004664723  -0.00029789972  19.742897      18.470102      1.2727948     -1.3075748      211848.2     
    435000   1.1481641      0.0004664723   0.00045746224  20.422193      18.786059      1.6361338     -0.69700664     206431.03    
    436000   1.2156511      0.0004664723   0.0019072812   20.132437      18.400134      1.7323029     -1.1989003      215060.79    
    437000   0.75695398     0.0004664723   0.00014258401  19.799181      18.720521      1.0786594     -1.1531095      210218.29    
    438000   1.047547       0.0004664723   0.0010403194   19.602066      18.109311      1.4927544     -1.5198363      208639.47    
    439000   1.1872312      0.0004664723   0.00037242185  19.948538      18.256733      1.6918044     -1.3412783      214097.51    
    440000   1.4722124      0.0004664723  -0.00050942733  20.661365      18.563463      2.0979027     -0.97638329     208832.44    
    441000   1.2482417      0.0004664723  -0.0013094383   20.543082      18.764338      1.7787444     -1.0144473      207850.9     
    442000   1.2269328      0.0004664723   0.0011925498   19.976423      18.228044      1.7483792     -1.3639437      207625.63    
    443000   0.84040032     0.0004664723  -0.00067237924  20.451537      19.253967      1.1975705     -0.56759572     209135.63    
    444000   1.0801033      0.0004664723   0.0019984595   20.154393      18.615246      1.5391472     -1.2115337      209944.17    
    445000   1.1056197      0.0004664723   0.00037805549  20.044219      18.468711      1.5755081     -1.0988196      203439.06    
    446000   1.1973929      0.0004664723   0.0015270201   20.289277      18.582992      1.7062849     -1.1799136      205282.96    
    447000   0.88147403     0.0004664723   0.0010371495   19.376932      18.120831      1.2561005     -1.5459306      205205.36    
    448000   0.68959472     0.0004664723   0.0002437163   20.139906      19.157233      0.98267247    -0.81536917     211597.13    
    449000   1.0713419      0.0004664723   7.0201365e-05  20.324973      18.798311      1.5266622     -1.0163854      203415.01    
    450000   1.3791766      0.0004664723   8.7696349e-05  20.60628       18.640954      1.9653267     -1.2168526      201056.92    
    451000   1.0930482      0.0004664723   0.0008131515   20.054391      18.496798      1.5575936     -1.4665939      204806.98    
    452000   0.83061656     0.0004664723  -0.001771572    20.403859      19.220231      1.1836286     -1.0745508      213167.53    
    453000   0.72750692     0.0004664723   0.0013377807   19.671645      18.634948      1.0366974     -1.15796        210202.38    
    454000   0.83106551     0.0004664723  -0.0010385863   19.865399      18.681131      1.1842683     -0.87257868     218229.02    
    455000   1.1931268      0.0004664723  -0.00035201578  20.304801      18.604596      1.7002057     -0.91540249     206289.82    
    456000   0.74644941     0.0004664723  -0.00082363914  19.724136      18.660445      1.0636904     -1.0202087      202410.96    
    457000   1.1295717      0.0004664723  -0.00066412901  20.296228      18.686589      1.6096397     -1.0039892      204772.97    
    458000   1.1770858      0.0004664723   0.0029349388   20.44681       18.769463      1.6773472     -1.1680904      207923.2     
    459000   0.87939291     0.0004664723  -0.00064146734  19.748207      18.495072      1.2531349     -1.0335512      211223.26    
    460000   1.1642232      0.0004664723  -0.00023767938  20.402388      18.74337       1.659018      -1.009957       206960.45    
    461000   1.0264228      0.0004664723  -0.001134918    20.415932      18.95328       1.4626525     -1.0085169      215404.25    
    462000   0.72317979     0.0004664723  -0.00038759803  19.705125      18.674594      1.0305312     -1.0104655      204884.36    
    463000   1.2355331      0.0004664723  -0.0014140915   20.069473      18.308839      1.7606347     -1.2362737      208858.22    
    464000   1.0750891      0.0004664723  -0.00020582165  20.188913      18.656911      1.532002      -0.74622762     204689.81    
    465000   0.82978283     0.0004664723   0.00050433068  19.936551      18.754111      1.1824405     -1.0372677      208107.41    
    466000   0.88097256     0.0004664723   0.00027752568  20.041316      18.78593       1.2553859     -0.85928031     222202.52    
    467000   0.88710397     0.0004664723   7.9373315e-05  20.018064      18.753941      1.2641232     -0.82348033     206483.58    
    468000   0.72485071     0.0004664723  -0.0002590151   19.595922      18.56301       1.0329123     -1.1394749      213342.94    
    469000   0.94681896     0.0004664723  -0.0010580764   19.594948      18.245731      1.349217      -1.4032325      210549.14    
    470000   1.4353285      0.0004664723  -0.0010835544   20.872195      18.826852      2.045343      -1.0886058      204215.33    
    471000   0.86319542     0.0004664723   0.0010511011   19.533456      18.303403      1.2300535     -1.0952882      210357.41    
    472000   0.96445985     0.0004664723  -0.00084239757  20.111534      18.737179      1.3743553     -0.98405901     206537.79    
    473000   1.0981782      0.0004664723  -0.00083782789  20.333157      18.768253      1.564904      -0.77179862     206585.28    
    474000   1.0161421      0.0004664723   0.0019230486   20.077728      18.629726      1.4480024     -1.0852907      208977.55    
    475000   0.93248933     0.0004664723   0.00066804052  19.959784      18.630987      1.3287973     -0.9310832      205242.05    
    476000   1.1429305      0.0004664723   0.0025122054   20.840843      19.212167      1.628676      -0.59555857     206900.85    
    477000   0.73122114     0.0004664723  -0.0011359554   19.609204      18.567214      1.0419901     -1.1466836      207481.97    
    478000   1.0429958      0.0004664723  -0.00037276903  20.580931      19.094662      1.4862691     -0.95655573     210259.49    
    479000   0.74010409     0.0004664723   0.00010253046  19.388025      18.333377      1.0546483     -1.314138       207304.33    
    480000   0.85767005     0.0004664723  -0.0016939013   19.952165      18.729986      1.2221798     -1.0406639      200609.97    
    481000   1.034522       0.0004664723   0.00088128081  19.646199      18.172005      1.4741938     -1.3351601      207472.88    
    482000   1.1667951      0.0004664723  -0.00032200708  19.83106       18.168377      1.662683      -1.3915404      205865.14    
    483000   0.95890773     0.0004664723  -0.00047090352  20.24895       18.882506      1.3664435     -0.938393       203019.92    
    484000   1.1740455      0.0004664723  -0.00071435489  20.496854      18.823839      1.6730148     -0.71895017     206035.14    
    485000   1.2518747      0.0004664723  -0.0003523084   20.546279      18.762358      1.7839214     -0.86671834     203718.47    
    486000   0.95867077     0.0004664723  -0.00043175272  20.080578      18.714472      1.3661058     -0.87409868     200116.03    
    487000   0.91908935     0.0004664723   0.0014311331   20.111573      18.801871      1.3097023     -0.85641923     204685.62    
    488000   1.0152062      0.0004664723   0.001002399    20.687655      19.240986      1.4466688     -0.69573846     206560.87    
    489000   1.0585272      0.0004664723   0.00022785218  20.242083      18.733681      1.5084012     -1.0654167      204432.84    
    490000   0.76201227     0.0004664723  -0.00026571959  19.55927       18.473403      1.0858675     -1.1119305      205659.88    
    491000   0.92259151     0.0004664723   0.00070944217  19.862626      18.547933      1.3146929     -0.93941998     206526.7     
    492000   0.96920751     0.0004664723  -0.00015311759  20.310331      18.92921       1.3811207     -0.63825405     210062.54    
    493000   1.3170292      0.0004664723  -5.0314542e-07  20.945809      19.069042      1.8767666     -0.61464155     209779.19    
    494000   1.1298644      0.0004664723   0.0005762387   20.583101      18.973044      1.6100568     -0.92427292     209768.98    
    495000   1.4075011      0.0004664723   0.00054364452  20.386981      18.381292      2.005689      -1.1690473      205314.23    
    496000   1.307705       0.0004664723   0.00022459847  21.148756      19.285276      1.8634797     -0.78320423     205283       
    497000   1.174053       0.0004664723   0.00018006048  20.482088      18.809063      1.6730255     -0.87903937     203892.84    
    498000   0.68421799     0.0004664723   0.00031760449  19.899164      18.924153      0.97501064    -1.1462949      202280.47    
    499000   1.0575899      0.0004664723  -0.0006830687   20.438694      18.931628      1.5070656     -1.0710809      202948.52    
    500000   0.83234558     0.0004664723  -0.0019512348   19.822689      18.636596      1.1860925     -1.1720145      206837.81    
    501000   1.212798       0.0004664723   0.00072891514  20.361119      18.632882      1.7282372     -1.0123864      203792.5     
    502000   0.8327989      0.0004664723  -0.0006320881   20.019535      18.832797      1.1867384     -0.78481556     204220.79    
    503000   1.0055808      0.0004664723  -0.00050632865  19.961103      18.528151      1.4329526     -1.0598528      208331.16    
    504000   0.98171668     0.0004664723  -0.00070203138  20.079694      18.680747      1.3989463     -1.0625478      208561.88    
    505000   0.9034651      0.0004664723  -0.00025422464  20.127005      18.839567      1.2874378     -0.84597903     208638.6     
    506000   1.1667665      0.0004664723   0.00021486195  20.141389      18.478746      1.6626423     -1.0150542      209186.47    
    507000   0.64944965     0.0004664723   0.00039735996  20.258894      19.333428      0.92546576    -0.80184702     207909.76    
    508000   1.1893924      0.0004664723   0.0013514782   20.434174      18.73929       1.6948841     -1.0432489      208035.41    
    509000   0.75812933     0.0004664723   0.0012838549   19.57498       18.494646      1.0803343     -1.1750458      210547.37    
    510000   1.2963307      0.0004664723  -0.00033375306  20.704411      18.85714       1.8472713     -0.65652867     206476.68    
    511000   1.1388795      0.0004664723   0.00012061839  20.186047      18.563144      1.6229033     -1.1124001      209048.45    
    512000   0.79782999     0.0004664723   0.00029990382  19.846377      18.709469      1.1369077     -0.9527876      209006.51    
    513000   1.0873937      0.0004664723  -0.00021680904  20.0857        18.536164      1.549536      -1.2413719      210205.92    
    514000   0.83781685     0.0004664723  -0.001315495    20.094056      18.900167      1.193889      -0.71051243     208485.18    
    515000   0.94409621     0.0004664723  -0.00044462454  20.318598      18.973261      1.3453371     -0.72650352     209871.74    
    516000   1.1646628      0.0004664723   0.002287755    20.43073       18.771085      1.6596445     -0.92744838     208746.83    
    517000   1.0896252      0.0004664723   0.0002535816   20.363473      18.810757      1.552716      -0.84701208     207167.97    
    518000   0.85280499     0.0004664723   0.00023863484  19.289575      18.074328      1.2152471     -1.4635311      208846.79    
    519000   0.84690723     0.0004664723   0.000359718    19.993525      18.786682      1.2068428     -0.96606416     208999.91    
    520000   0.92415777     0.0004664723   0.0010327902   19.66125       18.344325      1.3169248     -1.1650841      205713.7     
    521000   1.0784199      0.0004664723   0.00038013387  20.318689      18.78194       1.5367483     -0.77127371     208312.5     
    522000   1.6777155      0.0004664723   0.0018056731   21.568183      19.177439      2.3907445     -0.82610868     206460.01    
    523000   1.125277       0.0004664723  -0.00072768453  20.333433      18.729913      1.6035197     -1.1630116      204181.93    
    524000   0.75547756     0.0004664723  -0.00062046242  19.972865      18.89631       1.0765555     -0.64452229     212187.77    
    525000   1.4100902      0.0004664723   0.0010242517   20.731643      18.722264      2.0093785     -0.74300869     197320.66    
    526000   0.88611283     0.0004664723  -0.00021768651  19.32085       18.058139      1.2627108     -1.2982721      204749.87    
    527000   0.98732131     0.0004664723  -0.00092062852  20.271444      18.864512      1.4069329     -0.93254112     205912.74    
    528000   0.68320882     0.0004664723  -0.00061913774  20.048088      19.074516      0.97357257    -0.92625555     202082.26    
    529000   0.76401179     0.0004664723  -0.00055623559  19.646823      18.558106      1.0887168     -1.0929899      206788.54    
    530000   1.0097767      0.0004664723  -0.0017728918   20.40315       18.964218      1.4389317     -0.93213558     206076.41    
    531000   1.1742108      0.0004664723  -0.0012385821   20.371364      18.698113      1.6732504     -1.0170687      202729.14    
    532000   1.3817419      0.0004664723   0.00093732596  20.537224      18.568242      1.9689822     -0.96087231     206061.12    
    533000   0.9147224      0.0004664723  -0.0011026576   20.111277      18.807797      1.3034794     -0.89634229     209111.53    
    534000   1.1309065      0.0004664723  -0.00074411978  20.452556      18.841014      1.6115418     -0.85509667     207228.2     
    535000   0.64567892     0.0004664723   0.0016766056   19.227092      18.306999      0.92009246    -1.2187543      209001.66    
    536000   1.3077299      0.0004664723   0.00020377113  20.85603       18.992515      1.8635151     -0.70482046     213589.91    
    537000   0.94902        0.0004664723   0.0025551365   19.79401       18.441656      1.3523535     -1.1001411      208911.06    
    538000   0.81638447     0.0004664723   0.00015072306  20.098614      18.935266      1.1633479     -0.73100839     209200.95    
    539000   0.88093251     0.0004664723   0.0014859238   20.214859      18.95953       1.2553288     -0.84708947     206100.24    
    540000   0.83206846     0.0004664723  -0.00042804835  19.761618      18.575921      1.1856976     -1.2418539      202661.68    
    541000   0.78900392     0.0004664723  -0.0014033199   20.119935      18.995605      1.1243306     -0.75571258     206340.09    
    542000   1.0280984      0.0004664723   0.00084514827  20.155921      18.690881      1.4650402     -0.92074779     205256.41    
    543000   0.69635537     0.0004664723   0.00014979954  19.694549      18.702242      0.9923064     -0.93036023     204382.2     
    544000   1.2177222      0.0004664723  -0.0023369513   20.919995      19.184741      1.7352542     -0.69030819     205631.46    
    545000   0.7870537      0.0004664723   0.00032428641  19.294641      18.173089      1.1215515     -1.4728205      204197.36    
    546000   0.9447532      0.0004664723  -0.0018889843   20.181482      18.835208      1.3462733     -0.89669029     200495.95    
    547000   0.98928154     0.0004664723   0.00091009726  19.635021      18.225294      1.4097262     -1.1676996      208341.58    
    548000   0.89471681     0.0004664723  -0.0010877139   20.261781      18.986809      1.2749715     -0.93576454     208315.93    
    549000   0.93043176     0.0004664723  -0.0017445473   20.263929      18.938064      1.3258653     -0.98032028     208228.96    
    550000   0.91517063     0.0004664723   0.00096738683  20.069339      18.765221      1.3041181     -1.0715809      204809.96    
    551000   1.4880628      0.0004664723   0.00060720742  20.479803      18.359314      2.1204895     -1.1033765      211899.47    
    552000   1.2310812      0.0004664723  -0.0018566547   20.489606      18.735315      1.7542907     -0.94939958     209174.69    
    553000   1.2140652      0.0004664723  -0.0011177397   20.821083      19.09104       1.7300428     -0.91678957     200909.96    
    554000   0.91567086     0.0004664723   0.00035555429  20.407685      19.102854      1.304831      -0.60425808     208123.91    
    555000   0.71184439     0.0004664723  -0.00055312968  19.770531      18.756153      1.0143783     -1.0051159      207960.95    
    556000   0.95607361     0.0004664723  -0.0013691479   19.842693      18.480288      1.3624049     -1.2001527      210005.99    
    557000   1.0175951      0.0004664723  -0.0013174636   19.684463      18.23439       1.450073      -1.3019816      208181.66    
    558000   0.96154342     0.0004664723   0.00149272     20.020283      18.650083      1.3701994     -1.1664545      207337.08    
    559000   0.95484932     0.0004664723   0.0017117672   19.797785      18.437125      1.3606603     -1.3616885      204928.53    
    560000   0.7659209      0.0004664723  -0.00042534713  19.952934      18.861497      1.0914373     -0.9364089      205620.89    
    561000   0.94042815     0.0004664723   0.001287769    20.035615      18.695504      1.3401101     -1.1915739      207866.89    
    562000   0.71684605     0.0004664723  -0.00047444587  19.512728      18.491223      1.0215056     -1.1738643      208577.11    
    563000   0.90048818     0.0004664723  -0.00020102695  19.675522      18.392326      1.2831957     -1.1242763      207951.79    
    564000   1.20155        0.0004664723  -0.0011516017   20.29331       18.581101      1.7122088     -1.1183445      207079.85    
    565000   0.96141136     0.0004664723   0.0021710858   19.990394      18.620383      1.3700112     -1.1509844      207132.31    
    566000   0.99321674     0.0004664723  -0.00073297124  20.22377       18.808436      1.4153339     -1.1274808      207124.55    
    567000   0.62382064     0.0004664723  -0.00083052489  19.990308      19.101364      0.88894442    -0.69715307     201553.86    
    568000   1.1261788      0.0004664723  -0.00089542099  20.39958       18.794775      1.6048047     -0.79068397     205537       
    569000   0.64977718     0.0004664723   0.0011129008   19.688856      18.762924      0.92593249    -0.88607742     207195.96    
    570000   1.6800338      0.0004664723   0.0018035234   21.050651      18.656602      2.3940482     -0.89417395     200199.16    
    571000   1.1739541      0.0004664723  -0.00071598223  20.335392      18.662507      1.6728846     -1.1994394      206391.7     
    572000   0.96480977     0.0004664723  -0.0024962602   20.382302      19.007448      1.3748539     -0.89719622     208608.09    
    573000   0.73399371     0.0004664723  -0.00025116748  19.878935      18.832994      1.045941      -0.81968607     207435.74    
    574000   1.0583699      0.0004664723  -0.00083936311  20.273429      18.765251      1.5081772     -0.79036738     204829.72    
    575000   1.0401074      0.0004664723  -0.00012803893  20.193434      18.711281      1.482153      -0.6482213      209342.67    
    576000   1.2297363      0.0004664723   0.00072099523  20.547723      18.795348      1.7523742     -0.73403962     205238.25    
    577000   0.99146415     0.0004664723   0.0012243108   19.828694      18.415858      1.4128364     -1.4677578      204308.12    
    578000   0.96231074     0.0004664723  -0.0016883535   20.279147      18.907854      1.3712928     -0.8694688      205170.75    
    579000   1.1093047      0.0004664723   0.00062180623  20.570463      18.989704      1.5807592     -0.63322244     202090.91    
    580000   1.2740197      0.0004664723  -0.00096821248  20.689747      18.874269      1.8154781     -0.79507357     201171.54    
    581000   0.9958063      0.0004664723   0.00033614117  20.773765      19.354741      1.419024      -0.65144484     206183.7     
    582000   1.6242226      0.0004664723   0.00027622246  20.626754      18.312237      2.3145172     -1.0855102      207296.16    
    583000   0.83527824     0.0004664723  -0.002552832    20.258738      19.068467      1.1902715     -1.0530985      207132.31    
    584000   1.131727       0.0004664723   0.0020221937   20.537873      18.925162      1.612711      -0.84997359     211443.8     
    585000   1.0234567      0.0004664723  -0.0012871073   19.674066      18.21564       1.4584259     -1.3204808      204975.7     
    586000   1.1317615      0.0004664723   0.00012039027  20.142964      18.530204      1.6127601     -0.9289549      204265.89    
    587000   1.0514373      0.0004664723  -0.001468374    20.103826      18.605528      1.4982981     -0.94117049     205258.1     
    588000   1.0389728      0.0004664723   0.00052302238  20.276311      18.795774      1.4805362     -1.0278542      206676.78    
    589000   1.0817211      0.0004664723  -0.0012363947   19.88167       18.340217      1.5414526     -1.3900662      207411.22    
    590000   0.98350646     0.0004664723   0.0012426633   20.221972      18.820475      1.4014967     -1.0801818      207173.55    
    591000   1.1104667      0.0004664723  -0.0015084344   19.99113       18.408715      1.582415      -1.3232236      206176       
    592000   1.1179957      0.0004664723   0.0019003954   20.079233      18.486089      1.5931438     -1.5900858      205268.63    
    593000   0.88796677     0.0004664723   0.0003501814   19.892472      18.62712       1.2653527     -1.1330588      204428.24    
    594000   1.0891672      0.0004664723  -0.00095615598  19.919872      18.367808      1.5520633     -1.1617774      204626.06    
    595000   1.3218838      0.0004664723   0.0013922277   20.989347      19.105662      1.8836844     -0.72838096     202131.8     
    596000   1.2466058      0.0004664723  -0.0006379131   20.368507      18.592094      1.7764132     -1.0225607      203250.13    
    597000   1.0881213      0.0004664723  -0.0006470876   20.152591      18.602018      1.5505729     -1.034058       201857.53    
    598000   0.91336686     0.0004664723  -0.00044958829  19.962825      18.661277      1.3015478     -0.85873858     204367.12    
    599000   0.74621004     0.0004664723  -0.00027485374  19.714997      18.651648      1.0633493     -0.92167831     205054.43    
    600000   1.3086176      0.0004664723  -0.0013925558   20.362735      18.497955      1.8647801     -1.3601381      202775.63    
    601000   0.82910733     0.0004664723  -0.00051490493  20.197517      19.016039      1.181478      -0.80443765     204824.22    
    602000   0.86260917     0.0004664723  -0.0024850564   20.362321      19.133102      1.2292181     -0.74519247     208660.45    
    603000   0.93038685     0.0004664723   0.00049040705  20.050745      18.724943      1.3258013     -0.94366514     204425.69    
    604000   0.67099319     0.0004664723   0.00080699969  19.976356      19.020191      0.9561653     -0.88883652     208201.69    
    605000   0.83613204     0.0004664723  -0.00044397678  20.451172      19.259684      1.1914882     -0.96487739     207272.06    
    606000   1.02312        0.0004664723  -0.00032732214  20.582658      19.124712      1.4579461     -0.9852475      209120.32    
    607000   0.85562555     0.0004664723  -0.0016528967   19.512207      18.29294       1.2192664     -1.2217603      207387.47    
    608000   0.95393592     0.0004664723  -0.00072419021  20.317474      18.958116      1.3593587     -0.62954816     202637       
    609000   0.84220796     0.0004664723   0.00042232975  19.966725      18.766578      1.2001463     -0.77294146     204740.19    
    610000   0.48391713     0.0004664723   0.00090209715  18.927061      18.237479      0.68958191    -1.2421867      207288.47    
    611000   1.0326653      0.0004664723   0.00049467297  20.314144      18.842596      1.4715481     -0.77770909     215707.71    
    612000   1.0774727      0.0004664723   0.00030815759  20.682568      19.14717       1.5353985     -0.70979264     204094.21    
    613000   0.98424697     0.0004664723  -0.002136754    20.22852       18.825968      1.4025519     -1.0970115      206258.67    
    614000   0.76097309     0.0004664723   0.00085157891  19.436461      18.352075      1.0843866     -1.1938555      208420.31    
    615000   1.1123442      0.0004664723  -0.00020464286  20.407788      18.822698      1.5850905     -0.89526259     207000.85    
    616000   1.2386843      0.0004664723   0.0024303332   20.39877       18.633644      1.7651252     -0.95760125     207299.64    
    617000   1.1577017      0.0004664723   0.0013238135   20.360531      18.710806      1.649725      -1.0592237      208772.15    
    618000   1.2174391      0.0004664723  -0.00039740936  20.906575      19.171724      1.7348508     -0.58107462     211738.08    
    619000   1.0529453      0.0004664723  -0.0003458304   20.158782      18.658335      1.500447      -0.77971345     206869.56    
    620000   0.86938302     0.0004664723   0.0011588833   19.903647      18.664776      1.2388708     -1.0448491      211561.27    
    621000   1.2858568      0.0004664723   0.00036013821  20.506574      18.674228      1.832346      -0.98765121     214176.61    
    622000   0.70240897     0.0004664723   0.0012508455   19.741503      18.74057       1.0009328     -0.98912607     206127.04    
    623000   0.93696835     0.0004664723  -0.001551484    20.728886      19.393706      1.3351799     -0.64637511     212149.46    
    624000   0.68555783     0.0004664723  -0.0010086495   19.366421      18.389501      0.97691991    -1.2350179      212370.14    
    625000   0.9194205      0.0004664723   3.4754668e-06  19.713475      18.403301      1.3101742     -1.0281413      206087.49    
    626000   0.84022919     0.0004664723  -0.0012282457   19.877088      18.679762      1.1973266     -0.87213486     216657.31    
    627000   0.76674015     0.0004664723   0.00070749148  20.233737      19.141132      1.0926047     -0.62495603     204410.65    
    628000   0.71652664     0.0004664723   0.0015956137   19.693161      18.672111      1.0210505     -1.0059095      221191.62    
    629000   0.78625251     0.0004664723  -0.001086263    19.536863      18.416453      1.1204098     -1.1293896      221072.6     
    630000   1.3472901      0.0004664723   0.00017665983  20.554995      18.635107      1.9198884     -0.88602399     216491.45    
    631000   1.1569508      0.0004664723   0.00010008306  19.993496      18.344841      1.6486549     -1.1681208      220551.76    
    632000   0.73958304     0.0004664723  -0.0020277787   20.523802      19.469896      1.0539058     -0.51242794     223670.56    
    633000   0.88187682     0.0004664723   0.00056850321  19.790653      18.533978      1.2566745     -1.2578715      221836.62    
    634000   0.98472445     0.0004664723  -0.00094224985  20.280555      18.877322      1.4032323     -0.88061099     224739.71    
    635000   1.2337565      0.0004664723   0.00047715372  20.626343      18.86824       1.758103      -0.93100178     223672.92    
    636000   1.0025659      0.0004664723   0.0015722926   20.045491      18.616835      1.4286565     -1.0799876      218145.14    
    637000   0.94272578     0.0004664723   0.0024948808   19.695401      18.352017      1.3433842     -1.2313105      220872.98    
    638000   1.2396435      0.0004664723   0.00043334622  20.465862      18.69937       1.766492      -1.2501158      223695.53    
    639000   1.1643141      0.0004664723   0.00016052359  20.339548      18.6804        1.6591477     -0.75661932     219512.41    
    640000   1.0252809      0.0004664723   3.9133758e-05  19.80555       18.344525      1.4610253     -1.1048371      208653.4     
    641000   0.77763645     0.0004664723   0.00038477359  20.08773       18.979598      1.1081319     -0.68448345     224650.14    
    642000   1.2533378      0.0004664723   0.00052072209  20.238014      18.452008      1.7860063     -0.92437282     210753.62    
    643000   0.93640235     0.0004664723  -0.00012348516  20.225552      18.891178      1.3343734     -0.62261549     208433.38    
    644000   1.2776549      0.0004664723  -0.00052935823  21.075925      19.255267      1.8206582     -0.56749435     213044.27    
    645000   1.1598256      0.0004664723   0.0017205546   20.520974      18.868223      1.6527515     -0.62695897     220579.06    
    646000   1.016638       0.0004664723   0.0014693643   20.347978      18.899269      1.4487092     -0.91848521     217605.36    
    647000   0.81096181     0.0004664723  -0.00023912384  19.999977      18.844357      1.1556206     -0.89520889     212132.76    
    648000   0.8963585      0.0004664723   0.00067970086  20.104788      18.827477      1.2773109     -0.84666024     223237.76    
    649000   0.87965682     0.0004664723   0.00075584453  19.59278       18.339269      1.253511      -1.2495828      221979.72    
    650000   0.75418733     0.0004664723   0.00053870193  19.816676      18.741959      1.0747169     -0.96697803     216813.97    
    651000   1.6343986      0.0004664723   5.5250038e-05  20.763526      18.434508      2.329018      -1.2484639      214065.01    
    652000   0.72509979     0.0004664723  -0.00054506017  19.67787       18.644603      1.0332672     -1.330974       209714.35    
    653000   0.71303742     0.0004664723   0.00051148251  19.329075      18.312997      1.0160783     -1.3853384      209801.15    
    654000   0.88939212     0.0004664723   0.00012381045  19.929129      18.661745      1.2673838     -0.72772892     214922.27    
    655000   1.220352       0.0004664723  -0.001320562    20.216322      18.47732       1.7390016     -1.2780724      221239.23    
    656000   1.0942726      0.0004664723  -0.00085820401  20.026519      18.467181      1.5593385     -1.3795972      224575.83    
    657000   0.99351383     0.0004664723   0.00095108789  19.949275      18.533518      1.4157572     -1.2947075      218846.3     
    658000   0.97278586     0.0004664723   0.00024138494  19.409525      18.023305      1.3862199     -1.4460063      224953.91    
    659000   1.2759124      0.0004664723  -0.0013838264   19.911555      18.093379      1.8181752     -1.3572106      220491.95    
    660000   1.1609056      0.0004664723  -0.00011181992  20.672868      19.018577      1.6542905     -0.72860672     209966.26    
    661000   0.73053183     0.0004664723  -0.00018761664  19.568543      18.527535      1.0410079     -1.1439952      226173.73    
    662000   0.94645462     0.0004664723  -0.002138286    19.932321      18.583623      1.3486978     -1.293985       226320.94    
    663000   0.91077711     0.0004664723  -9.0077367e-05  19.519508      18.221651      1.2978574     -1.3707019      222191.66    
    664000   0.98634126     0.0004664723  -0.0029090935   20.081038      18.675502      1.4055363     -1.0757143      225191.5     
    665000   1.0305825      0.0004664723   0.0023084663   20.087061      18.618481      1.46858       -1.0738425      226615.39    
    666000   0.64653687     0.0004664723  -0.0018190889   20.005608      19.084293      0.92131503    -0.75170442     221279.87    
    667000   1.3992168      0.0004664723  -0.00044462182  20.771055      18.777171      1.9938839     -0.7266952      220368.29    
    668000   1.1486303      0.0004664723   8.7238212e-05  20.556193      18.919395      1.6367981     -0.85783518     217661.77    
    669000   1.1318458      0.0004664723  -0.00017842945  20.346529      18.733649      1.6128802     -0.8763238      223713.1     
    670000   0.95287128     0.0004664723   0.00097531121  19.787634      18.429792      1.3578416     -1.3289498      216691.63    
    671000   1.070979       0.0004664723  -0.00080923251  20.472036      18.945891      1.5261451     -1.0356168      224048.06    
    672000   1.5240005      0.0004664723   0.00072636526  20.710047      18.538347      2.1717007     -1.0024421      214648.65    
    673000   1.0121103      0.0004664723  -0.00020249067  20.32189       18.879633      1.4422572     -0.74914455     211014.27    
    674000   1.3232602      0.0004664723  -0.00083386254  20.098787      18.213141      1.8856458     -1.3209613      221991.1     
    675000   1.2512963      0.0004664723  -0.0017924911   20.713963      18.930866      1.7830972     -1.065786       225058.91    
    676000   0.84984769     0.0004664723  -0.00011943574  20.172588      18.961555      1.211033      -0.79763397     225422.32    
    677000   1.0743773      0.0004664723  -0.00092828269  20.072536      18.541549      1.5309877     -1.2266119      224655.24    
    678000   0.94370384     0.0004664723  -0.00062159266  20.40776       19.062982      1.344778      -0.85296032     222458.57    
    679000   1.0212508      0.0004664723  -0.0015362149   20.34744       18.892158      1.4552824     -0.670632       220315.27    
    680000   0.73545091     0.0004664723  -0.0011293253   19.950243      18.902225      1.0480175     -0.95464547     221000.68    
    681000   1.032274       0.0004664723   1.7642549e-05  20.047936      18.576945      1.4709904     -0.99411951     221453.63    
    682000   0.7339738      0.0004664723   0.00072242001  19.647955      18.602043      1.0459127     -1.1480714      218075.06    
    683000   0.80939168     0.0004664723   0.0016536673   19.943875      18.790491      1.1533832     -0.7865799      217481.09    
    684000   0.91467997     0.0004664723  -0.00056117832  19.9232        18.619781      1.303419      -0.99293264     210437.22    
    685000   1.0106989      0.0004664723  -0.00092690831  19.907563      18.467317      1.440246      -1.4135463      209401.98    
    686000   0.64391807     0.0004664723   0.0008985525   19.524511      18.606928      0.91758325    -1.2171574      207822.31    
    687000   1.1505799      0.0004664723  -0.00064482518  20.497663      18.858087      1.6395763     -0.78941948     218639.74    
    688000   0.95609747     0.0004664723   0.00069120255  19.797534      18.435095      1.3624389     -1.0892539      223195.75    
    689000   1.2142343      0.0004664723   0.00017854487  21.106373      19.376089      1.7302839     -0.47735246     216770.26    
    690000   0.81604401     0.0004664723  -0.00067115452  19.592886      18.430023      1.1628627     -1.2422848      200537.84    
    691000   0.89171206     0.0004664723   0.0014947662   20.343632      19.072942      1.2706897     -0.64984539     208796.12    
    692000   1.3308713      0.0004664723  -0.0012063455   20.493639      18.597147      1.8964916     -1.2290376      209693.19    
    693000   1.0277248      0.0004664723   0.0011694105   20.480005      19.015498      1.4645078     -0.97511929     211446.53    
    694000   0.87387152     0.0004664723   6.5608203e-05  20.163688      18.918421      1.2452669     -0.68471767     207399.99    
    695000   1.1178091      0.0004664723  -8.3944852e-05  20.073685      18.480807      1.5928779     -1.0731331      207058.37    
    696000   1.001828       0.0004664723  -0.00032098597  19.783367      18.355762      1.4276048     -1.4274812      206379.82    
    697000   1.0293606      0.0004664723   0.0004755648   19.823179      18.356341      1.4668388     -1.2565931      212386.91    
    698000   0.87049565     0.0004664723   0.001395863    20.163925      18.923468      1.2404563     -0.97054732     208583.2     
    699000   1.3305361      0.0004664723  -0.0010857965   21.034096      19.138082      1.896014      -0.89236827     209701.99    
    700000   0.92963558     0.0004664723  -0.00011717957  20.183619      18.858889      1.3247307     -0.86242596     202385.93    
    701000   0.93612312     0.0004664723   0.00026138063  20.564088      19.230113      1.3339754     -0.5981996      202015.26    
    702000   1.2570201      0.0004664723   0.00071229172  20.352374      18.561121      1.7912537     -1.0780798      204618.9     
    703000   0.97040163     0.0004664723  -0.0013440768   20.497663      19.114841      1.3828223     -1.1005013      203349.9     
    704000   1.0645011      0.0004664723   0.00086068985  20.644666      19.127752      1.5169141     -1.0353666      203745.49    
    705000   1.3310832      0.0004664723  -0.00029674481  20.655232      18.758438      1.8967936     -1.2043348      199499.3     
    706000   1.088938       0.0004664723   0.0012876415   20.239042      18.687305      1.5517367     -1.0181418      209974.64    
    707000   0.95575116     0.0004664723  -0.0012749329   20.11879       18.756844      1.3619454     -1.132751       209874.86    
    708000   0.94449604     0.0004664723   0.0012184442   19.776398      18.430491      1.3459069     -1.2195448      207290.19    
    709000   1.2532878      0.0004664723   0.0018896097   20.501785      18.71585       1.7859351     -0.84890821     206456.22    
    710000   0.93906691     0.0004664723  -4.9304509e-05  19.719336      18.381166      1.3381704     -1.1441843      202600.33    
    711000   1.0807414      0.0004664723   0.00099892254  20.38854       18.848484      1.5400565     -0.88230512     205771.35    
    712000   0.86703411     0.0004664723   0.00012847847  19.689331      18.453808      1.2355236     -1.2943173      207497.03    
    713000   1.0248312      0.0004664723  -0.00069977884  19.928998      18.468613      1.4603845     -1.2613874      203969.91    
    714000   0.93738488     0.0004664723   0.00070431505  19.800682      18.464908      1.3357734     -1.1467186      204465.95    
    715000   1.028901       0.0004664723  -0.0016552383   20.226458      18.760274      1.466184      -1.1071687      206609.61    
    716000   1.2969712      0.0004664723   0.0022562148   20.490017      18.641833      1.8481839     -1.1150655      210208.61    
    717000   1.0384653      0.0004664723   0.00082892149  20.202277      18.722464      1.479813      -0.99312671     209553.19    
    718000   1.0482106      0.0004664723   0.00084353825  20.276241      18.782541      1.4937        -0.94028389     211341.74    
    719000   1.2675722      0.0004664723  -0.00010672788  20.517769      18.711479      1.8062903     -0.87666486     205805.78    
    720000   0.90252084     0.0004664723   1.6822513e-05  20.205256      18.919163      1.2860922     -0.6387851      195569.26    
    721000   1.2535298      0.0004664723   0.00051280606  20.515144      18.728864      1.7862799     -0.91053422     209941.93    
    722000   1.112767       0.0004664723  -0.0014110397   20.197176      18.611483      1.5856929     -1.1171173      205680.61    
    723000   1.476568       0.0004664723   1.5743844e-05  21.324737      19.220628      2.1041094     -0.59925482     201799.57    
    724000   1.0199924      0.0004664723   0.0017116167   19.89732       18.443831      1.4534892     -1.2751309      204506.97    
    725000   1.2916048      0.0004664723   0.00057652401  20.532649      18.692112      1.8405368     -0.91622628     203820.83    
    726000   1.107416       0.0004664723  -0.00019406861  20.311248      18.73318       1.5780678     -0.81147386     209072.19    
    727000   0.9227874      0.0004664723   0.00033750042  20.246415      18.931443      1.3149721     -1.0975118      225402.91    
    728000   1.1561623      0.0004664723   0.00032148108  19.970122      18.32259       1.6475313     -1.1543085      219184.62    
    729000   1.124573       0.0004664723   0.0011047935   20.343578      18.741062      1.6025165     -1.0921979      216370.83    
    730000   1.1761999      0.0004664723  -0.00040232412  20.236699      18.560614      1.6760849     -1.1326555      216814.01    
    731000   0.79744909     0.0004664723   0.0006091078   20.193011      19.056646      1.136365      -0.54819235     216289.26    
    732000   1.0354577      0.0004664723  -0.00014188386  20.12248       18.646953      1.4755272     -0.90104496     215176.67    
    733000   1.1259411      0.0004664723   5.9764761e-05  20.488341      18.883875      1.6044661     -0.77850805     212295.61    
    734000   1.0902033      0.0004664723   0.00015932771  19.739591      18.186051      1.5535396     -1.3981218      211746.15    
    735000   0.81153212     0.0004664723  -0.0012428965   19.623547      18.467114      1.1564333     -1.1416782      215296.93    
    736000   0.8773986      0.0004664723  -0.00089940321  19.732935      18.482642      1.250293      -1.1012353      206866.99    
    737000   0.97872891     0.0004664723   0.0015434772   20.188196      18.793508      1.3946887     -0.85530068     208016.33    
    738000   0.75635587     0.0004664723   0.00098609205  19.54742       18.469613      1.0778071     -1.206759       204258.8     
    739000   1.224344       0.0004664723   0.00051941525  19.809186      18.064496      1.7446902     -1.3678237      203446.55    
    740000   0.7623183      0.0004664723   0.00098682263  19.417808      18.331505      1.0863036     -1.2348367      204910.43    
    741000   1.0874694      0.0004664723  -0.00046914814  20.421391      18.871747      1.5496439     -0.87849385     206248.46    
    742000   0.9122207      0.0004664723   0.00020983441  19.996811      18.696896      1.2999145     -0.8685138      193406.16    
    743000   0.67264645     0.0004664723  -0.00019820469  19.463935      18.505414      0.95852119    -1.0550421      209340.87    
    744000   1.0289579      0.0004664723  -0.00081450774  20.29288       18.826615      1.466265      -0.89938218     210743       
    745000   1.0071673      0.0004664723   2.8629801e-05  20.48638       19.051167      1.4352134     -0.99605816     209985.66    
    746000   1.0625999      0.0004664723   0.0010998226   19.813281      18.299076      1.5142049     -1.206693       220353.19    
    747000   0.95682865     0.0004664723  -0.0010261659   20.055928      18.692447      1.3634808     -1.1145568      218592.28    
    748000   0.7689727      0.0004664723   9.1325678e-05  19.874176      18.77839       1.0957861     -0.77091442     211724.18    
    749000   0.79095631     0.0004664723   0.00076730805  19.558885      18.431772      1.1271127     -1.2698798      219825.15    
    750000   1.2232417      0.0004664723  -0.00023376965  20.330498      18.587378      1.7431195     -1.0379647      213964.02    
    751000   0.94792186     0.0004664723  -0.0028055564   20.86703       19.516241      1.3507887     -0.67328009     224878.89    
    752000   1.2456053      0.0004664723   0.00049125651  20.729364      18.954377      1.7749876     -0.80491988     223129.02    
    753000   0.80409116     0.0004664723   0.00073404134  19.882584      18.736754      1.1458299     -0.85301371     217427.56    
    754000   1.0228806      0.0004664723  -2.2790805e-05  20.266765      18.80916       1.4576049     -0.7453273      220558.14    
    755000   1.0374495      0.0004664723   0.0006267328   20.132476      18.654111      1.4783655     -1.0760179      219650.55    
    756000   0.84248181     0.0004664723   0.00063131322  19.993681      18.793144      1.2005366     -0.96044565     211884.2     
    757000   0.80164453     0.0004664723   0.00029154989  20.072215      18.929872      1.1423435     -0.8101112      211867.95    
    758000   1.2686704      0.0004664723   0.002755842    20.486782      18.678926      1.8078553     -1.0132027      225338.96    
    759000   0.96156497     0.0004664723  -0.00024659971  20.184763      18.814533      1.3702301     -0.93061442     216368.91    
    760000   0.79945317     0.0004664723  -0.00012859083  19.745312      18.606091      1.1392208     -1.0954194      205112.13    
    761000   1.1768363      0.0004664723  -0.0013243802   20.471322      18.794331      1.6769918     -0.86682823     212449.72    
    762000   0.65160762     0.0004664723   0.0013951073   19.133733      18.205192      0.92854085    -1.3297628      204894.44    
    763000   0.89372706     0.0004664723  -0.00037182596  19.911612      18.638051      1.2735611     -1.1717671      207039.08    
    764000   1.2665708      0.0004664723   0.0009664362   20.77122       18.966357      1.8048634     -0.7158542      206687.07    
    765000   1.089647       0.0004664723   0.0021503866   19.956227      18.40348       1.5527469     -1.4000203      207035.61    
    766000   0.76332333     0.0004664723  -0.0018097315   20.062547      18.974811      1.0877357     -0.80071753     201157.01    
    767000   0.70574293     0.0004664723  -0.00073365172  19.410994      18.40531       1.0056837     -1.3254955      204926.39    
    768000   0.94482189     0.0004664723   0.00041461888  19.706432      18.360061      1.3463712     -1.2355487      207680.05    
    769000   1.011265       0.0004664723  -0.00087106804  20.066691      18.625638      1.4410526     -1.1394494      202821.04    
    770000   0.98794645     0.0004664723  -0.0012657153   19.906979      18.499156      1.4078237     -0.93935268     206698.22    
    771000   1.1851231      0.0004664723   0.00064932242  20.41448       18.72568       1.6888004     -0.99994197     203133.91    
    772000   0.89650789     0.0004664723   0.002291383    19.541526      18.264002      1.2775237     -1.2374947      208831.09    
    773000   1.0193916      0.0004664723  -0.00037109876  19.966193      18.51356       1.452633      -1.1075276      208011.57    
    774000   0.67547168     0.0004664723  -0.0010087867   20.003998      19.04145       0.96254714    -0.53631676     218541.07    
    775000   0.85363184     0.0004664723  -0.0011100989   19.839152      18.622727      1.2164254     -1.1466281      212594.07    
    776000   0.58651363     0.0004664723  -0.0011901822   20.094199      19.258417      0.83578192    -0.58702434     213739.98    
    777000   1.0893389      0.0004664723  -0.00037897229  19.928776      18.376468      1.552308      -1.2206838      204707.45    
    778000   0.95577148     0.0004664723  -0.0017240387   20.082993      18.721018      1.3619744     -1.0284624      207242.8     
    779000   1.186016       0.0004664723   0.0013481144   20.540369      18.850297      1.6900728     -0.79040131     216083.25    
    780000   0.9432141      0.0004664723   0.0008910622   19.874172      18.530092      1.3440801     -1.0434378      204922.19    
    781000   1.2196815      0.0004664723   0.00064610765  20.806232      19.068185      1.7380461     -0.47514177     216518.59    
    782000   1.2462831      0.0004664723  -0.00043262048  20.91553       19.139577      1.7759535     -0.61862652     209345.34    
    783000   0.64792623     0.0004664723  -0.001269849    19.83072       18.907426      0.92329488    -0.90616066     206692.62    
    784000   0.99995085     0.0004664723   0.0013137423   20.648586      19.223656      1.42493       -0.42230914     211617.37    
    785000   0.94163889     0.0004664723  -0.0010240597   20.076918      18.735083      1.3418354     -0.62326144     222681.44    
    786000   1.1118482      0.0004664723   0.00038371539  19.813548      18.229164      1.5843836     -1.3304041      211304.63    
    787000   1.0852105      0.0004664723   0.00069966134  19.844808      18.298383      1.546425      -1.2806497      216074.33    
    788000   0.89397568     0.0004664723   0.00061640085  20.291891      19.017976      1.2739154     -0.71489955     201331.04    
    789000   1.2804566      0.0004664723  -0.00052849521  20.895094      19.070444      1.8246507     -0.78188895     206025.38    
    790000   0.79826371     0.0004664723   8.9155632e-05  19.449292      18.311767      1.1375258     -1.4671185      205640.34    
    791000   1.1920148      0.0004664723   0.00055149412  20.286275      18.587654      1.6986211     -1.1302566      208958.34    
    792000   1.2331244      0.0004664723  -0.0010359098   20.459936      18.702734      1.7572023     -1.282909       209926.9     
    793000   1.1427707      0.0004664723   0.001418339    20.203222      18.574774      1.6284482     -1.1852006      205919.99    
    794000   1.1140082      0.0004664723   0.00018658528  20.347005      18.759543      1.5874616     -1.0795387      206190.46    
    795000   1.0853997      0.0004664723   0.0016857774   20.136681      18.589986      1.5466946     -1.0000515      205075.5     
    796000   1.5870593      0.0004664723  -0.00080991824  20.561661      18.300101      2.2615595     -1.3278384      205845.22    
    797000   1.3471612      0.0004664723  -0.00057929699  20.654536      18.734831      1.9197047     -0.77254552     207550.95    
    798000   0.8880802      0.0004664723   0.00029416543  19.73031       18.464795      1.2655143     -1.2339498      205918.26    
    799000   0.94797453     0.0004664723   0.00097938632  20.05642       18.705557      1.3508637     -1.1070952      206987.1     
    800000   0.92825382     0.0004664723  -0.0019100412   20.382557      19.059796      1.3227617     -0.64935926     205936.96    
    801000   1.132593       0.0004664723   0.00073611545  20.088614      18.474669      1.613945      -1.2383355      204381.74    
    802000   1.194744       0.0004664723  -0.0005748275   20.181514      18.479003      1.7025102     -1.1162259      207222.62    
    803000   1.1169739      0.0004664723  -0.00027565668  20.466125      18.874437      1.5916879     -0.88320961     205926.74    
    804000   0.84919322     0.0004664723   0.0012148033   19.892619      18.682519      1.2101003     -0.95730419     211494.92    
    805000   0.84601139     0.0004664723  -0.00039325776  19.506724      18.301157      1.2055662     -1.2735806      208571.93    
    806000   0.75829672     0.0004664723  -0.0019931874   20.202563      19.12199       1.0805728     -0.6873994      212874.7     
    807000   1.1763179      0.0004664723   0.00030992394  20.108314      18.432061      1.676253      -1.1415928      207395.26    
    808000   0.79132358     0.0004664723   5.2303695e-06  19.763989      18.636353      1.1276361     -1.1992705      210031.66    
    809000   1.1962169      0.0004664723  -0.00026799893  20.467985      18.763376      1.7046091     -1.178809       199371.74    
    810000   0.96933743     0.0004664723  -0.000996162    19.902637      18.521331      1.3813058     -1.3473574      204558.55    
    811000   0.88368725     0.0004664723  -0.0025859645   19.872148      18.612893      1.2592543     -1.1082811      205146.72    
    812000   0.92628718     0.0004664723   0.00015798479  19.59294       18.272981      1.3199592     -1.4611736      203881.99    
    813000   0.77155788     0.0004664723   0.00051648862  19.433951      18.334481      1.09947       -1.3151661      205676       
    814000   1.0101916      0.0004664723   8.4102574e-05  19.959517      18.519994      1.4395231     -1.2186043      209432.24    
    815000   0.78933784     0.0004664723   0.0016314931   19.424124      18.299318      1.1248064     -1.2981514      223982.73    
    816000   0.75848879     0.0004664723   0.0031739865   19.723758      18.642911      1.0808465     -1.0624902      211933.2     
    817000   0.90699493     0.0004664723  -0.0017082347   20.256161      18.963694      1.2924678     -1.0745938      210855.61    
    818000   1.3742872      0.0004664723   0.00035387119  20.167475      18.209116      1.9583592     -1.414251       219921.55    
    819000   1.1784014      0.0004664723   3.6435894e-05  20.747688      19.068466      1.679222      -0.68280991     214380.38    
    820000   1.1414147      0.0004664723  -0.00021394988  20.401376      18.77486       1.6265159     -1.3057924      213342.03    
    821000   0.72960729     0.0004664723   0.0011188516   19.533601      18.493911      1.0396904     -1.283618       217201.82    
    822000   1.0137803      0.0004664723   0.00023634452  19.746292      18.301655      1.444637      -1.2634354      207909.37    
    823000   1.2485278      0.0004664723   0.0012990906   20.517746      18.738594      1.7791521     -0.92743344     211095.03    
    824000   0.9866737      0.0004664723  -0.00017505097  20.102537      18.696527      1.40601       -1.1237976      213936.05    
    825000   0.85739693     0.0004664723   0.00079556119  19.913358      18.691567      1.2217906     -1.133455       206998.24    
    826000   1.2408593      0.0004664723   0.001388607    20.119566      18.351342      1.7682245     -1.1922202      212639.01    
    827000   0.76027472     0.0004664723   0.00023322489  19.638786      18.555395      1.0833915     -0.97797523     207689.11    
    828000   0.90540829     0.0004664723  -0.00026237278  19.614044      18.323837      1.2902068     -1.2404274      202623       
    829000   1.0568196      0.0004664723  -0.0010071861   20.651642      19.145674      1.5059679     -0.67045278     206033.02    
    830000   1.2251397      0.0004664723   0.00015080882  20.808319      19.062495      1.745824      -0.62217208     204205.7     
    831000   1.1688566      0.0004664723   0.002673146    20.355965      18.690345      1.6656206     -0.98429066     201162.23    
    832000   0.9383887      0.0004664723   0.0016709528   20.192165      18.854961      1.3372039     -0.99013472     206196.88    
    833000   0.94455713     0.0004664723  -0.000163631    19.874269      18.528275      1.3459939     -1.1487399      198962.85    
    834000   0.77250341     0.0004664723  -0.00085984665  20.024081      18.923264      1.1008174     -0.88050742     200310.84    
    835000   0.92705128     0.0004664723   0.00041848709  20.298726      18.977678      1.3210481     -0.53709752     201586.77    
    836000   0.80703428     0.0004664723  -0.0022734961   20.863523      19.713499      1.1500239     -0.4132184      207405.24    
    837000   0.87212966     0.0004664723  -0.0011430828   20.599683      19.356899      1.2427848     -0.46533263     218804.97    
    838000   0.98248006     0.0004664723   0.00082850543  19.792733      18.392699      1.4000341     -1.1454408      225569.57    
    839000   0.95478579     0.0004664723   0.0011994207   20.153264      18.792695      1.3605697     -0.84932451     220361.49    
    840000   1.072741       0.0004664723  -0.0015899046   20.040175      18.511519      1.528656      -1.157009       203080.2     
    841000   1.1189605      0.0004664723   0.00020300277  19.939987      18.345469      1.5945187     -1.1866767      210549.1     
    842000   1.2496166      0.0004664723  -0.0010731061   20.916655      19.135952      1.7807037     -0.36585275     221914.5     
    843000   1.0206957      0.0004664723  -0.00075526746  20.296254      18.841762      1.4544914     -0.68743314     220371.69    
    844000   0.75642883     0.0004664723   0.001413421    19.226873      18.148962      1.0779111     -1.4148474      215262.59    
    845000   0.91839694     0.0004664723  -0.0017097119   20.062107      18.753391      1.3087156     -0.89837671     218462.05    
    846000   0.97319918     0.0004664723   0.00015196438  20.235046      18.848237      1.3868088     -0.8293467      222408.6     
    847000   0.92967076     0.0004664723  -0.0010819584   20.124522      18.799741      1.3247808     -0.82475268     216085.96    
    848000   0.93416597     0.0004664723   0.00073242749  19.729742      18.398556      1.3311865     -1.1173746      215545.21    
    849000   1.2359861      0.0004664723  -0.00061164867  20.636178      18.874897      1.7612802     -0.88076985     219603.14    
    850000   1.1600109      0.0004664723  -0.00079876726  20.211697      18.558681      1.6530155     -1.126118       212823.92    
    851000   1.1076637      0.0004664723  -0.0007134827   20.302218      18.723797      1.5784207     -1.244896       224416.32    
    852000   0.89213889     0.0004664723  -0.0010868212   19.895944      18.624646      1.2712979     -1.3939841      221752.35    
    853000   1.0017432      0.0004664723  -0.0020049506   19.728795      18.301311      1.4274841     -1.3831184      225199.56    
    854000   0.95950646     0.0004664723   0.00072396367  19.950766      18.583469      1.3672967     -0.85158986     222548.38    
    855000   0.94906433     0.0004664723   0.0014443879   20.073017      18.7206        1.3524167     -0.70460069     226646.77    
    856000   0.89716815     0.0004664723  -0.00080885148  20.168299      18.889834      1.2784646     -0.8927381      223858.63    
    857000   1.23419        0.0004664723  -6.4684381e-05  21.214231      19.45551       1.7587208     -0.72785823     224794.87    
    858000   1.1306114      0.0004664723   0.00061937648  20.651575      19.040454      1.6111213     -0.79622738     207957.84    
    859000   0.90678915     0.0004664723  -0.00059934942  19.834971      18.542797      1.2921745     -1.2041254      213825.07    
    860000   1.0061511      0.0004664723  -0.00093878964  20.366058      18.932293      1.4337653     -0.91391368     219826.17    
    861000   1.0515287      0.0004664723   0.0012675087   20.059084      18.560656      1.4984284     -0.98285533     225257.59    
    862000   0.94078668     0.0004664723  -0.00099383633  20.159483      18.818862      1.340621      -0.94352821     225298.14    
    863000   0.7312319      0.0004664723  -0.00039633108  19.848257      18.806252      1.0420055     -0.75904175     226287.55    
    864000   1.1755989      0.0004664723   0.0011773457   20.087289      18.412061      1.6752284     -1.217159       212899.31    
    865000   1.1378426      0.0004664723  -0.00097661949  20.222703      18.601278      1.6214256     -1.1076881      221512.64    
    866000   0.87664743     0.0004664723   0.001435284    20.456713      19.20749       1.2492226     -0.78987438     224103.4     
    867000   0.76590933     0.0004664723   0.00017234654  19.583674      18.492253      1.0914208     -1.1675798      224109.42    
    868000   0.85189382     0.0004664723   0.0010529478   20.143849      18.929901      1.2139487     -0.97256781     226002.69    
    869000   1.2957315      0.0004664723   0.00044242874  20.656547      18.81013       1.8464174     -0.76769881     225629.78    
    870000   1.2384972      0.0004664723  -0.00024747835  20.39606       18.631202      1.7648585     -0.91574116     222111.56    
    871000   1.0131705      0.0004664723  -0.00084893345  20.263307      18.819539      1.443768      -0.89008528     220754.3     
    872000   1.1270217      0.0004664723   0.00033748598  20.393256      18.78725       1.606006      -0.8997523      220811.92    
    873000   0.83082519     0.0004664723   0.00038034462  20.357604      19.173678      1.1839259     -0.80599499     219789.83    
    874000   0.82281602     0.0004664723  -0.00037832266  19.478959      18.306446      1.1725128     -1.4441671      222079.94    
    875000   0.89868919     0.0004664723   0.0014772202   20.163705      18.883073      1.2806321     -0.91623981     223793.85    
    876000   0.94715828     0.0004664723  -0.00065987536  20.224997      18.875296      1.3497005     -0.64297467     220730.38    
    877000   1.1777183      0.0004664723  -0.0010939942   21.163054      19.484805      1.6782486     -0.73544455     213729.42    
    878000   1.3179791      0.0004664723   0.00024501586  20.408608      18.530488      1.8781202     -1.0085183      225462.62    
    879000   0.72471542     0.0004664723   9.3666505e-06  20.083104      19.050385      1.0327195     -0.66467873     222591.53    
    880000   0.77329276     0.0004664723   1.6595423e-05  19.752461      18.650519      1.1019422     -1.114037       220708.41    
    881000   0.85879718     0.0004664723  -0.0010567952   19.656681      18.432895      1.223786      -1.2384689      222867.9     
    882000   1.4819294      0.0004664723   0.00021500014  20.366992      18.255243      2.1117493     -1.3785119      221383.47    
    883000   0.86949878     0.0004664723  -0.00060246971  19.811285      18.57225       1.2390358     -1.0425404      226308.14    
    884000   1.1673869      0.0004664723  -0.00053117579  20.392938      18.729412      1.6635263     -1.1473508      220857.28    
    885000   0.94651487     0.0004664723  -0.00025466521  20.878102      19.529318      1.3487837     -0.79431902     209427.5     
    886000   0.74086434     0.0004664723   0.00055778893  19.667403      18.611671      1.0557317     -1.2669428      215947.6     
    887000   0.99485253     0.0004664723  -0.00067906619  20.157277      18.739612      1.4176649     -1.1382879      220260.34    
    888000   1.0033287      0.0004664723  -0.00070172279  19.783648      18.353904      1.4297433     -1.3855604      210296.67    
    889000   1.0928182      0.0004664723   0.00062911033  20.008123      18.450858      1.5572659     -1.1217333      209351.92    
    890000   0.81176237     0.0004664723  -0.00024188493  20.3641        19.207339      1.1567614     -1.0437377      208031.56    
    891000   1.0579787      0.0004664723   0.00031756489  19.821109      18.313489      1.5076196     -1.3194651      204125.12    
    892000   1.3253995      0.0004664723  -0.00015396839  21.030295      19.141601      1.8886943     -0.81687701     217877.46    
    893000   1.0386381      0.0004664723  -0.0001947055   20.434142      18.954083      1.4800594     -1.025959       215964.86    
    894000   1.0189678      0.0004664723   0.0011784345   19.715171      18.263141      1.4520292     -1.3858225      211319.86    
    895000   1.3925135      0.0004664723   0.0013813773   20.57784       18.593509      1.9843317     -0.92774131     199357.07    
    896000   0.75305307     0.0004664723   0.0014955628   19.76086       18.687759      1.0731006     -0.92059738     203313.89    
    897000   1.2288606      0.0004664723   0.0014801246   20.006873      18.255747      1.7511263     -1.2345506      203487.57    
    898000   0.79741369     0.0004664723  -0.00031290551  19.28424       18.147926      1.1363145     -1.2550416      206762.84    
    899000   0.80047469     0.0004664723   0.0012769862   19.518561      18.377885      1.1406764     -1.1755528      207048.94    
    900000   1.17665        0.0004664723   0.00024936053  20.123813      18.447087      1.6767262     -1.0774065      202314.56    
    901000   0.65128658     0.0004664723   0.00066773584  19.856113      18.92803       0.92808337    -0.93826692     205227.68    
    902000   0.923698       0.0004664723   0.0007612863   20.399904      19.083634      1.3162696     -0.80592348     208585.85    
    903000   1.0573526      0.0004664723  -0.0004797692   20.049948      18.54322       1.5067275     -1.1847073      206586.94    
    904000   1.1977331      0.0004664723  -0.00027210795  20.53726       18.830491      1.7067696     -0.83708219     207163.25    
    905000   1.2625392      0.0004664723  -3.444348e-05   20.537133      18.738015      1.7991184     -1.024745       202627.92    
    906000   1.2325089      0.0004664723  -0.00064789681  20.750832      18.994506      1.7563251     -0.82083129     204167.67    
    907000   1.0475155      0.0004664723  -0.00043690522  19.978154      18.485445      1.4927096     -1.0987818      205250.93    
    908000   0.97525495     0.0004664723  -7.8342366e-05  20.551123      19.161385      1.3897383     -0.67408472     206452.38    
    909000   0.95167573     0.0004664723  -0.00013486023  20.118049      18.761911      1.3561379     -0.79925244     202598.28    
    910000   0.76991391     0.0004664723  -0.00020302738  19.78039       18.683263      1.0971273     -1.2437429      201081.58    
    911000   1.1379727      0.0004664723   0.0010482607   20.649219      19.027608      1.6216111     -0.80014674     206210.95    
    912000   1.0235325      0.0004664723  -0.00066558549  20.260331      18.801797      1.4585339     -0.82342457     204508.22    
    913000   0.98184373     0.0004664723  -0.00039894472  20.309924      18.910796      1.3991273     -0.71694799     196677.6     
    914000   1.1396065      0.0004664723  -0.0022887894   20.618011      18.994072      1.6239393     -0.74489351     202964.54    
    915000   1.0494617      0.0004664723  -0.00047160869  20.866187      19.370704      1.495483      -0.70925796     200619.23    
    916000   0.9830165      0.0004664723   0.0010562101   20.627047      19.226248      1.4007985     -0.70789612     203500.82    
    917000   1.1813575      0.0004664723  -0.00079237324  20.494457      18.811023      1.6834344     -0.86317157     207556.12    
    918000   0.88678612     0.0004664723   0.001562882    20.442801      19.179131      1.2636702     -0.45342627     207945.69    
    919000   0.88029526     0.0004664723  -0.00079733833  20.287362      19.032941      1.2544207     -0.68081548     208475.66    
    920000   1.193052       0.0004664723   0.00031899047  20.508099      18.808         1.7000991     -0.83548798     204855.78    
    921000   0.88099176     0.0004664723   0.00023161174  20.318446      19.063032      1.2554133     -0.50230197     210476.29    
    922000   1.3870629      0.0004664723   0.0011319609   20.579207      18.602642      1.9765646     -0.89607643     208422.04    
    923000   1.1830092      0.0004664723  -0.0015390248   20.490504      18.804716      1.6857881     -1.1378177      207030.51    
    924000   1.0269031      0.0004664723  -0.0016199147   20.848525      19.385188      1.4633369     -0.59969775     203614.15    
    925000   0.79379738     0.0004664723   0.0012454674   19.836563      18.705402      1.1311613     -0.92971613     203874.14    
    926000   1.1441676      0.0004664723   0.0014290538   20.417487      18.787048      1.6304389     -1.0010156      204960.54    
    927000   1.5101729      0.0004664723  -0.00081304665  21.052862      18.900866      2.1519964     -0.78532209     208368.97    
    928000   1.0759252      0.0004664723   0.00080676643  20.445366      18.912172      1.5331933     -0.70350196     201864.87    
    929000   1.0214455      0.0004664723   0.0013529621   20.006835      18.551275      1.4555599     -1.0567608      198515.23    
    930000   0.61919772     0.0004664723   0.0006526283   19.959959      19.077602      0.88235675    -0.84566341     197394.04    
    931000   1.290419       0.0004664723  -0.00065261355  21.301751      19.462904      1.838847      -0.54368309     200633.76    
    932000   1.0899004      0.0004664723  -0.00014228371  20.756386      19.203278      1.5531081     -0.66163751     201841.15    
    933000   0.91261794     0.0004664723  -0.00087546147  19.930441      18.629961      1.3004806     -1.2111233      205466.81    
    934000   0.90957267     0.0004664723   0.0012703798   19.63105       18.334909      1.2961411     -1.1331789      205457.95    
    935000   0.80442113     0.0004664723   0.0010325442   19.843313      18.697013      1.1463001     -1.031812       206865.66    
    936000   1.2435857      0.0004664723   2.2261422e-05  20.427671      18.655562      1.7721096     -1.0285225      206811.67    
    937000   1.228206       0.0004664723   9.5172965e-05  20.875595      19.125402      1.7501936     -0.61213169     206522.9     
    938000   1.1389183      0.0004664723  -0.00011737662  20.619683      18.996724      1.6229586     -0.82477103     209287.38    
    939000   1.1389515      0.0004664723   0.0013876705   20.725464      19.102458      1.6230059     -0.85022321     205916.14    
    940000   0.87715477     0.0004664723   0.0009377989   19.605612      18.355666      1.2499455     -1.0787942      203202.97    
    941000   0.78191033     0.0004664723   0.0014261058   19.643176      18.528954      1.1142222     -1.115628       207699.5     
    942000   0.98555326     0.0004664723   0.00029786565  20.15483       18.750416      1.4044134     -1.1918034      204603.83    
    943000   0.9874715      0.0004664723   5.6334539e-05  20.246657      18.83951       1.4071469     -0.89639868     205306.18    
    944000   0.86452179     0.0004664723  -0.0013498575   20.263203      19.031259      1.2319435     -0.69233307     207146.47    
    945000   0.6039219      0.0004664723  -0.0021450206   20.329025      19.468437      0.8605887     -0.59525879     210758.06    
    946000   1.106092       0.0004664723   2.9939682e-05  20.060599      18.484418      1.5761811     -1.2044112      207729.79    
    947000   1.192308       0.0004664723   0.00077112679  20.854327      19.155288      1.6990388     -0.63325628     207474.99    
    948000   0.60019036     0.0004664723  -0.00057531772  19.477692      18.62242       0.85527127    -1.0834596      208579.72    
    949000   0.95414368     0.0004664723   0.00016757095  20.374159      19.014504      1.3596547     -0.87883074     207010.71    
    950000   1.127592       0.0004664723   0.00060628248  20.065204      18.458385      1.6068187     -1.245009       208446.89    
    951000   1.0184759      0.0004664723   0.00051340406  21.071516      19.620188      1.4513282     -0.44578813     205356.9     
    952000   1.0585191      0.0004664723   0.0011455254   20.151605      18.643215      1.5083897     -1.2268529      203252.2     
    953000   1.0420934      0.0004664723  -0.001789876    20.099576      18.614593      1.4849831     -1.216589       204281.79    
    954000   1.0043419      0.0004664723   0.00087515024  20.072128      18.640941      1.4311872     -0.999496       209352.75    
    955000   0.67159366     0.0004664723   0.0012994607   19.81893       18.861909      0.95702097    -0.96720417     205185.95    
    956000   1.1382689      0.0004664723   0.0010001994   19.818404      18.196371      1.6220332     -1.2199602      206023.68    
    957000   1.0355429      0.0004664723  -0.00014435848  20.066613      18.590964      1.4756487     -1.0716485      208764.26    
    958000   1.0584267      0.0004664723   0.0012475483   19.842315      18.334057      1.5082581     -1.2736407      208773.89    
    959000   0.9517862      0.0004664723   0.00023585119  20.265321      18.909025      1.3562953     -0.70299697     209699.83    
    960000   0.83008206     0.0004664723  -0.00110188     20.117993      18.935126      1.1828669     -0.76884009     210470.97    
    961000   0.94225002     0.0004664723   0.0010847174   20.348863      19.006157      1.3427063     -1.1112152      209248.71    
    962000   1.1544046      0.0004664723   0.0013668776   19.993791      18.348765      1.6450266     -1.3725992      210334.84    
    963000   0.80042177     0.0004664723   0.0018557381   19.705738      18.565137      1.140601      -1.1504473      205757.38    
    964000   1.1104505      0.0004664723  -0.00025190081  20.281148      18.698756      1.5823919     -0.85471427     206192.58    
    965000   0.97970836     0.0004664723   0.00042402798  20.234519      18.838435      1.3960844     -0.84957045     208998.21    
    966000   1.195202       0.0004664723  -0.0018182127   20.898515      19.195352      1.7031629     -1.0023607      208672.6     
    967000   0.91669236     0.0004664723   0.00051383177  20.012652      18.706366      1.3062866     -0.78933873     206705.01    
    968000   0.82060671     0.0004664723   1.6809434e-05  19.399791      18.230427      1.1693646     -1.3216882      178098.51    
    969000   0.97908916     0.0004664723  -0.00024354999  20.146991      18.751789      1.395202      -0.95769211     204691.49    
    970000   1.0964873      0.0004664723  -0.00028259734  19.903495      18.341         1.5624945     -1.0598233      206009.21    
    971000   1.3335975      0.0004664723  -0.0011323216   21.033815      19.133439      1.9003764     -0.78025691     202325.24    
    972000   0.93552475     0.0004664723  -0.00065280049  20.319104      18.985982      1.3331228     -0.86648549     203181.46    
    973000   1.1441593      0.0004664723   0.0010844206   20.02849       18.398063      1.630427      -1.3584171      202533.78    
    974000   1.0076068      0.0004664723  -0.0020278952   20.391809      18.95597       1.4358396     -1.0561885      207091       
    975000   0.91824617     0.0004664723   0.00019690898  20.546146      19.237645      1.3085008     -0.74211764     205714.97    
    976000   0.93304582     0.0004664723  -0.0014759786   20.096497      18.766907      1.3295903     -1.0383039      202539.89    
    977000   0.87939165     0.0004664723   0.00011886243  19.812159      18.559025      1.2531331     -1.0394283      205727.75    
    978000   1.0439657      0.0004664723  -0.00020475764  19.847916      18.360265      1.4876511     -1.1775067      207244.95    
    979000   1.0052098      0.0004664723   0.00060456582  19.946883      18.514459      1.4324239     -1.042767       207139.18    
    980000   0.89654334     0.0004664723   0.00046143281  19.962838      18.685264      1.2775743     -0.91343461     202771.11    
    981000   0.87105159     0.0004664723   0.00022436703  19.402971      18.161723      1.2412485     -1.496602       204212.45    
    982000   1.3747996      0.0004664723   0.00086597101  20.710058      18.750968      1.9590895     -0.74521422     205998.51    
    983000   1.2303238      0.0004664723   0.0014685464   20.205866      18.452654      1.7532114     -1.2783912      202939       
    984000   0.92429854     0.0004664723   0.002258125    19.723405      18.406279      1.3171254     -1.1645906      207450.89    
    985000   0.75593492     0.0004664723   0.00059398979  19.604258      18.527051      1.0772073     -1.4238432      206857.49    
    986000   0.90964931     0.0004664723  -0.00020328469  20.361576      19.065326      1.2962503     -0.8247823      209172.07    
    987000   1.2152142      0.0004664723  -7.0205634e-05  20.378202      18.646521      1.7316802     -1.127115       208358.55    
    988000   0.91866409     0.0004664723  -0.00016853578  20.277721      18.968624      1.3090963     -1.0029236      206768.87    
    989000   1.016683       0.0004664723  -0.00029239593  20.398644      18.949871      1.4487733     -0.85670955     210987.91    
    990000   0.78636607     0.0004664723  -0.00137609     20.268508      19.147936      1.1205716     -0.82115189     201842.01    
    991000   0.91110735     0.0004664723   0.00026042091  19.865355      18.567027      1.298328      -1.192788       205351.42    
    992000   0.89259658     0.0004664723   0.0003684773   20.000308      18.728358      1.2719501     -1.0068174      205859.21    
    993000   1.3421458      0.0004664723  -0.00034542978  20.28798       18.375422      1.9125578     -1.3241065      207019.32    
    994000   1.2585224      0.0004664723   0.0014616371   20.359244      18.56585       1.7933945     -0.99483249     208094.85    
    995000   1.4894604      0.0004664723   0.00092809914  20.703659      18.581178      2.1224811     -1.0420524      209514.03    
    996000   1.2467137      0.0004664723  -0.00085931306  20.208502      18.431935      1.776567      -1.2754618      208749.83    
    997000   0.99904252     0.0004664723  -0.00027534391  20.326765      18.90313       1.4236356     -1.0608806      206180.72    
    998000   1.1099675      0.0004664723  -0.00015654785  19.898741      18.317037      1.5817037     -1.2103343      202897.29    
    999000   0.93390237     0.0004664723   0.0011550371   20.156448      18.825637      1.3308109     -0.89732976     203230.31    
   1000000   0.89850034     0.0004664723  -0.00067691358  20.245465      18.965102      1.280363      -0.76401234     203840.39    
Loop time of 4.78307 on 1 procs for 1000000 steps with 20 atoms

Performance: 90318579.314 tau/day, 209070.785 timesteps/s
98.7% CPU use with 1 MPI tasks x 1 OpenMP threads

MPI task timing breakdown:
Section |  min time  |  avg time  |  max time  |%varavg| %total
---------------------------------------------------------------
Pair    | 2.1241     | 2.1241     | 2.1241     |   0.0 | 44.41
Bond    | 0.30813    | 0.30813    | 0.30813    |   0.0 |  6.44
Neigh   | 0.57857    | 0.57857    | 0.57857    |   0.0 | 12.10
Comm    | 0.66763    | 0.66763    | 0.66763    |   0.0 | 13.96
Output  | 0.081018   | 0.081018   | 0.081018   |   0.0 |  1.69
Modify  | 0.77436    | 0.77436    | 0.77436    |   0.0 | 16.19
Other   |            | 0.2493     |            |       |  5.21

Nlocal:             20 ave          20 max          20 min
Histogram: 1 0 0 0 0 0 0 0 0 0
Nghost:             64 ave          64 max          64 min
Histogram: 1 0 0 0 0 0 0 0 0 0
Neighs:            171 ave         171 max         171 min
Histogram: 1 0 0 0 0 0 0 0 0 0

Total # of neighbors = 171
Ave neighs/atom = 8.55
Ave special neighs/atom = 1.9
Neighbor list builds = 83442
Dangerous builds = 21705

write_data      ${outputfile_assembled} nofix nocoeff
write_data      4_assembled.data nofix nocoeff
System init for write_data ...
Generated 0 of 6 mixed pair_coeff terms from geometric mixing rule

Total wall time: 0:00:05
