LAMMPS (23 Jun 2022 - Update 1)
OMP_NUM_THREADS environment is not set. Defaulting to 1 thread. (src/comm.cpp:98)
  using 1 OpenMP thread(s) per MPI task


variable        runtime equal 1000000
variable		subsample_rate equal 1000

variable		outputfile_created string '3_created.data'
variable		outputfile_relaxed string '5_relaxed.data'
variable		outputfile_selfasb string '6_a_self_assemble.lammpstrj'
variable		outputfile_trajlin string '6_b_trajlin.data'
variable		outputfile_assembled string '7_assembled.data'

units           lj
atom_style      full
dimension       3
boundary        p p p
timestep        0.005

read_data       ${outputfile_created}
read_data       3_created.data
Reading data file ...
  orthogonal box = (0 0 0) to (35 35 35)
  1 by 1 by 1 MPI processor grid
  reading atoms ...
  100 atoms
  reading velocities ...
  100 velocities
  scanning bonds ...
  1 = max bonds/atom
  reading bonds ...
  99 bonds
Finding 1-2 1-3 1-4 neighbors ...
  special bond factors lj:    0        0        0       
  special bond factors coul:  0        0        0       
     2 = max # of 1-2 neighbors
     2 = max # of 1-3 neighbors
     4 = max # of 1-4 neighbors
     6 = max # of special neighbors
  special bonds CPU = 0.000 seconds
  read_data CPU = 0.006 seconds

bond_style      fene
bond_coeff      * 30.0 1.5 1.0 1.0
special_bonds   fene
Finding 1-2 1-3 1-4 neighbors ...
  special bond factors lj:    0        1        1       
  special bond factors coul:  0        1        1       
     2 = max # of 1-2 neighbors
     6 = max # of special neighbors
  special bonds CPU = 0.000 seconds

variable        Temp equal 1.0
variable        velSeed equal 926458

velocity        all create ${Temp} ${velSeed}
velocity        all create 1 ${velSeed}
velocity        all create 1 926458

### Output
thermo_style    custom step temp density press etotal pe ke epair spcpu
thermo          1000

###########################################################################
# Soft relaxation (to remove overlaps of particles)
######################################################################

pair_style      soft 1.0
pair_coeff      * * 0.0
variable        prefactor equal ramp(0,300)
fix             rampSoft all adapt 1 pair soft a * * v_prefactor

minimize        0.0 1.0e-8 1000 100000
WARNING: Using 'neigh_modify every 1 delay 0 check yes' setting during minimization (src/min.cpp:187)
Generated 0 of 6 mixed pair_coeff terms from geometric mixing rule
Neighbor list info ...
  update every 1 steps, delay 0 steps, check yes
  max neighbors/atom: 2000, page size: 100000
  master list distance cutoff = 1.3
  ghost atom cutoff = 1.3
  binsize = 0.65, bins = 54 54 54
  1 neighbor lists, perpetual/occasional/extra = 1 0 0
  (1) pair soft, perpetual
      attributes: half, newton on
      pair build: half/bin/newton
      stencil: half/bin/3d
      bin: standard
WARNING: Communication cutoff 1.3 is shorter than a bond length based estimate of 1.7550000000000001. This may lead to errors. (src/comm.cpp:727)
Per MPI rank memory allocation (min/avg/max) = 8.346 | 8.346 | 8.346 Mbytes
   Step          Temp         Density         Press          TotEng         PotEng         KinEng         E_pair         S/CPU     
         0   1              0.0023323615  -0.0039617958   21.524174      20.039174      1.485          0              0            
       362   1              0.0023323615   0.0023090379   21.485548      20.000548      1.485          0              66999.852    
Loop time of 0.00540537 on 1 procs for 362 steps with 100 atoms

99.0% CPU use with 1 MPI tasks x 1 OpenMP threads

Minimization stats:
  Stopping criterion = force tolerance
  Energy initial, next-to-last, final = 
      20.0391741078675   20.0005480767337   20.0005480767337
  Force two-norm initial, final = 11.878422 7.9509778e-09
  Force max component initial, final = 6.6117807 1.3572772e-09
  Final line search alpha, max atom move = 1 1.3572772e-09
  Iterations, force evaluations = 362 738

MPI task timing breakdown:
Section |  min time  |  avg time  |  max time  |%varavg| %total
---------------------------------------------------------------
Pair    | 0.00021467 | 0.00021467 | 0.00021467 |   0.0 |  3.97
Bond    | 0.0023233  | 0.0023233  | 0.0023233  |   0.0 | 42.98
Neigh   | 0.001665   | 0.001665   | 0.001665   |   0.0 | 30.80
Comm    | 0.00018911 | 0.00018911 | 0.00018911 |   0.0 |  3.50
Output  | 0          | 0          | 0          |   0.0 |  0.00
Modify  | 0          | 0          | 0          |   0.0 |  0.00
Other   |            | 0.001013   |            |       | 18.75

Nlocal:            100 ave         100 max         100 min
Histogram: 1 0 0 0 0 0 0 0 0 0
Nghost:             20 ave          20 max          20 min
Histogram: 1 0 0 0 0 0 0 0 0 0
Neighs:              0 ave           0 max           0 min
Histogram: 1 0 0 0 0 0 0 0 0 0

Total # of neighbors = 0
Ave neighs/atom = 0
Ave special neighs/atom = 1.98
Neighbor list builds = 17
Dangerous builds = 0

fix             nvtSoft all nvt temp ${Temp} ${Temp} 0.5
fix             nvtSoft all nvt temp 1 ${Temp} 0.5
fix             nvtSoft all nvt temp 1 1 0.5
run             100000
Generated 0 of 6 mixed pair_coeff terms from geometric mixing rule
WARNING: Communication cutoff 1.3 is shorter than a bond length based estimate of 1.7550000000000001. This may lead to errors. (src/comm.cpp:727)
Per MPI rank memory allocation (min/avg/max) = 7.221 | 7.221 | 7.221 Mbytes
   Step          Temp         Density         Press          TotEng         PotEng         KinEng         E_pair         S/CPU     
       362   1              0.0023323615   0.0023090379   21.485548      20.000548      1.485          0              0            
      1000   0.90989032     0.0023323615  -0.0021940042   21.776974      20.425787      1.3511871      0.00036425437  71285.609    
      2000   0.86546688     0.0023323615   0.0034714157   21.677128      20.39191       1.2852183      0.0025814786   74034.989    
      3000   0.98199538     0.0023323615   0.0028144228   21.866132      20.407869      1.4582631      0.0011756043   72894.145    
      4000   1.004495       0.0023323615  -0.0014058211   21.945624      20.453949      1.4916751      0.011986179    74196.68     
      5000   1.1222705      0.0023323615   0.0044495116   21.986385      20.319813      1.6665718      0.0050317639   72443.594    
      6000   1.0538243      0.0023323615   0.0023957538   21.985713      20.420784      1.564929       0.012100514    74951.181    
      7000   1.0210598      0.0023323615  -0.00038820026  21.904665      20.388391      1.5162738      0              77249.086    
      8000   0.94819751     0.0023323615   0.0024943091   21.747889      20.339816      1.4080733      0              77233.073    
      9000   0.92364502     0.0023323615   0.0020053029   21.724166      20.352554      1.3716129      1.7780894e-05  75915.382    
     10000   0.86685188     0.0023323615   0.00078277366  21.644879      20.357604      1.287275       0.0098636418   76086.384    
     11000   1.0057103      0.0023323615   0.00010113276  21.8558        20.362321      1.4934798      0.020705341    76324.167    
     12000   0.97901664     0.0023323615  -0.0026996968   21.871206      20.417366      1.4538397      0.0052928539   75935.189    
     13000   0.97718436     0.0023323615  -6.1641422e-06  21.963706      20.512587      1.4511188      0.025022446    75524.771    
     14000   1.0530014      0.0023323615  -0.0009993112   21.947994      20.384287      1.5637071      0.0020860456   75293.012    
     15000   0.99094527     0.0023323615   0.0011068478   21.895146      20.423592      1.4715537      0.0015091113   76384.274    
     16000   0.91285091     0.0023323615  -0.00025424173  21.87524       20.519657      1.3555836      0.0047853639   75935.824    
     17000   0.82806978     0.0023323615  -0.00054698156  21.701984      20.472301      1.2296836      0              76149.828    
     18000   1.043278       0.0023323615  -6.6143919e-05  22.003299      20.454031      1.5492679      0.0034319132   76895.412    
     19000   1.0879249      0.0023323615  -0.0017804642   21.998985      20.383416      1.6155685      0.015376175    75585.453    
     20000   1.1144506      0.0023323615   0.0025198298   22.190904      20.535944      1.6549592      0              76710.848    
     21000   1.0427751      0.0023323615   0.0011345349   22.099492      20.550971      1.548521       0.00040047813  76857.334    
     22000   1.0586695      0.0023323615   0.0017882747   22.05673       20.484606      1.5721242      0              76368.845    
     23000   1.0058426      0.0023323615  -0.0055245362   21.954628      20.460951      1.4936763      0.0027619031   75687.359    
     24000   0.98273442     0.0023323615   0.0015147357   21.862067      20.402707      1.4593606      0              75947.15     
     25000   0.95835343     0.0023323615   0.0017808774   21.937761      20.514606      1.4231548      0.00020839942  75412.359    
     26000   0.93993778     0.0023323615  -0.0021777292   21.884849      20.489042      1.3958076      0.0088889834   76089.574    
     27000   0.9308188      0.0023323615  -0.00011239942  21.842252      20.459986      1.3822659      0.021612409    75203.265    
     28000   1.0149581      0.0023323615   0.0041996387   21.906846      20.399633      1.5072129      0.0064059022   75972.064    
     29000   0.92841138     0.0023323615  -2.5398808e-05  21.987185      20.608494      1.3786909      0.0046112484   75799.036    
     30000   1.021043       0.0023323615   0.001589158    22.097958      20.581709      1.5162489      0.016799508    73811.393    
     31000   1.0465985      0.0023323615  -0.0021744286   22.037917      20.483718      1.5541987      0.0057879149   76361.777    
     32000   0.98907108     0.0023323615  -0.0015558606   22.044089      20.575318      1.4687705      0.009448173    75874.232    
     33000   1.0918536      0.0023323615  -0.0025643847   22.039275      20.417873      1.6214025      0              74830.595    
     34000   0.99801543     0.0023323615   0.0016279766   21.932339      20.450286      1.4820529      0.017384617    77123.146    
     35000   1.0352271      0.0023323615  -0.0052971711   22.076004      20.538692      1.5373122      0.00010473809  76022.751    
     36000   1.1141579      0.0023323615  -0.00093279925  22.222491      20.567966      1.6545245      0.00033678641  77140.732    
     37000   1.0369415      0.0023323615   0.00013065175  22.217841      20.677983      1.5398581      0.013788831    76301.123    
     38000   1.0515596      0.0023323615   0.0021717558   22.070766      20.5092        1.561566       0.0067894678   76660.885    
     39000   1.0238495      0.0023323615   0.00026414509  22.040141      20.519725      1.5204165      0.00044464649  75741.75     
     40000   1.0749111      0.0023323615  -0.0026849368   22.039327      20.443084      1.596243       0.012651334    74326.133    
     41000   0.99070886     0.0023323615  -0.0030385564   22.03241       20.561207      1.4712027      0.00092855646  77452.477    
     42000   0.95315224     0.0023323615   0.0019788197   21.965263      20.549832      1.4154311      0.020233689    75845.407    
     43000   1.0644183      0.0023323615  -0.0011168725   22.287172      20.706511      1.5806611      0.039694129    75910.357    
     44000   1.0253747      0.0023323615  -0.006676522    22.066233      20.543552      1.5226814      0              74646.803    
     45000   0.94179556     0.0023323615  -0.0047206018   21.970644      20.572077      1.3985664      0.019869988    75036.824    
     46000   1.0083495      0.0023323615  -0.0017646918   21.972114      20.474715      1.497399       0.00026040605  75372.61     
     47000   0.98767959     0.0023323615  -0.00080218158  22.091674      20.62497       1.4667042      0.024266258    75317.556    
     48000   1.1473449      0.0023323615  -0.0025885687   22.080512      20.376705      1.7038072      0.00065962995  75523.288    
     49000   1.0679312      0.0023323615   0.0017688272   21.970482      20.384604      1.5858779      0.014142422    76710.135    
     50000   0.9581935      0.0023323615   0.0014398836   21.955202      20.532284      1.4229173      0.0055011948   76509.865    
     51000   1.0215759      0.0023323615  -0.00093292688  21.934681      20.41764       1.5170402      0              76222.463    
     52000   0.98079591     0.0023323615   0.0040701936   21.977374      20.520892      1.4564819      0.0020862422   76901.16     
     53000   1.0090927      0.0023323615   0.0013324753   22.095438      20.596935      1.4985027      0              76311.912    
     54000   0.97519627     0.0023323615   0.0013260734   22.070151      20.621984      1.4481665      0.026885444    77057.893    
     55000   1.1805087      0.0023323615  -0.001586238    22.424088      20.671033      1.7530554      0.024690954    76644.051    
     56000   0.98387121     0.0023323615   0.0037155145   22.104425      20.643376      1.4610487      0.01435493     76166.567    
     57000   1.0723812      0.0023323615  -0.0037916262   22.122726      20.53024       1.592486       0.013635549    76279.193    
     58000   1.0152349      0.0023323615   0.00021908047  22.082827      20.575203      1.5076238      0.00077375639  76479.677    
     59000   1.1424502      0.0023323615  -0.0052108657   22.30072       20.604182      1.6965385      0.013308184    77313.474    
     60000   1.0359703      0.0023323615  -0.00097887545  22.188218      20.649802      1.538416       0.00011346294  75604.174    
     61000   1.1646839      0.0023323615  -0.002085017    22.239945      20.51039       1.7295556      0.012918477    77953.277    
     62000   1.101836       0.0023323615   0.0010338878   22.171386      20.53516       1.6362265      0.001396566    76874.439    
     63000   0.96616435     0.0023323615   0.00097550571  21.903821      20.469067      1.4347541      0.013027663    78095.086    
     64000   1.0068907      0.0023323615  -0.0020278726   22.061652      20.566419      1.4952327      0.013750276    76401.344    
     65000   0.98723233     0.0023323615   0.0022441476   22.031073      20.565033      1.46604        0.0066686189   77015.97     
     66000   1.0273881      0.0023323615  -0.0003515278   22.183579      20.657908      1.5256713      0              75282.396    
     67000   0.96528212     0.0023323615  -0.00014822656  21.9396        20.506156      1.4334439      0.010365557    77068.363    
     68000   1.069702       0.0023323615   9.4754668e-05  22.081119      20.492611      1.5885075      0.00049153926  74447.874    
     69000   1.1229502      0.0023323615   0.0011504079   22.200329      20.532748      1.6675811      0.0068454249   77157.666    
     70000   1.0062775      0.0023323615  -0.00085311964  22.094021      20.599699      1.4943221      0.013222355    75602.739    
     71000   1.0906935      0.0023323615   0.00015260357  22.145362      20.525682      1.6196798      0.018338513    76111.274    
     72000   1.010401       0.0023323615  -6.0487182e-06  22.154105      20.653659      1.5004455      0.0013793953   74785.623    
     73000   1.1177599      0.0023323615  -0.0034084797   22.254435      20.594562      1.6598735      0.00011231735  77647.335    
     74000   0.9768019      0.0023323615   0.00016143893  22.07312       20.622569      1.4505508      0.0084515956   75942.127    
     75000   1.1360996      0.0023323615   0.002159116    22.161595      20.474487      1.6871079      0.0089909162   76381.053    
     76000   0.97379329     0.0023323615  -0.00068458621  21.988928      20.542845      1.446083       0              75691.896    
     77000   0.94876793     0.0023323615  -0.0016073976   21.923496      20.514575      1.4089204      0.017745108    75961.538    
     78000   0.83947996     0.0023323615  -0.00062768559  21.726727      20.480099      1.2466277      0.0054510099   76434.519    
     79000   1.0090614      0.0023323615  -0.00080262643  22.068192      20.569736      1.4984562      0.00023011166  77097.477    
     80000   1.1217643      0.0023323615  -0.0038177864   22.367902      20.702082      1.66582        0.032902439    76500.775    
     81000   1.0240158      0.0023323615   0.00023547123  22.031597      20.510933      1.5206635      0.0068767308   75963.391    
     82000   1.003236       0.0023323615  -0.0022802982   21.894199      20.404393      1.4898055      0.019136282    74943.805    
     83000   1.0554159      0.0023323615   0.004011718    22.104562      20.537269      1.5672927      0.0080869707   74596.704    
     84000   0.83527346     0.0023323615  -0.0034122221   21.874648      20.634267      1.2403811      0.0030083664   75838.896    
     85000   1.036002       0.0023323615   0.0013573923   21.962923      20.42446       1.5384629      0.015709144    75894.312    
     86000   0.9432002      0.0023323615  -0.0032183248   21.913588      20.512936      1.4006523      0.013730309    76552.639    
     87000   0.95566008     0.0023323615  -0.00049614223  21.91653       20.497375      1.4191552      0.0035862035   75739.22     
     88000   0.93373351     0.0023323615  -0.00097093893  21.870485      20.483891      1.3865943      0.0018212145   75472.063    
     89000   0.9684944      0.0023323615  -0.00047342045  21.973429      20.535215      1.4382142      0.00087524744  75732.269    
     90000   0.98293324     0.0023323615  -0.0032204602   22.050919      20.591263      1.4596559      0.015353933    76986.212    
     91000   1.0832827      0.0023323615   0.0048517083   22.11977       20.511095      1.6086749      0.0052867789   78017.683    
     92000   0.85899662     0.0023323615  -0.0013049519   21.765697      20.490087      1.27561        0.0024124001   76912.652    
     93000   0.96176266     0.0023323615  -4.4223672e-05  21.874222      20.446004      1.4282176      0.0045653365   77588.608    
     94000   0.96019503     0.0023323615   0.00024459347  21.944954      20.519064      1.4258896      3.8053462e-05  76969.288    
     95000   0.94702149     0.0023323615  -0.0033658915   21.86315       20.456823      1.4063269      0              77262.67     
     96000   0.91119348     0.0023323615  -0.0013197298   21.825018      20.471896      1.3531223      0.00043282989  76297.333    
     97000   1.0016687      0.0023323615  -0.0019514304   22.013024      20.525546      1.487478       0.0048369955   75830.994    
     98000   1.02143        0.0023323615  -0.0057874974   22.177965      20.661142      1.5168235      0              74746.482    
     99000   1.032786       0.0023323615   0.0018228259   21.975336      20.441649      1.5336871      7.1595851e-05  77840.257    
    100000   1.0594928      0.0023323615   0.0036169719   22.011024      20.437677      1.5733468      0.00032948157  76029.878    
    100362   1.1904942      0.0023323615  -0.00089755607  22.316856      20.548972      1.7678839      0.00063845255  75672.708    
Loop time of 1.31552 on 1 procs for 100000 steps with 100 atoms

Performance: 32838617.933 tau/day, 76015.319 timesteps/s
99.3% CPU use with 1 MPI tasks x 1 OpenMP threads

MPI task timing breakdown:
Section |  min time  |  avg time  |  max time  |%varavg| %total
---------------------------------------------------------------
Pair    | 0.049723   | 0.049723   | 0.049723   |   0.0 |  3.78
Bond    | 0.1263     | 0.1263     | 0.1263     |   0.0 |  9.60
Neigh   | 0.80453    | 0.80453    | 0.80453    |   0.0 | 61.16
Comm    | 0.05562    | 0.05562    | 0.05562    |   0.0 |  4.23
Output  | 0.0010422  | 0.0010422  | 0.0010422  |   0.0 |  0.08
Modify  | 0.2447     | 0.2447     | 0.2447     |   0.0 | 18.60
Other   |            | 0.03361    |            |       |  2.55

Nlocal:            100 ave         100 max         100 min
Histogram: 1 0 0 0 0 0 0 0 0 0
Nghost:             60 ave          60 max          60 min
Histogram: 1 0 0 0 0 0 0 0 0 0
Neighs:             36 ave          36 max          36 min
Histogram: 1 0 0 0 0 0 0 0 0 0

Total # of neighbors = 36
Ave neighs/atom = 0.36
Ave special neighs/atom = 1.98
Neighbor list builds = 9821
Dangerous builds = 8265
unfix           nvtSoft
unfix           rampSoft
reset_timestep  0

write_data      ${outputfile_relaxed}
write_data      5_relaxed.data
System init for write_data ...
Generated 0 of 6 mixed pair_coeff terms from geometric mixing rule
WARNING: Communication cutoff 1.3 is shorter than a bond length based estimate of 1.7550000000000001. This may lead to errors. (src/comm.cpp:727)
WARNING: Not all mixed pair coeffs generated from mixing. Use write_data with 'pair ij' option to store all pair coeffs. (src/write_data.cpp:309)

###########################################################################
# Full LJ with Coulomb
######################################################################

# Cutoffs and parameters:
# - Values: Marcel Verkade's Bachelor Thesis
# - Mapping to atom groups: Patrick Onck's paper
# - 1: aliphatic, 2: aromatic, 3: anion, 4: cation
# pair_style	lj/cut/coul/cut <lj_cut_global> <coul_cut_global>
# pair_coeff	<type_1>  <type_2>  <eps>  <sigma>  <r_cut_lj>  <r_cut_coul>

# Problem: Onck's model is much more complex, and Marcel has no sigma reported
# Using sigma=1 randomly

variable		glob_ljeps equal 1.0
variable		glob_ljsig 	equal 1.0
variable		glob_coulcut equal 10.0
variable		att_ljcut equal 2.50
variable		rep_ljcut equal 1.12

pair_style		lj/cut/coul/cut 						${att_ljcut} 	${glob_coulcut}
pair_style		lj/cut/coul/cut 						2.5 	${glob_coulcut}
pair_style		lj/cut/coul/cut 						2.5 	10
pair_coeff		1 1 	${glob_ljeps} 	${glob_ljsig}	${att_ljcut} 	${glob_coulcut}
pair_coeff		1 1 	1 	${glob_ljsig}	${att_ljcut} 	${glob_coulcut}
pair_coeff		1 1 	1 	1	${att_ljcut} 	${glob_coulcut}
pair_coeff		1 1 	1 	1	2.5 	${glob_coulcut}
pair_coeff		1 1 	1 	1	2.5 	10
pair_coeff		1 2 	${glob_ljeps} 	${glob_ljsig}	${att_ljcut} 	${glob_coulcut}
pair_coeff		1 2 	1 	${glob_ljsig}	${att_ljcut} 	${glob_coulcut}
pair_coeff		1 2 	1 	1	${att_ljcut} 	${glob_coulcut}
pair_coeff		1 2 	1 	1	2.5 	${glob_coulcut}
pair_coeff		1 2 	1 	1	2.5 	10
pair_coeff		1 3 	${glob_ljeps} 	${glob_ljsig}	${rep_ljcut} 	${glob_coulcut}
pair_coeff		1 3 	1 	${glob_ljsig}	${rep_ljcut} 	${glob_coulcut}
pair_coeff		1 3 	1 	1	${rep_ljcut} 	${glob_coulcut}
pair_coeff		1 3 	1 	1	1.12 	${glob_coulcut}
pair_coeff		1 3 	1 	1	1.12 	10
pair_coeff		1 4 	${glob_ljeps} 	${glob_ljsig}	${rep_ljcut} 	${glob_coulcut}
pair_coeff		1 4 	1 	${glob_ljsig}	${rep_ljcut} 	${glob_coulcut}
pair_coeff		1 4 	1 	1	${rep_ljcut} 	${glob_coulcut}
pair_coeff		1 4 	1 	1	1.12 	${glob_coulcut}
pair_coeff		1 4 	1 	1	1.12 	10
pair_coeff		2 2 	${glob_ljeps} 	${glob_ljsig}	${att_ljcut} 	${glob_coulcut}
pair_coeff		2 2 	1 	${glob_ljsig}	${att_ljcut} 	${glob_coulcut}
pair_coeff		2 2 	1 	1	${att_ljcut} 	${glob_coulcut}
pair_coeff		2 2 	1 	1	2.5 	${glob_coulcut}
pair_coeff		2 2 	1 	1	2.5 	10
pair_coeff		2 3 	${glob_ljeps} 	${glob_ljsig}	${rep_ljcut} 	${glob_coulcut}
pair_coeff		2 3 	1 	${glob_ljsig}	${rep_ljcut} 	${glob_coulcut}
pair_coeff		2 3 	1 	1	${rep_ljcut} 	${glob_coulcut}
pair_coeff		2 3 	1 	1	1.12 	${glob_coulcut}
pair_coeff		2 3 	1 	1	1.12 	10
pair_coeff		2 4 	${glob_ljeps} 	${glob_ljsig}	${att_ljcut} 	${glob_coulcut}
pair_coeff		2 4 	1 	${glob_ljsig}	${att_ljcut} 	${glob_coulcut}
pair_coeff		2 4 	1 	1	${att_ljcut} 	${glob_coulcut}
pair_coeff		2 4 	1 	1	2.5 	${glob_coulcut}
pair_coeff		2 4 	1 	1	2.5 	10
pair_coeff		3 3 	${glob_ljeps} 	${glob_ljsig}	${rep_ljcut} 	${glob_coulcut}
pair_coeff		3 3 	1 	${glob_ljsig}	${rep_ljcut} 	${glob_coulcut}
pair_coeff		3 3 	1 	1	${rep_ljcut} 	${glob_coulcut}
pair_coeff		3 3 	1 	1	1.12 	${glob_coulcut}
pair_coeff		3 3 	1 	1	1.12 	10
pair_coeff		3 4 	${glob_ljeps} 	${glob_ljsig}	${att_ljcut} 	${glob_coulcut}
pair_coeff		3 4 	1 	${glob_ljsig}	${att_ljcut} 	${glob_coulcut}
pair_coeff		3 4 	1 	1	${att_ljcut} 	${glob_coulcut}
pair_coeff		3 4 	1 	1	2.5 	${glob_coulcut}
pair_coeff		3 4 	1 	1	2.5 	10
pair_coeff		4 4 	${glob_ljeps} 	${glob_ljsig}	${rep_ljcut} 	${glob_coulcut}
pair_coeff		4 4 	1 	${glob_ljsig}	${rep_ljcut} 	${glob_coulcut}
pair_coeff		4 4 	1 	1	${rep_ljcut} 	${glob_coulcut}
pair_coeff		4 4 	1 	1	1.12 	${glob_coulcut}
pair_coeff		4 4 	1 	1	1.12 	10


fix             noDriftRot 	all momentum 10 linear 1 1 1 angular
fix             nvt1 		all nvt temp ${Temp} ${Temp} 0.5
fix             nvt1 		all nvt temp 1 ${Temp} 0.5
fix             nvt1 		all nvt temp 1 1 0.5

# dump          assemble 	all custom 1000 				${outputfile_selfasb} id type xu yu zu vx vy vz
dump            lindump 	all custom ${subsample_rate} 	${outputfile_trajlin} id type xu yu zu vx vy vz
dump            lindump 	all custom 1000 	${outputfile_trajlin} id type xu yu zu vx vy vz
dump            lindump 	all custom 1000 	6_b_trajlin.data id type xu yu zu vx vy vz

run             ${runtime}
run             1000000
Generated 0 of 6 mixed pair_coeff terms from geometric mixing rule
Neighbor list info ...
  update every 1 steps, delay 10 steps, check yes
  max neighbors/atom: 2000, page size: 100000
  master list distance cutoff = 10.3
  ghost atom cutoff = 10.3
  binsize = 5.15, bins = 7 7 7
  1 neighbor lists, perpetual/occasional/extra = 1 0 0
  (1) pair lj/cut/coul/cut, perpetual
      attributes: half, newton on
      pair build: half/bin/newton
      stencil: half/bin/3d
      bin: standard
Per MPI rank memory allocation (min/avg/max) = 7.712 | 7.712 | 7.712 Mbytes
   Step          Temp         Density         Press          TotEng         PotEng         KinEng         E_pair         S/CPU     
         0   1.1904942      0.0023323615  -0.0013103095   21.926582      20.158698      1.7678839     -0.38963587     0            
      1000   0.93318829     0.0023323615  -0.0010897418   21.206584      19.820799      1.3857846     -0.68029184     33552.945    
      2000   0.90923443     0.0023323615  -0.0015681519   21.153145      19.802931      1.3502131     -0.74914621     31214.396    
      3000   0.83109933     0.0023323615   0.0051469171   20.749321      19.515138      1.2341825     -0.87545388     27199.556    
      4000   1.1086453      0.0023323615   0.0038703096   20.990602      19.344264      1.6463382     -1.109784       21277.012    
      5000   1.1367164      0.0023323615   0.00054536583  21.04685       19.358826      1.6880238     -1.1319874      18914.869    
      6000   0.89344583     0.0023323615  -0.0015489495   20.892923      19.566156      1.3267671     -0.92365332     18526.752    
      7000   0.96162797     0.0023323615   0.0011723923   21.070403      19.642386      1.4280175     -0.81100406     18825.017    
      8000   0.96116439     0.0023323615  -0.003345048    20.947799      19.52047       1.4273291     -0.94988353     19139.478    
      9000   0.92104573     0.0023323615   0.0030332423   21.013589      19.645836      1.3677529     -0.81364017     19813.022    
     10000   1.0890558      0.0023323615   0.0016590055   21.351243      19.733995      1.6172479     -0.93176993     20353.741    
     11000   1.0012868      0.0023323615   0.001250241    20.853517      19.366606      1.4869109     -1.1288754      19742.419    
     12000   0.93215198     0.0023323615   0.0028248066   20.817675      19.433429      1.3842457     -1.0798365      19273.404    
     13000   1.1585115      0.0023323615  -0.0020309283   21.044643      19.324254      1.7203896     -1.2158774      18774.156    
     14000   0.98255971     0.0023323615   0.00055435848  20.756292      19.297191      1.4591012     -1.2354899      18840.841    
     15000   1.0678652      0.0023323615   0.0029729729   20.826572      19.240792      1.5857799     -1.2242624      18722.326    
     16000   1.0660835      0.0023323615  -0.0028083472   20.772179      19.189045      1.583134      -1.2416024      18708.703    
     17000   1.0358064      0.0023323615  -0.0039247378   20.935202      19.39703       1.5381724     -1.2344588      18675.138    
     18000   0.99092181     0.0023323615  -0.0046042093   20.787238      19.315719      1.4715189     -1.1618551      18735.818    
     19000   0.95504793     0.0023323615   0.0018819562   20.839205      19.420959      1.4182462     -1.1788901      18714.874    
     20000   0.99852556     0.0023323615  -0.00223193     20.822361      19.339551      1.4828105     -1.1359388      18740.676    
     21000   1.0728643      0.0023323615   0.00096967858  20.813559      19.220355      1.5932035     -1.3676081      18928.066    
     22000   0.96504766     0.0023323615  -0.0022707947   20.651974      19.218878      1.4330958     -1.3822805      18784.438    
     23000   0.90856257     0.0023323615  -0.00029239039  20.654672      19.305456      1.3492154     -1.1906319      18650.599    
     24000   0.87121005     0.0023323615   0.00060568439  20.585906      19.292159      1.2937469     -1.2446977      18749.586    
     25000   0.95289716     0.0023323615   0.0030225662   20.442707      19.027655      1.4150523     -1.3346819      18615.026    
     26000   0.88477134     0.0023323615  -0.0027982772   20.767157      19.453271      1.3138854     -1.1233729      18694.928    
     27000   0.97758451     0.0023323615   0.0020256333   20.850707      19.398994      1.451713      -1.0984522      18639.377    
     28000   1.0211278      0.0023323615  -0.0038487095   20.619676      19.103302      1.5163748     -1.4283713      18557.35     
     29000   0.89407231     0.0023323615  -0.00024740381  20.790056      19.462359      1.3276974     -1.0766167      19021.324    
     30000   1.0842033      0.0023323615  -9.7041936e-05  21.025829      19.415787      1.6100419     -1.1060495      20279.152    
     31000   1.0471742      0.0023323615   0.0025384746   21.130451      19.575397      1.5550537     -0.9704074      21191.723    
     32000   0.94914318     0.0023323615   0.00038526021  21.053114      19.643636      1.4094776     -0.9098585      20331.995    
     33000   0.92482253     0.0023323615   0.00043268183  20.804514      19.431152      1.3733615     -1.1365966      19573.942    
     34000   0.99182689     0.0023323615   4.2734173e-05  21.074446      19.601583      1.4728629     -0.98813497     18935.783    
     35000   1.1288053      0.0023323615  -0.0016357695   21.049597      19.373321      1.6762759     -1.1855782      18750.061    
     36000   0.94416833     0.0023323615   0.0033961305   20.897857      19.495767      1.40209       -1.1041798      18646.199    
     37000   0.89984788     0.0023323615  -0.0039630488   20.907239      19.570965      1.3362741     -1.0654327      18638.928    
     38000   1.0281971      0.0023323615  -0.0024568015   20.667059      19.140186      1.5268727     -1.3351872      18498.84     
     39000   1.1383609      0.0023323615   0.002616738    20.997451      19.306985      1.690466      -1.3009401      18570.328    
     40000   1.1831029      0.0023323615   0.0025644768   21.155838      19.39893       1.7569078     -1.0375671      18653.631    
     41000   0.92458102     0.0023323615  -0.0014226055   20.66709       19.294087      1.3730028     -1.3312697      18655.838    
     42000   1.0019743      0.0023323615  -0.0021673815   20.670006      19.182075      1.4879319     -1.3297364      18536.596    
     43000   0.90412493     0.0023323615  -0.0038946006   20.510794      19.168168      1.3426255     -1.4202468      18395.845    
     44000   0.95415935     0.0023323615  -0.0015640512   20.43239       19.015463      1.4169266     -1.4537338      18546.485    
     45000   1.0368768      0.0023323615  -0.00082111218  20.7977        19.257938      1.5397621     -1.2336912      18712.898    
     46000   1.0596635      0.0023323615   0.0054914132   20.911516      19.337915      1.5736004     -1.2237281      18673.258    
     47000   1.0044222      0.0023323615   0.0027134626   20.723259      19.231692      1.491567      -1.2260502      18699.058    
     48000   1.0958287      0.0023323615  -0.0034985693   21.220135      19.59283       1.6273057     -0.94776187     18740.172    
     49000   0.82035173     0.0023323615  -0.0037463492   20.677663      19.459441      1.2182223     -1.2076899      18724.251    
     50000   1.0480778      0.0023323615   0.0017857135   20.705423      19.149027      1.5563955     -1.3093698      18564.83     
     51000   1.0198147      0.0023323615  -0.00013921855  20.745059      19.230634      1.5144248     -1.378153       18529.146    
     52000   1.0259392      0.0023323615  -0.0011705616   20.654539      19.131019      1.5235197     -1.286923       18579.955    
     53000   1.0864778      0.0023323615   0.0025746017   20.72797       19.11455       1.6134195     -1.3710597      18572.692    
     54000   0.95968366     0.0023323615  -0.00095679417  20.585007      19.159877      1.4251302     -1.3203838      18701.293    
     55000   1.0299326      0.0023323615   0.0029427121   20.724056      19.194606      1.5294499     -1.3688395      18757.175    
     56000   0.95589837     0.0023323615   0.0019933056   20.965467      19.545957      1.4195091     -0.9777327      18602.706    
     57000   0.92078841     0.0023323615  -0.0021986715   20.870495      19.503125      1.3673708     -1.0273023      18545.947    
     58000   1.003091       0.0023323615  -0.0038664483   20.521111      19.031521      1.4895902     -1.4443997      18630.363    
     59000   0.89354305     0.0023323615   0.0040615694   20.488164      19.161252      1.3269114     -1.2765321      18597.42     
     60000   1.0334989      0.0023323615   0.002732531    20.81232       19.277574      1.5347459     -1.1203462      18669.5      
     61000   1.049704       0.0023323615   0.0016518133   20.842924      19.284114      1.5588104     -1.2360101      18757.292    
     62000   1.1349987      0.0023323615  -0.0015931278   20.843813      19.15834       1.6854731     -1.3352176      18679.136    
     63000   0.98642932     0.0023323615  -0.003839468    20.896978      19.432131      1.4648475     -1.3283421      18468.021    
     64000   1.1686259      0.0023323615   0.0019181825   21.05253       19.317121      1.7354094     -1.3351307      18585.615    
     65000   0.97016895     0.0023323615  -0.0011756544   20.966956      19.526255      1.4407009     -1.1402236      18671.186    
     66000   1.0255164      0.0023323615   0.00030413211  21.256911      19.73402       1.5228918     -0.94913791     18738.963    
     67000   0.96608758     0.0023323615  -0.00089119621  20.7859        19.35126       1.4346401     -1.1749162      18688.768    
     68000   0.84671118     0.0023323615  -0.001077533    20.309766      19.0524        1.2573661     -1.3359451      18734.98     
     69000   1.0292496      0.0023323615  -0.0021930452   20.794452      19.266016      1.5284356     -1.2653156      18777.201    
     70000   0.90384718     0.0023323615   0.0031063332   20.443525      19.101312      1.3422131     -1.3900363      18719.478    
     71000   1.0536823      0.0023323615   0.00284515     20.784267      19.219548      1.5647182     -1.2619096      18695.45     
     72000   0.9024679      0.0023323615  -0.0012159704   20.609432      19.269267      1.3401648     -1.1909492      18670.38     
     73000   0.91949589     0.0023323615  -0.0028342775   20.604637      19.239186      1.3654514     -1.3545322      18690.811    
     74000   0.99142612     0.0023323615   0.0018466076   20.801298      19.32903       1.4722678     -1.2457564      18713.372    
     75000   0.989108       0.0023323615  -0.0020132599   20.802254      19.333429      1.4688254     -1.2649569      18747.536    
     76000   0.96428309     0.0023323615   0.0026701496   20.617547      19.185586      1.4319604     -1.3085977      18609.616    
     77000   1.0399241      0.0023323615  -1.5172152e-05  20.754542      19.210255      1.5442874     -1.156438       18665.795    
     78000   0.91371576     0.0023323615   0.00192359     20.715104      19.358236      1.3568679     -1.1237477      18626.587    
     79000   0.98051139     0.0023323615  -0.0019872079   20.888233      19.432174      1.4560594     -1.0836613      18706.897    
     80000   0.93560098     0.0023323615  -0.0011548584   20.734053      19.344686      1.3893675     -1.2766903      18864.335    
     81000   1.1052857      0.0023323615  -0.0004679254   20.92287       19.281521      1.6413493     -1.1964832      18586.719    
     82000   1.0916152      0.0023323615   0.0011287652   20.781454      19.160406      1.6210486     -1.3133524      18502.715    
     83000   1.0162058      0.0023323615   0.0026123407   20.63029       19.121225      1.5090656     -1.3384364      19408.863    
     84000   0.99947921     0.0023323615   0.00086349322  20.807375      19.323148      1.4842266     -1.0966573      19192.739    
     85000   1.0410007      0.0023323615   0.00083545167  20.998456      19.45257       1.545886      -1.1427027      19247.41     
     86000   1.0538825      0.0023323615   0.0021074412   20.803745      19.23873       1.5650155     -1.2255946      19648.873    
     87000   1.0411776      0.0023323615   0.00048676373  20.656688      19.110539      1.5461487     -1.2487531      19148.533    
     88000   0.98191524     0.0023323615   0.0020744111   20.761423      19.303279      1.4581441     -1.1883944      18918.684    
     89000   1.0297487      0.0023323615  -0.0010183148   20.995198      19.466021      1.5291768     -1.0177339      19225.518    
     90000   0.86399637     0.0023323615  -0.001369227    20.738036      19.455001      1.2830346     -1.2041333      18887.331    
     91000   0.97739259     0.0023323615   0.00010746148  20.883761      19.432333      1.451428      -1.1005085      18721.107    
     92000   1.2363377      0.0023323615   0.0025790431   21.336677      19.500715      1.8359614     -0.98416929     18918.508    
     93000   1.089672       0.0023323615  -0.0020171844   20.830297      19.212134      1.6181629     -1.3527827      18655.144    
     94000   1.0070013      0.0023323615   0.004528219    20.893665      19.398268      1.4953969     -1.1545359      19154.012    
     95000   0.95755806     0.0023323615   0.0016435488   20.82958       19.407607      1.4219737     -1.0453928      19418.001    
     96000   1.1013988      0.0023323615   0.0019745008   21.077931      19.442353      1.6355773     -1.068953       19211.55     
     97000   0.90088903     0.0023323615   0.00186215     20.70727       19.36945       1.3378202     -1.0921972      18861.522    
     98000   1.0335074      0.0023323615   0.00087808705  20.908329      19.373571      1.5347585     -1.1635278      18843.085    
     99000   1.0314355      0.0023323615  -0.0023608477   20.814781      19.283099      1.5316817     -1.184402       18963.78     
    100000   0.95742225     0.0023323615  -0.0030116103   20.904494      19.482722      1.421772      -1.1764337      18763.092    
    101000   0.82245355     0.0023323615  -0.0016682977   20.470515      19.249171      1.2213435     -1.2545322      18690.752    
    102000   0.96378792     0.0023323615  -0.0003665531   20.51054       19.079315      1.4312251     -1.3145295      18686.315    
    103000   1.0880461      0.0023323615   8.232755e-05   20.840153      19.224405      1.6157485     -1.2866856      18628.565    
    104000   1.0328055      0.0023323615  -0.0014519474   20.762741      19.229025      1.5337162     -1.2232903      18691.091    
    105000   0.97128732     0.0023323615  -0.0017581818   20.821322      19.37896       1.4423617     -1.1595443      18846.686    
    106000   0.83110644     0.0023323615  -0.00018937195  20.706346      19.472153      1.2341931     -1.2287914      18781.381    
    107000   0.85035237     0.0023323615   0.0018233878   20.50331       19.240537      1.2627733     -1.3318522      18591.937    
    108000   1.0083262      0.0023323615  -0.00074109564  20.605775      19.10841       1.4973645     -1.4447175      18588.852    
    109000   1.0579815      0.0023323615  -0.00053798903  20.828516      19.257413      1.5711026     -1.2509885      18618.349    
    110000   0.92958483     0.0023323615  -0.0041040062   20.758423      19.377989      1.3804335     -1.2436784      18572.139    
    111000   0.92587491     0.0023323615  -0.00086393552  20.758449      19.383524      1.3749242     -1.1263567      18672.633    
    112000   0.86271465     0.0023323615   0.002953774    20.528164      19.247033      1.2811312     -1.3167064      18684.09     
    113000   1.0723961      0.0023323615   0.0016669999   20.796953      19.204445      1.5925082     -1.3357816      18631.625    
    114000   1.0070649      0.0023323615  -0.0015838447   20.917383      19.421891      1.4954914     -1.1586851      18589.914    
    115000   1.0357171      0.0023323615  -0.002358461    20.977587      19.439547      1.5380399     -1.3229896      18627.001    
    116000   0.88324922     0.0023323615  -0.00013633141  20.530147      19.218522      1.3116251     -1.4317306      18568.598    
    117000   1.0299414      0.0023323615   0.0026271345   20.841298      19.311835      1.529463      -1.3219436      18539.302    
    118000   0.78604654     0.0023323615   0.0022025079   20.07254       18.905261      1.1672791     -1.4542784      18520.385    
    119000   1.0283922      0.0023323615  -0.00022959402  20.806119      19.278957      1.5271625     -1.214678       18504.701    
    120000   1.1061829      0.0023323615   0.0028335632   20.595447      18.952766      1.6426817     -1.4792233      18512.145    
    121000   0.90174895     0.0023323615  -0.0063380945   20.847278      19.508181      1.3390972     -1.1242342      18627.369    
    122000   0.93508914     0.0023323615   0.0011291495   20.90367       19.515062      1.3886074     -1.0610409      18693.976    
    123000   0.91122211     0.0023323615  -0.0067299431   20.607861      19.254696      1.3531648     -1.2322946      18680.003    
    124000   1.0734671      0.0023323615  -0.00080668431  21.187958      19.593859      1.5940986     -0.92357392     18905.032    
    125000   1.037384       0.0023323615  -0.0022782512   21.076683      19.536168      1.5405152     -0.99133957     18737.267    
    126000   0.94781523     0.0023323615   0.00031067462  20.729109      19.321603      1.4075056     -1.1421983      18641.782    
    127000   1.0863463      0.0023323615  -0.00083366685  21.023243      19.410018      1.6132243     -1.2078171      18473.053    
    128000   1.0220901      0.0023323615  -0.0026885715   20.878084      19.36028       1.5178038     -1.2311208      18612.61     
    129000   0.95606341     0.0023323615   0.00096255932  20.864455      19.444701      1.4197542     -1.2043776      18555.604    
    130000   1.0653382      0.0023323615  -0.0025543207   21.116257      19.534229      1.5820273     -0.98736996     18681.604    
    131000   1.1057879      0.0023323615   0.0020956191   21.101651      19.459556      1.6420951     -1.1163006      18664.026    
    132000   1.015771       0.0023323615   0.0016903406   20.772999      19.264579      1.50842       -1.2636258      18740.799    
    133000   0.90284033     0.0023323615  -0.00047555769  20.33055       18.989832      1.3407179     -1.4751559      18653.687    
    134000   0.98955044     0.0023323615  -0.0022639631   20.763698      19.294216      1.4694824     -1.1716095      18656.065    
    135000   0.83720182     0.0023323615  -0.002648437    20.646018      19.402773      1.2432447     -1.1682524      18674.868    
    136000   0.97076235     0.0023323615  -0.0020197394   20.735854      19.294272      1.4415821     -1.3005471      18794.494    
    137000   1.0164012      0.0023323615   0.0044827025   20.646905      19.137549      1.5093558     -1.2809799      18605.376    
    138000   0.94345038     0.0023323615  -0.003836014    20.830879      19.429855      1.4010238     -1.1810331      18628.166    
    139000   0.9916753      0.0023323615   0.00099041539  20.849122      19.376484      1.4726378     -1.1853862      18724.426    
    140000   1.0029032      0.0023323615  -0.0011768716   21.037067      19.547756      1.4893113     -1.0757063      18764.941    
    141000   0.95340606     0.0023323615   0.0018107469   20.456883      19.041075      1.415808      -1.4397695      18763.582    
    142000   1.1812373      0.0023323615  -0.0030683811   20.971736      19.217599      1.7541373     -1.370913       18642.73     
    143000   1.140432       0.0023323615   9.9224789e-05  20.934495      19.240953      1.6935415     -1.2520438      18649.99     
    144000   1.091946       0.0023323615  -0.00053462278  20.716562      19.095022      1.6215398     -1.4332835      18729.654    
    145000   0.95551617     0.0023323615   0.0039481469   20.736145      19.317203      1.4189415     -1.2339591      18728.358    
    146000   0.94648605     0.0023323615   0.0011095731   20.732479      19.326948      1.4055318     -1.296233       18628.607    
    147000   1.0555349      0.0023323615   0.0012557353   20.674596      19.107127      1.5674693     -1.3342782      18726.998    
    148000   1.0375396      0.0023323615  -0.00059305081  20.798662      19.257915      1.5407462     -1.1707469      18648.661    
    149000   0.9146626      0.0023323615  -0.00044694466  20.566983      19.208709      1.358274      -1.3774482      18630.214    
    150000   0.94899892     0.0023323615  -0.0013775877   20.736784      19.327521      1.4092634     -1.2755378      18551.152    
    151000   0.97714257     0.0023323615  -0.0019740853   20.880586      19.42953       1.4510567     -1.1327393      18887.917    
    152000   0.86645434     0.0023323615  -0.0033512847   20.92869       19.642005      1.2866847     -0.85922736     19289.708    
    153000   1.0126978      0.0023323615  -0.00088871633  20.956281      19.452424      1.5038562     -1.011054       19065.865    
    154000   1.1517072      0.0023323615   0.0024981901   21.142591      19.432306      1.7102851     -1.1567894      18695.92     
    155000   1.0011221      0.0023323615   0.0010898089   21.068783      19.582116      1.4866663     -1.054221       18692.019    
    156000   0.97099347     0.0023323615   0.0022149341   20.958623      19.516697      1.4419253     -1.0959182      18564.042    
    157000   1.0199228      0.0023323615  -2.1134711e-05  20.599718      19.085132      1.5145854     -1.517783       18526.274    
    158000   0.90245017     0.0023323615  -0.0025867198   20.898082      19.557943      1.3401385     -1.0276264      18672.863    
    159000   1.1068773      0.0023323615  -0.00014400748  21.07718       19.433468      1.6437129     -1.0667125      18801.305    
    160000   1.1462362      0.0023323615   0.00018825117  20.848059      19.145898      1.7021608     -1.3632955      18691.032    
    161000   1.0391322      0.0023323615   7.8711242e-05  20.84568       19.302569      1.5431114     -1.1590098      18714.301    
    162000   1.0701146      0.0023323615   0.0008468192   20.736362      19.147242      1.5891202     -1.2608549      18732.358    
    163000   1.0736775      0.0023323615   0.00015069416  21.338466      19.744055      1.5944111     -0.87767729     19110.17     
    164000   0.91014449     0.0023323615  -0.0033281706   20.899282      19.547717      1.3515646     -0.91661147     19698.979    
    165000   0.8518341      0.0023323615  -0.0035048382   20.648917      19.383944      1.2649736     -1.0598739      20936.762    
    166000   1.0018864      0.0023323615   0.0011487244   21.130844      19.643043      1.4878014     -0.90594129     22336.061    
    167000   0.92272237     0.0023323615   0.0010778931   21.170345      19.800102      1.3702427     -0.92444725     22990.664    
    168000   1.1358343      0.0023323615  -0.0011279137   21.457373      19.770659      1.6867139     -0.75935632     22859.958    
    169000   1.1685637      0.0023323615   0.0020582861   21.099735      19.364418      1.7353172     -1.0852896      21692.036    
    170000   1.0114582      0.0023323615   0.00071605155  21.056799      19.554783      1.5020155     -1.0355279      20413.388    
    171000   1.0723237      0.0023323615   0.00083983841  21.153889      19.561488      1.5924008     -0.93601803     20060.449    
    172000   0.96574724     0.0023323615  -0.00015257793  20.963649      19.529515      1.4341347     -0.99150755     19709.143    
    173000   0.98610124     0.0023323615  -0.00018024099  20.877303      19.412942      1.4643603     -1.0215246      19369.485    
    174000   0.88727449     0.0023323615  -0.0019179031   20.898515      19.580913      1.3176026     -1.0168035      19291.087    
    175000   0.84726105     0.0023323615  -0.0019485191   20.608074      19.349891      1.2581827     -1.1566113      19021.465    
    176000   0.88150605     0.0023323615  -0.0017425462   20.671222      19.362185      1.3090365     -1.0894984      19215.455    
    177000   0.86256481     0.0023323615  -7.6032714e-05  20.375527      19.094618      1.2809087     -1.3816128      19022.618    
    178000   0.94220357     0.0023323615   0.0046312777   20.507737      19.108565      1.3991723     -1.4078981      18658.953    
    179000   0.9381355      0.0023323615  -0.0028527918   20.479498      19.086367      1.3931312     -1.3845237      18518.486    
    180000   1.0608727      0.0023323615  -0.00023252873  20.848231      19.272835      1.575396      -1.2868245      18638.803    
    181000   1.0603149      0.0023323615   0.00078252284  20.918239      19.343672      1.5745677     -1.1418399      18541.423    
    182000   1.1229164      0.0023323615   0.00070999918  20.882707      19.215176      1.6675308     -1.2809937      18693.388    
    183000   0.97612889     0.0023323615   0.0017260127   20.584042      19.13449       1.4495514     -1.3582802      18554.021    
    184000   0.98630357     0.0023323615   0.0028023837   20.841575      19.376914      1.4646608     -1.131225       18576.287    
    185000   1.1386786      0.0023323615  -0.0020732      21.188172      19.497234      1.6909377     -1.086178       18754.74     
    186000   0.87961959     0.0023323615  -0.0051252342   20.805051      19.498816      1.3062351     -1.0695437      18823.345    
    187000   0.94403773     0.0023323615   0.0043819482   20.714495      19.312599      1.401896      -1.1562224      18538.152    
    188000   1.0308937      0.0023323615  -0.00062453375  20.513997      18.98312       1.5308771     -1.4481344      18590.244    
    189000   0.9379969      0.0023323615   0.0030902413   20.671268      19.278342      1.3929254     -1.3090812      18675.714    
    190000   1.0039941      0.0023323615  -0.0016196562   20.869588      19.378657      1.4909312     -1.2164797      18641.299    
    191000   1.1045848      0.0023323615   0.00040819552  20.89642       19.256111      1.6403085     -1.2398988      18651.648    
    192000   0.88430166     0.0023323615  -0.0017651443   20.819325      19.506137      1.313188      -1.1610553      18584.809    
    193000   1.0352317      0.0023323615   0.0026786613   21.07473       19.537411      1.5373191     -0.99729033     18796.543    
    194000   1.0330045      0.0023323615   0.0019858098   20.613547      19.079535      1.5340116     -1.3823747      18896.935    
    195000   0.97007413     0.0023323615  -0.0015251655   20.843765      19.403205      1.4405601     -1.1258098      18616.134    
    196000   0.94455247     0.0023323615   0.0010482464   20.531912      19.129251      1.4026604     -1.3643021      18508.235    
    197000   0.88040423     0.0023323615  -0.0018964325   20.459293      19.151893      1.3074003     -1.3826556      18754.832    
    198000   1.00644        0.0023323615   0.004149429    20.608774      19.114211      1.4945635     -1.4228435      18660.599    
    199000   1.1281945      0.0023323615  -4.6496567e-05  21.040096      19.364728      1.6753688     -1.1687086      18576.511    
    200000   1.0836193      0.0023323615   0.0050151504   20.992632      19.383457      1.6091746     -1.1473568      18686.882    
    201000   0.94453869     0.0023323615   0.0041082706   20.69507       19.29243       1.4026399     -1.1655964      18535.794    
    202000   0.90330038     0.0023323615  -0.0025448007   20.869689      19.528288      1.3414011     -0.95691515     18743.107    
    203000   0.93827173     0.0023323615  -0.0019207946   20.777676      19.384343      1.3933335     -1.1059426      18740.137    
    204000   0.92082502     0.0023323615  -0.0028711413   20.784043      19.416618      1.3674252     -1.1452458      18709.138    
    205000   1.0255609      0.0023323615   0.00034043543  20.608127      19.08517       1.5229579     -1.3888571      18771.66     
    206000   1.0800481      0.0023323615   0.0028450139   20.970771      19.366899      1.6038714     -1.1568723      18725.754    
    207000   1.0446721      0.0023323615  -0.002472965    21.086054      19.534716      1.551338      -0.97980707     18876.19     
    208000   0.92627071     0.0023323615  -0.0013167      20.809737      19.434225      1.375512      -1.1931358      18814.34     
    209000   0.87627823     0.0023323615   0.0015104893   20.738855      19.437582      1.3012732     -1.1423071      18646.063    
    210000   0.86232603     0.0023323615  -0.0012754532   20.634332      19.353778      1.2805542     -1.2956498      18690.549    
    211000   0.93390194     0.0023323615  -0.0011803808   20.572208      19.185363      1.3868444     -1.2742157      18668.379    
    212000   0.93044923     0.0023323615  -0.0028505062   20.536301      19.154584      1.3817171     -1.2581264      18610.615    
    213000   1.1340236      0.0023323615  -0.0013641888   20.787598      19.103573      1.6840251     -1.3707535      18531.475    
    214000   1.0667183      0.0023323615  -0.00024477079  20.896255      19.312178      1.5840767     -1.1054037      18648.63     
    215000   0.93751704     0.0023323615   0.0007116586   20.733427      19.341214      1.3922128     -1.2248544      18575.533    
    216000   0.90038672     0.0023323615   0.0020160729   20.788623      19.451549      1.3370743     -1.0878869      18741.218    
    217000   0.98878172     0.0023323615  -0.00058684563  20.602046      19.133705      1.4683409     -1.3521229      18617.797    
    218000   0.96666192     0.0023323615   0.00022775977  20.435817      19.000324      1.4354929     -1.4193038      18540.897    
    219000   1.1330888      0.0023323615  -0.0034972878   20.884703      19.202066      1.6826369     -1.267937       18656.497    
    220000   1.0151582      0.0023323615  -0.00012799349  20.714307      19.206797      1.50751       -1.2605007      18892.983    
    221000   1.0871578      0.0023323615   0.0017654852   20.87448       19.260051      1.6144293     -1.2355213      18732.892    
    222000   1.1616333      0.0023323615   0.0030764828   21.111595      19.38657       1.7250254     -1.1484117      18782.932    
    223000   1.0440089      0.0023323615   0.0017128483   20.754057      19.203704      1.5503532     -1.2533778      18588.984    
    224000   1.0258574      0.0023323615   0.0024698486   21.014921      19.491523      1.5233983     -1.0603862      18546.509    
    225000   1.076079       0.0023323615  -0.0025598955   20.848792      19.250815      1.5979773     -1.2678907      18583.605    
    226000   0.94621796     0.0023323615   0.00041755469  20.88021       19.475076      1.4051337     -1.032206       18643.698    
    227000   0.78998497     0.0023323615  -0.00088098594  20.277407      19.10428       1.1731277     -1.2969282      18689.663    
    228000   1.0865968      0.0023323615  -1.1400671e-05  21.066001      19.452404      1.6135962     -1.1302326      18655.689    
    229000   1.0487076      0.0023323615   0.00037078979  20.727184      19.169853      1.5573308     -1.3653209      18684.496    
    230000   1.0489604      0.0023323615   0.00217557     21.12255       19.564844      1.5577062     -0.94480803     18715.593    
    231000   0.95150768     0.0023323615   0.00085584608  20.605844      19.192855      1.4129889     -1.230449       18862.564    
    232000   0.91094218     0.0023323615   0.0043422352   20.455536      19.102786      1.3527491     -1.3257331      18744.241    
    233000   1.1146959      0.0023323615   0.00071722278  20.827497      19.172173      1.6553234     -1.3104014      18582.864    
    234000   0.98179551     0.0023323615   0.0056883824   20.573941      19.115975      1.4579663     -1.3410691      18614.339    
    235000   0.95020093     0.0023323615   0.00027215419  20.759737      19.348689      1.4110484     -1.178899       18531.612    
    236000   0.9677126      0.0023323615   0.0013243585   20.691261      19.254208      1.4370532     -1.2573134      18582.318    
    237000   0.98189034     0.0023323615   0.00046743854  20.717199      19.259092      1.4581072     -1.1654658      18493.38     
    238000   1.0391077      0.0023323615   0.00098265031  20.760393      19.217318      1.543075      -1.182156       18717.021    
    239000   0.94173667     0.0023323615   0.0012243383   20.513858      19.11538       1.398479      -1.337178       18634.7      
    240000   1.1436606      0.0023323615   0.002920126    21.111541      19.413205      1.698336      -1.0975204      18995.615    
    241000   1.1277606      0.0023323615  -0.00094655407  21.145263      19.470538      1.6747246     -1.0554599      20105.525    
    242000   1.0767256      0.0023323615  -0.00087734471  20.924761      19.325824      1.5989376     -1.113466       20285.301    
    243000   1.0875553      0.0023323615  -0.0025701189   21.290966      19.675947      1.6150196     -0.93551128     20093.896    
    244000   1.0243483      0.0023323615  -0.0024422444   20.807041      19.285883      1.5211572     -1.2180973      19175.895    
    245000   1.0603301      0.0023323615  -0.00073824195  20.953946      19.379356      1.5745902     -1.0914875      18674.516    
    246000   1.00832        0.0023323615  -0.0015710363   20.572303      19.074948      1.4973551     -1.4638398      18630.349    
    247000   1.0664705      0.0023323615  -0.00041883785  20.985521      19.401813      1.5837087     -1.1945456      18690.255    
    248000   1.0266903      0.0023323615  -0.0012059959   21.050201      19.525566      1.524635      -0.95476831     18759.477    
    249000   1.0273275      0.0023323615  -0.0012547237   21.007804      19.482222      1.5255813     -0.99107981     19148.955    
    250000   1.0702822      0.0023323615   0.00091068255  20.841512      19.252143      1.5893691     -1.2343291      18902.826    
    251000   1.0333735      0.0023323615  -0.0014405856   20.803099      19.26854       1.5345597     -1.2671743      18659.445    
    252000   0.95179915     0.0023323615   0.0030887578   20.966754      19.553332      1.4134217     -1.043749       18663.363    
    253000   0.83038935     0.0023323615  -0.0014805977   20.335884      19.102756      1.2331282     -1.3757904      18752.291    
    254000   0.88106425     0.0023323615   0.0006614479   20.538893      19.230513      1.3083804     -1.256205       18582.882    
    255000   0.94559898     0.0023323615  -0.00032523246  20.515837      19.111623      1.4042145     -1.3376456      18553.876    
    256000   0.97706714     0.0023323615   0.0028484608   20.751246      19.300301      1.4509447     -1.3202343      18493.191    
    257000   0.96391419     0.0023323615  -0.0013124098   20.814087      19.382674      1.4314126     -1.043438       18632.015    
    258000   0.98467445     0.0023323615   6.7780361e-05  20.847766      19.385525      1.4622416     -1.1854766      18668.348    
    259000   0.97149839     0.0023323615  -0.0034977469   20.923364      19.480689      1.4426751     -1.1148034      18646.965    
    260000   1.0411174      0.0023323615   5.1391843e-06  20.821859      19.2758        1.5460594     -1.1954864      18661.416    
    261000   1.1211737      0.0023323615  -0.00094848738  21.080399      19.415456      1.664943      -1.1371518      18662.588    
    262000   1.0234068      0.0023323615   0.00136459     20.896901      19.377142      1.5197591     -1.1245532      18854.511    
    263000   0.98327342     0.0023323615   0.0029981655   20.901807      19.441646      1.460161      -1.0420801      18836.812    
    264000   0.96925658     0.0023323615   0.0020692476   20.573286      19.13394       1.439346      -1.2264432      18945.156    
    265000   0.94773796     0.0023323615   0.0024110687   20.941612      19.534221      1.4073909     -1.0472949      19213.277    
    266000   0.83446112     0.0023323615  -0.0034335488   20.830334      19.59116       1.2391748     -1.0076165      18982.526    
    267000   0.9502631      0.0023323615  -0.00038217468  20.862665      19.451524      1.4111407     -1.0330963      18882.74     
    268000   0.9601854      0.0023323615   0.0028369766   20.889785      19.463909      1.4258753     -1.1811231      18891.409    
    269000   1.0108655      0.0023323615   0.00076488016  20.875937      19.374802      1.5011352     -1.1235225      18690.917    
    270000   1.0128392      0.0023323615   0.0011779252   20.893253      19.389187      1.5040662     -1.1366462      18650.648    
    271000   1.1212026      0.0023323615   0.0010334601   20.843596      19.17861       1.6649859     -1.3583409      18505.747    
    272000   0.97328332     0.0023323615  -0.0018111491   20.90877       19.463445      1.4453257     -1.1796537      18504.317    
    273000   0.82813473     0.0023323615  -0.0040392272   20.869661      19.639881      1.2297801     -0.96333779     18787.616    
    274000   0.99863256     0.0023323615  -0.0010413787   20.970659      19.487689      1.4829694     -1.0196305      18979.029    
    275000   1.0987962      0.0023323615   0.00038036097  21.021943      19.39023       1.6317123     -1.0339769      18933.404    
    276000   0.99252693     0.0023323615  -8.8788215e-05  20.822966      19.349064      1.4739025     -1.1317988      18749.656    
    277000   0.93585193     0.0023323615   0.0050075242   20.845423      19.455683      1.3897401     -1.0318958      18986.953    
    278000   1.0057825      0.0023323615   0.00025550651  20.862613      19.369026      1.493587      -1.0237551      18926.781    
    279000   0.93629955     0.0023323615  -0.0013182825   21.05686       19.666455      1.3904048     -0.92087028     18968.342    
    280000   1.1676335      0.0023323615   0.00035657093  21.284426      19.55049       1.7339358     -1.0327432      20580.924    
    281000   1.0253221      0.0023323615  -0.0015786332   20.831264      19.308661      1.5226034     -1.1370412      21189.839    
    282000   0.91118885     0.0023323615  -0.0043497817   21.121373      19.768258      1.3531154     -0.86934999     21028.385    
    283000   1.0159475      0.0023323615  -0.00010061747  20.956622      19.44794       1.508682      -1.1742453      20331.895    
    284000   0.83554253     0.0023323615   0.00050840626  20.346765      19.105984      1.2407807     -1.3339507      19354.462    
    285000   1.0039231      0.0023323615  -0.00067924389  20.634109      19.143283      1.4908258     -1.434376       18429.071    
    286000   1.0780018      0.0023323615   0.0019337879   21.029221      19.428388      1.6008326     -1.0754087      18641.563    
    287000   1.1335771      0.0023323615   0.0011181435   20.965287      19.281925      1.683362      -1.262599       18811.929    
    288000   0.80511323     0.0023323615  -0.002090134    20.296405      19.100812      1.1955931     -1.4435205      18665.698    
    289000   1.126345       0.0023323615   2.4521994e-05  21.054156      19.381534      1.6726224     -1.1785568      18710.092    
    290000   1.0405597      0.0023323615  -0.00031115407  20.846178      19.300947      1.5452311     -1.1978392      18942.916    
    291000   0.7785811      0.0023323615  -0.00049116873  20.780364      19.624171      1.1561929     -1.0136301      19060.095    
    292000   1.0192652      0.0023323615   0.0001366439   20.935124      19.421516      1.5136088     -1.1403149      19095.297    
    293000   0.93763721     0.0023323615  -0.00052663541  20.693009      19.300618      1.3923913     -1.1230707      18919.254    
    294000   1.018253       0.0023323615   0.00019060605  20.970513      19.458407      1.5121057     -1.0693483      18998.608    
    295000   1.1337463      0.0023323615  -0.00059148886  20.950039      19.266426      1.6836133     -1.3666223      18785.216    
    296000   1.0190138      0.0023323615   0.00073381986  20.903874      19.390638      1.5132355     -1.1856023      18598.654    
    297000   1.2143635      0.0023323615   0.0055969086   21.258734      19.455404      1.8033298     -1.1490922      18987.939    
    298000   0.99640859     0.0023323615   0.0048886628   21.002827      19.52316       1.4796668     -1.0400556      19180.395    
    299000   0.8914608      0.0023323615  -0.0022358094   20.925941      19.602121      1.3238193     -0.8520601      19082.41     
    300000   1.0375768      0.0023323615  -0.0020254228   20.984947      19.444146      1.5408016     -0.9848251      18937.855    
    301000   1.1453537      0.0023323615  -0.0010902625   21.065189      19.364339      1.7008503     -1.0917283      18767.103    
    302000   0.96806805     0.0023323615  -0.0044442647   20.684366      19.246785      1.4375811     -1.277949       18680.968    
    303000   0.97548045     0.0023323615   0.0067516394   20.387314      18.938726      1.4485885     -1.4662553      18713.768    
    304000   1.0167156      0.0023323615  -0.00060514662  20.773024      19.263201      1.5098226     -1.3081864      18565.43     
    305000   1.0273164      0.0023323615   0.00092053003  20.733442      19.207877      1.5255648     -1.3265873      18525.91     
    306000   1.0396124      0.0023323615   0.00019097016  20.973274      19.429449      1.5438244     -1.2384844      18689.964    
    307000   0.95380997     0.0023323615   0.0003788423   20.810262      19.393854      1.4164078     -1.2050175      18769.807    
    308000   1.1131975      0.0023323615   0.0051218269   21.230797      19.577698      1.6530983     -0.90901826     18838.01     
    309000   1.042961       0.0023323615   5.3497805e-06  20.988482      19.439685      1.5487971     -1.1190697      19430.785    
    310000   1.0463065      0.0023323615   0.0026937085   21.159543      19.605778      1.5537651     -0.95430243     19695.543    
    311000   0.9259928      0.0023323615   0.0010555544   20.488191      19.113092      1.3750993     -1.3306281      19320.635    
    312000   0.86935866     0.0023323615   0.00094488172  20.642796      19.351798      1.2909976     -1.2175472      18708.475    
    313000   1.0010794      0.0023323615  -0.00053362195  20.715705      19.229102      1.4866028     -1.2492345      18569.82     
    314000   1.0159873      0.0023323615   0.0020825159   20.51301       19.004269      1.5087412     -1.4684099      18562.661    
    315000   1.0748153      0.0023323615  -0.00087840956  20.738037      19.141936      1.5961007     -1.4049743      18458.94     
    316000   1.0375842      0.0023323615  -0.0011488879   20.625712      19.084899      1.5408125     -1.4547321      18566.494    
    317000   1.0790207      0.0023323615   0.0022862615   20.961938      19.359592      1.6023457     -1.3265978      18602.7      
    318000   1.148627       0.0023323615  -0.0031267148   20.80793       19.102219      1.7057111     -1.3817727      18522.496    
    319000   1.1760606      0.0023323615  -3.1910308e-05  20.761062      19.014613      1.74645       -1.4057227      18587.066    
    320000   1.1187018      0.0023323615  -8.6420157e-05  20.60803       18.946758      1.6612722     -1.4500342      18521.575    
    321000   0.96398237     0.0023323615   0.0021468387   20.785465      19.353951      1.4315138     -1.286582       18597.369    
    322000   0.85941852     0.0023323615  -0.0015556274   20.766201      19.489965      1.2762365     -1.092293       18617.005    
    323000   0.94769715     0.0023323615  -0.00051497875  20.86079       19.45346       1.4073303     -1.0947794      18792.254    
    324000   0.86748647     0.0023323615  -0.0013156872   20.573098      19.284881      1.2882174     -1.2770214      18742.977    
    325000   0.99002697     0.0023323615   0.0022567079   21.038234      19.568044      1.4701901     -0.95991726     18883.175    
    326000   0.88632877     0.0023323615  -0.0041051123   20.803356      19.487157      1.3161982     -1.1177037      18802.92     
    327000   0.94659151     0.0023323615   0.0051577833   20.75157       19.345881      1.4056884     -1.2462622      18869.018    
    328000   0.99934334     0.0023323615  -0.00087940494  20.514724      19.030699      1.4840249     -1.4323534      18640.199    
    329000   0.9766729      0.0023323615   0.002642838    20.720215      19.269856      1.4503592     -1.2910562      18649.045    
    330000   0.96890037     0.0023323615   0.00074057877  20.857777      19.41896       1.4388171     -1.1147569      18666.364    
    331000   0.97571522     0.0023323615   0.0022986966   20.439703      18.990766      1.4489371     -1.4673872      18640.136    
    332000   1.0686134      0.0023323615  -0.0037951015   20.723396      19.136505      1.5868908     -1.3439426      19627.278    
    333000   0.96883332     0.0023323615   0.0025243686   20.808478      19.36976       1.4387175     -1.1035664      21247.549    
    334000   0.99936386     0.0023323615  -0.0018537217   21.084503      19.600448      1.4840553     -1.0245815      21469.658    
    335000   0.96058474     0.0023323615   0.0029601887   20.832206      19.405738      1.4264683     -1.0475423      21164.744    
    336000   1.0037484      0.0023323615   0.0018425382   20.738854      19.248287      1.4905664     -1.179481       19941.536    
    337000   0.93433415     0.0023323615  -0.003129841    20.472493      19.085007      1.3874862     -1.4110035      18686.857    
    338000   1.0482033      0.0023323615  -0.0021089163   20.697768      19.141186      1.5565819     -1.3401862      18528.386    
    339000   0.85182178     0.0023323615   0.0039561158   20.486832      19.221876      1.2649553     -1.1487716      18529.679    
    340000   0.98898547     0.0023323615  -0.0020656735   20.794771      19.326127      1.4686434     -1.2425912      18491.091    
    341000   0.92925077     0.0023323615   0.0055296177   21.022264      19.642327      1.3799374     -0.95980851     18714.881    
    342000   1.0080302      0.0023323615  -0.00097061006  20.826368      19.329443      1.4969249     -1.1734934      18595.879    
    343000   0.91934276     0.0023323615  -0.00035492056  20.488819      19.123595      1.365224      -1.3051004      18545.14     
    344000   0.98964987     0.0023323615  -0.00024223383  20.927022      19.457392      1.4696301     -1.1162193      18613.388    
    345000   1.0377711      0.0023323615   0.0038388881   20.841832      19.300742      1.5410901     -1.2826762      18507.257    
    346000   0.98325403     0.0023323615  -0.0046258163   20.990363      19.53023       1.4601322     -1.068763       18636.419    
    347000   0.94891197     0.0023323615  -0.001431829    20.549217      19.140083      1.4091343     -1.3464809      18665.896    
    348000   1.0105672      0.0023323615   0.0012446599   20.660568      19.159876      1.5006922     -1.3545372      18456.086    
    349000   1.1226002      0.0023323615  -0.00084302369  20.942215      19.275153      1.6670613     -1.2346606      18516.184    
    350000   0.88454451     0.0023323615  -0.0019532243   20.485776      19.172227      1.3135486     -1.2815022      18842.21     
    351000   1.0117547      0.0023323615  -0.0025519107   20.668204      19.165748      1.5024557     -1.3302366      18786.796    
    352000   0.97765092     0.0023323615   0.0013545245   20.708146      19.256334      1.4518116     -1.2542443      18845.551    
    353000   1.1817535      0.0023323615   0.00081101964  20.948463      19.193559      1.7549039     -1.3624578      18581.543    
    354000   0.98362682     0.0023323615   0.0027043354   20.472072      19.011387      1.4606858     -1.4175352      18473.309    
    355000   1.0476059      0.0023323615   0.00034382016  20.661653      19.105958      1.5556948     -1.4811938      18449.056    
    356000   0.97827389     0.0023323615  -0.0034616612   20.697962      19.245225      1.4527367     -1.2171293      18279.117    
    357000   0.91905018     0.0023323615   0.0038931916   20.475864      19.111074      1.3647895     -1.4019276      18529.159    
    358000   1.1680289      0.0023323615   0.0021617455   20.979595      19.245072      1.734523      -1.3006481      18458.779    
    359000   1.0720255      0.0023323615   0.0010425251   20.677189      19.085231      1.5919578     -1.4310724      18378.957    
    360000   0.98736498     0.0023323615   0.0029289778   20.714048      19.247811      1.466237      -1.3674367      18379.335    
    361000   1.0706421      0.0023323615   0.0029420859   20.880223      19.290319      1.5899036     -1.251211       18431.034    
    362000   0.95034769     0.0023323615   0.0022527813   20.946873      19.535607      1.4112663     -1.1132315      18567.952    
    363000   1.0248262      0.0023323615  -0.0022876383   20.658483      19.136616      1.5218669     -1.3002896      18668.229    
    364000   1.1128621      0.0023323615   0.0011656851   21.042706      19.390106      1.6526002     -1.0154075      18568.594    
    365000   1.0941035      0.0023323615   0.00059172299  20.972618      19.347874      1.6247437     -1.1333922      18609.872    
    366000   0.99103495     0.0023323615   0.002729938    20.899216      19.427529      1.4716869     -1.0764588      18662.155    
    367000   1.082139       0.0023323615  -0.0035294605   20.925098      19.318121      1.6069764     -1.2582699      18441.509    
    368000   1.1336715      0.0023323615  -0.0016978796   21.198948      19.515446      1.6835022     -1.1751969      18490.225    
    369000   1.0945777      0.0023323615  -0.0010461758   21.025289      19.399841      1.6254479     -1.24838        18428.414    
    370000   0.95345127     0.0023323615   0.0010705467   20.498968      19.083093      1.4158751     -1.3339035      18442.94     
    371000   1.0309032      0.0023323615  -0.00097099549  20.625546      19.094655      1.5308913     -1.3018385      18681.016    
    372000   0.96185765     0.0023323615   0.0014571316   20.807359      19.379         1.4283586     -1.1062451      18921.338    
    373000   0.87147471     0.0023323615   0.00023131535  20.729997      19.435857      1.2941399     -1.1331355      19277.599    
    374000   1.0647744      0.0023323615   0.004550738    20.999669      19.418479      1.58119       -1.1500476      19003.745    
    375000   1.0579986      0.0023323615   0.0013392058   20.835847      19.264719      1.571128      -1.2490087      18564.73     
    376000   0.93778908     0.0023323615   0.0011781719   20.671337      19.27872       1.3926168     -1.103252       18473.668    
    377000   0.90770425     0.0023323615  -0.0014551864   20.670282      19.322341      1.3479408     -1.2426324      18536.582    
    378000   0.90500573     0.0023323615   1.3543652e-05  20.55793       19.213996      1.3439335     -1.2682836      18771.3      
    379000   0.90812585     0.0023323615   0.00013526858  20.893718      19.545151      1.3485669     -1.0552586      19126.334    
    380000   0.96551005     0.0023323615   0.0017409078   20.514447      19.080665      1.4337824     -1.4617833      18648.77     
    381000   1.0692718      0.0023323615  -0.0014480412   20.920592      19.332724      1.5878686     -1.2169367      18515.315    
    382000   1.0291926      0.0023323615   0.00257737     20.583146      19.054795      1.5283509     -1.5173235      18638.183    
    383000   0.82383961     0.0023323615  -0.0024468264   20.528608      19.305207      1.2234018     -1.1724979      18414.767    
    384000   0.99279813     0.0023323615  -0.0011907188   20.859387      19.385082      1.4743052     -1.1577616      18496.783    
    385000   0.9860442      0.0023323615   0.0024348037   20.93685       19.472574      1.4642756     -1.2106985      18578.582    
    386000   0.98724349     0.0023323615  -0.0035988624   20.909908      19.443852      1.4660566     -1.107674       18723.432    
    387000   0.82032604     0.0023323615   4.9394401e-06  20.731442      19.513258      1.2181842     -1.1824218      18643.886    
    388000   0.957802       0.0023323615  -0.0016307859   20.751327      19.328991      1.422336      -1.2308906      18599.736    
    389000   0.96106022     0.0023323615  -0.0013555906   20.985439      19.558265      1.4271744     -1.0137824      18443.737    
    390000   1.0109202      0.0023323615  -0.00068646285  20.73004       19.228824      1.5012164     -1.325857       18512.811    
    391000   0.88700303     0.0023323615  -0.0067620313   20.603896      19.286696      1.3171995     -1.2716602      18660.296    
    392000   0.91896729     0.0023323615  -0.00038771982  20.822425      19.457759      1.3646664     -1.0126893      18729.662    
    393000   0.86828709     0.0023323615   0.0019054568   20.648345      19.358939      1.2894063     -1.0708534      18783.508    
    394000   1.1427286      0.0023323615  -0.004937327    21.077913      19.380961      1.696952      -1.1648011      18871.037    
    395000   1.1575353      0.0023323615   0.005531217    21.015665      19.296725      1.7189399     -1.1801372      18735.737    
    396000   1.0585942      0.0023323615   0.0027408618   20.903053      19.331041      1.5720124     -1.0996528      18726.32     
    397000   1.0144974      0.0023323615   0.00022343621  20.760677      19.254148      1.5065286     -1.2625151      18780.285    
    398000   1.0342455      0.0023323615   0.0014616941   21.141158      19.605303      1.5358546     -1.0080371      18768.412    
    399000   1.0161587      0.0023323615   0.0019959768   20.988099      19.479104      1.5089956     -1.1285335      18963.856    
    400000   0.98542508     0.0023323615  -0.0015781127   21.061604      19.598248      1.4633562     -0.96040091     19171.019    
    401000   1.0367667      0.0023323615  -6.887743e-05   21.229208      19.689609      1.5395985     -1.0234895      18949.53     
    402000   1.0434964      0.0023323615  -0.0027599649   21.132845      19.583253      1.5495921     -0.84925866     18886.348    
    403000   1.1153092      0.0023323615   0.0018850195   20.807345      19.151111      1.6562342     -1.3403678      18773.93     
    404000   1.0260941      0.0023323615   0.0040588048   21.023815      19.500066      1.5237498     -1.1101692      18728.333    
    405000   0.97813974     0.0023323615   8.2462983e-05  20.67991       19.227373      1.4525375     -1.1942415      18820.541    
    406000   0.96314885     0.0023323615   0.00012947032  20.907639      19.477363      1.430276      -1.022847       18863.879    
    407000   1.1490994      0.0023323615   0.0021883292   20.891226      19.184814      1.7064126     -1.2602626      18721.856    
    408000   0.89901409     0.0023323615  -0.0011916351   20.685839      19.350803      1.3350359     -1.193002       18602.006    
    409000   1.0563811      0.0023323615  -0.0025189696   20.634932      19.066206      1.5687259     -1.3440617      18572.619    
    410000   0.97731178     0.0023323615  -5.7024609e-05  20.634961      19.183653      1.451308      -1.3712297      18580.295    
    411000   0.9467479      0.0023323615  -0.002034045    20.577192      19.171271      1.4059206     -1.3466197      18662.438    
    412000   0.99636164     0.0023323615   0.0033492259   20.617875      19.138278      1.479597      -1.4045779      19038.427    
    413000   1.0044243      0.0023323615  -0.0021760326   20.747067      19.255497      1.49157       -1.1929337      19205.365    
    414000   1.1971105      0.0023323615  -0.00034118438  21.112851      19.335142      1.7777091     -1.1959749      19734.667    
    415000   1.0182412      0.0023323615   0.003144711    21.027688      19.5156        1.5120882     -0.97036367     20009.898    
    416000   1.0160978      0.0023323615  -0.0011651707   21.093586      19.584681      1.5089053     -0.90712897     20975.59     
    417000   0.84634149     0.0023323615   0.0018243386   20.555975      19.299158      1.2568171     -1.0840922      22450.552    
    418000   0.86118743     0.0023323615  -0.0039114228   20.656715      19.377852      1.2788633     -1.1782404      22681.061    
    419000   0.96126644     0.0023323615  -0.002268357    20.794282      19.366801      1.4274807     -1.1487873      21011.29     
    420000   0.99618483     0.0023323615   0.00086285647  20.678533      19.199198      1.4793345     -1.267424       19087.351    
    421000   0.92422076     0.0023323615   0.0015083511   20.739842      19.367375      1.3724678     -1.1760754      18761.163    
    422000   0.94726063     0.0023323615  -0.0015409851   20.712012      19.30533       1.406682      -1.1521724      18677.762    
    423000   1.1070175      0.0023323615  -0.00094341626  21.100973      19.457052      1.643921      -1.1527161      18704.282    
    424000   0.96837858     0.0023323615   0.0042551325   20.790493      19.352451      1.4380422     -1.1872432      18612.575    
    425000   0.79060789     0.0023323615   0.0021837154   20.34844       19.174388      1.1740527     -1.2801476      18672.765    
    426000   1.039097       0.0023323615  -0.00018721653  20.755041      19.211982      1.543059      -1.3219594      18720.03     
    427000   0.97207314     0.0023323615  -0.0063325067   20.713975      19.270446      1.4435286     -1.3455442      18470.998    
    428000   1.1396708      0.0023323615  -0.0010310975   21.095902      19.40349       1.6924112     -1.113275       18625.322    
    429000   0.95323414     0.0023323615  -0.0067482439   21.156189      19.740637      1.4155527     -0.91554047     18973.967    
    430000   0.9987631      0.0023323615   0.0012060023   21.020351      19.537188      1.4831632     -1.0944927      18676.518    
    431000   0.91729058     0.0023323615   0.003122121    20.425319      19.063142      1.3621765     -1.4337045      18795.233    
    432000   0.91508988     0.0023323615   0.00029749264  20.725986      19.367078      1.3589085     -1.1585643      18794.073    
    433000   0.89623446     0.0023323615   0.00081381823  20.862985      19.532077      1.3309082     -1.0288636      18691.056    
    434000   0.94734678     0.0023323615  -0.0014437615   20.905363      19.498554      1.40681       -1.0450212      18908.588    
    435000   0.9874438      0.0023323615   0.0017835604   20.840178      19.373824      1.466354      -1.1412019      19553.527    
    436000   1.0443281      0.0023323615   0.00053866634  20.938878      19.388051      1.5508272     -1.0398837      19977.842    
    437000   0.89604036     0.0023323615   0.0025288908   20.766444      19.435824      1.3306199     -1.0897748      19232.835    
    438000   1.0476583      0.0023323615   0.0018837231   20.780672      19.2249        1.5557726     -1.2476952      18791.712    
    439000   1.0533109      0.0023323615  -0.0011063394   21.000226      19.436059      1.5641666     -1.099837       18815.688    
    440000   0.95798255     0.0023323615  -0.0010194737   20.793215      19.370611      1.4226041     -1.0410515      18990.635    
    441000   0.96915202     0.0023323615  -0.00049584535  21.002697      19.563506      1.4391908     -0.94184936     19545.241    
    442000   0.81634849     0.0023323615  -0.0033099756   20.698756      19.486478      1.2122775     -1.0003103      19537.237    
    443000   1.0026015      0.0023323615  -0.0020283468   20.900358      19.411495      1.4888633     -1.0472985      18842.523    
    444000   1.0501104      0.0023323615   0.0034893183   20.963055      19.403641      1.5594139     -1.1384817      18871.922    
    445000   0.85253297     0.0023323615   0.0026604011   20.651115      19.385104      1.2660115     -1.1095715      18867.056    
    446000   0.99566794     0.0023323615   0.00010164584  20.979385      19.500818      1.4785669     -1.1067141      19195.551    
    447000   0.90031881     0.0023323615   0.0016854018   20.704479      19.367505      1.3369734     -1.0955625      19604.233    
    448000   0.96158179     0.0023323615  -0.0015626475   20.925502      19.497553      1.427949      -1.0477866      20347.214    
    449000   0.94940778     0.0023323615   0.0029779071   20.751144      19.341273      1.4098705     -1.1728556      19715.601    
    450000   1.1146813      0.0023323615  -0.0013207621   21.058401      19.4031        1.6553017     -1.0416833      19222.749    
    451000   1.0847494      0.0023323615   0.0058121704   21.181334      19.570481      1.6108528     -0.93821956     19025.425    
    452000   0.93316974     0.0023323615  -0.0010627752   20.83055       19.444793      1.3857571     -1.0625323      18696.567    
    453000   1.0749747      0.0023323615  -0.00044816663  20.985547      19.38921       1.5963375     -1.1583174      18659.654    
    454000   1.0474006      0.0023323615  -0.00035350732  20.82851       19.27312       1.5553898     -1.1669259      18564.239    
    455000   0.87095017     0.0023323615   0.0012942159   20.581066      19.287705      1.293361      -1.2171268      18750.569    
    456000   0.95928254     0.0023323615  -0.0047554267   20.924997      19.500462      1.4245346     -1.0235659      18810.347    
    457000   0.97622064     0.0023323615  -0.0011791999   20.510167      19.060479      1.4496876     -1.3910703      18665.848    
    458000   0.88473347     0.0023323615  -0.0016492136   20.558623      19.244793      1.3138292     -1.2332766      18533.677    
    459000   1.0210829      0.0023323615   0.0058231172   20.856559      19.340251      1.5163082     -1.2308235      18780.222    
    460000   1.0547332      0.0023323615   0.0031762741   20.850848      19.284569      1.5662788     -1.18733        18688.19     
    461000   1.0470795      0.0023323615  -0.00051750545  21.116029      19.561116      1.554913      -1.0518802      18712.74     
    462000   1.0768575      0.0023323615  -0.0018836075   20.928725      19.329591      1.5991334     -1.0727918      18799.761    
    463000   0.89754236     0.0023323615   0.00072773358  20.948782      19.615932      1.3328504     -0.9865564      18837.452    
    464000   1.060194       0.0023323615   0.0020755864   20.854901      19.280513      1.5743881     -1.2018927      19005.127    
    465000   1.0144664      0.0023323615  -0.0012725816   21.040302      19.533819      1.5064827     -1.0277179      19183.661    
    466000   1.1086104      0.0023323615   0.001648371    20.850351      19.204065      1.6462865     -1.1211175      19213.025    
    467000   0.93490167     0.0023323615  -0.00055586445  20.929123      19.540794      1.388329      -0.99847667     19376.938    
    468000   1.0122533      0.0023323615   0.0024057093   21.163502      19.660306      1.5031961     -0.98684148     19340.26     
    469000   0.83433054     0.0023323615   0.00091715474  20.343811      19.10483       1.2389809     -1.3371686      18661.642    
    470000   0.95739551     0.0023323615  -0.0014841305   20.446152      19.024419      1.4217323     -1.4499144      18591.324    
    471000   1.0757363      0.0023323615   0.00018970683  20.97916       19.381692      1.5974683     -1.15927        18664.528    
    472000   0.9364021      0.0023323615  -0.0074590239   20.69486       19.304303      1.3905571     -1.2888524      18707.069    
    473000   1.0702589      0.0023323615   0.00012306385  20.846853      19.257519      1.5893344     -1.2373373      18735.491    
    474000   1.1079878      0.0023323615  -0.0014505821   21.010356      19.364994      1.6453619     -1.1604144      18776.102    
    475000   0.96831356     0.0023323615   0.0041409286   20.984412      19.546466      1.4379456     -1.0536973      18840.4      
    476000   0.95436155     0.0023323615   0.0012876434   20.803644      19.386417      1.4172269     -1.187335       18938.887    
    477000   0.97228497     0.0023323615  -0.0022193274   20.647249      19.203406      1.4438432     -1.289377       18891.957    
    478000   0.9862747      0.0023323615   0.0054898761   20.513539      19.048921      1.4646179     -1.4157344      18623.838    
    479000   0.81614068     0.0023323615  -0.003253376    20.500983      19.289014      1.2119689     -1.15128        18644.206    
    480000   1.0345811      0.0023323615  -0.00077529929  21.02486       19.488508      1.5363529     -1.1799761      18613.245    
    481000   1.0673624      0.0023323615   0.0027861803   20.723007      19.137974      1.5850332     -1.3989019      18531.95     
    482000   0.92481801     0.0023323615  -0.0027274477   20.770501      19.397146      1.3733547     -1.1631363      18568.425    
    483000   0.93926854     0.0023323615  -0.00053635487  20.614967      19.220153      1.3948138     -1.2220166      18567.972    
    484000   0.8607529      0.0023323615  -0.0026903967   20.667332      19.389114      1.2782181     -1.1701626      18754.204    
    485000   1.1023944      0.0023323615   0.002778292    21.095206      19.45815       1.6370557     -1.0137893      19011.784    
    486000   1.0132249      0.0023323615   0.0015100069   20.982267      19.477628      1.504639      -0.98527864     18769.652    
    487000   1.1068141      0.0023323615   0.00052585876  20.808794      19.165175      1.643619      -1.4162195      18800.214    
    488000   1.1241435      0.0023323615   0.0069568482   20.812361      19.143008      1.6693531     -1.5219496      18648.498    
    489000   1.1014788      0.0023323615  -0.00024091194  20.59344       18.957744      1.6356959     -1.5151744      18600.897    
    490000   0.98422514     0.0023323615   0.0037782986   20.646416      19.184841      1.4615743     -1.3736408      18703.504    
    491000   1.1186134      0.0023323615   0.00091480228  20.878773      19.217632      1.6611409     -1.3245736      18571.475    
    492000   1.0208773      0.0023323615  -1.3729402e-05  20.659556      19.143553      1.5160029     -1.4381457      18637.104    
    493000   0.88350599     0.0023323615   0.00038656542  20.727495      19.415488      1.3120064     -1.1266785      18621.434    
    494000   0.9450384      0.0023323615   0.00079673145  20.598214      19.194832      1.403382      -1.50015        18498.113    
    495000   1.0242552      0.0023323615   0.00029819119  20.831015      19.309996      1.521019      -1.2224749      18635.487    
    496000   0.8866031      0.0023323615  -0.0024979346   20.420285      19.103679      1.3166056     -1.3751473      18549.128    
    497000   0.98110879     0.0023323615  -0.0041451095   20.530267      19.073321      1.4569465     -1.506996       18474.615    
    498000   1.0784751      0.0023323615  -0.00040336287  20.561329      18.959794      1.6015355     -1.4351868      18531.595    
    499000   1.0461138      0.0023323615  -0.0048443055   20.70934       19.155861      1.5534789     -1.4056098      18539.244    
    500000   0.84209816     0.0023323615  -0.00077330464  20.709         19.458485      1.2505158     -1.1101221      18641.828    
    501000   1.0116776      0.0023323615   0.0055678061   20.626421      19.124079      1.5023413     -1.4077568      18653.154    
    502000   0.95998024     0.0023323615  -0.0013232805   20.811792      19.386221      1.4255706     -1.2457027      18597.434    
    503000   1.1989542      0.0023323615   0.0064983324   21.04423       19.263783      1.780447      -1.2515633      18608.519    
    504000   1.1707568      0.0023323615  -0.0027522592   20.783177      19.044603      1.7385738     -1.4282598      18748.741    
    505000   0.91899028     0.0023323615  -0.0015220326   20.501459      19.136758      1.3647006     -1.2353684      18579.814    
    506000   0.96300296     0.0023323615  -0.0017108337   20.841218      19.411159      1.4300594     -1.0156869      18577.604    
    507000   0.97413969     0.0023323615   0.0015823083   20.993489      19.546892      1.4465974     -0.92406628     18872.175    
    508000   0.98261013     0.0023323615   0.0033964395   20.874215      19.415039      1.459176      -0.99798905     19042.041    
    509000   0.9544909      0.0023323615  -0.0010328544   20.922846      19.505427      1.417419      -1.0703598      19382.992    
    510000   1.0206369      0.0023323615  -0.0029295591   20.911927      19.396282      1.5156458     -1.1701931      19312.598    
    511000   0.94535031     0.0023323615  -0.00051117413  20.776409      19.372563      1.4038452     -1.2662357      18963.909    
    512000   1.0134274      0.0023323615  -0.0016196034   20.845559      19.340619      1.5049397     -1.1094896      18702.316    
    513000   0.99816526     0.0023323615  -0.0011527396   20.538293      19.056017      1.4822754     -1.3078025      18699.797    
    514000   0.80865843     0.0023323615  -0.00080157395  20.733485      19.532627      1.2008578     -1.0927724      18921.015    
    515000   0.92936589     0.0023323615  -0.0053322014   20.805566      19.425458      1.3801084     -1.1159124      18771.727    
    516000   0.8866037      0.0023323615   0.00051381066  20.601309      19.284703      1.3166065     -1.2421693      18543.236    
    517000   0.89119675     0.0023323615  -0.0035120832   20.684172      19.360745      1.3234272     -1.0927724      18682.961    
    518000   1.0362625      0.0023323615   0.0012111973   20.92643       19.38758       1.5388497     -1.2067015      18694.704    
    519000   0.93133318     0.0023323615  -0.0017159754   20.784455      19.401425      1.3830298     -1.1235522      18649.891    
    520000   1.0268978      0.0023323615  -0.0012941687   20.855303      19.33036       1.5249432     -1.2041046      18791.412    
    521000   1.0668646      0.0023323615   0.0062773498   21.253085      19.668791      1.5842939     -0.90409997     18773.503    
    522000   0.93238093     0.0023323615  -0.00012015889  20.983205      19.59862       1.3845857     -1.0877908      18911.723    
    523000   1.1172578      0.0023323615  -0.00024846344  20.74335       19.084222      1.6591278     -1.4028969      18650.181    
    524000   1.1062984      0.0023323615  -0.00096236098  21.037001      19.394148      1.6428531     -1.088402       18603.501    
    525000   1.0651224      0.0023323615   0.0022608724   21.084587      19.50288       1.5817068     -1.075769       18740.577    
    526000   1.0287484      0.0023323615  -0.0012072828   20.946956      19.419264      1.5276914     -1.1549574      18694.27     
    527000   0.96582271     0.0023323615   0.00063022059  21.041974      19.607727      1.4342467     -1.0195062      18766.846    
    528000   1.0789236      0.0023323615  -0.0013766722   21.016545      19.414344      1.6022015     -1.045479       18585.595    
    529000   1.077953       0.0023323615  -0.00020789733  20.6728        19.072039      1.6007602     -1.362715       18657.774    
    530000   0.8551961      0.0023323615   0.0016908612   20.639645      19.369679      1.2699662     -1.1244659      18774.75     
    531000   0.924467       0.0023323615  -0.0015478896   20.765895      19.393062      1.3728335     -1.0255437      18841.456    
    532000   0.98110221     0.0023323615  -0.00089998135  20.840535      19.383598      1.4569368     -1.1817921      19025.743    
    533000   1.0476003      0.0023323615   0.00063133831  20.95933       19.403643      1.5556864     -1.0621811      19138.491    
    534000   0.97559221     0.0023323615   0.0048935983   20.870695      19.421941      1.4487544     -1.1056557      18818.59     
    535000   0.89855312     0.0023323615   0.00064883739  20.622487      19.288136      1.3343514     -1.0919488      18575.326    
    536000   0.93202577     0.0023323615  -0.0011547075   20.95452       19.570462      1.3840583     -0.99531403     18670.362    
    537000   0.90111802     0.0023323615  -0.0035026286   20.839119      19.500958      1.3381603     -1.1462473      18882.093    
    538000   1.0869991      0.0023323615  -0.0023641229   21.122004      19.507811      1.6141936     -0.99850191     18870.591    
    539000   1.0299958      0.0023323615  -0.0021313835   21.0684        19.538856      1.5295438     -0.98589702     19516.193    
    540000   0.96719085     0.0023323615  -0.0031206601   20.543784      19.107505      1.4362784     -1.372276       19391.322    
    541000   1.0964992      0.0023323615  -5.0096298e-05  20.900908      19.272607      1.6283013     -1.2610203      18707.76     
    542000   1.0648992      0.0023323615   0.00058544168  21.014038      19.432663      1.5813753     -1.0575169      18729.472    
    543000   1.0188647      0.0023323615  -0.0036985826   20.928093      19.415079      1.5130141     -1.1129828      18855.055    
    544000   0.99044975     0.0023323615   0.0008228392   20.990096      19.519278      1.4708179     -0.99131902     18878.468    
    545000   0.92004693     0.0023323615  -0.0025701593   20.761115      19.394845      1.3662697     -1.0674333      18834.434    
    546000   0.93733755     0.0023323615  -0.0020489247   20.951721      19.559775      1.3919463     -0.9717327      19117.198    
    547000   0.9998411      0.0023323615   0.00018440213  20.739234      19.25447       1.484764      -1.2181197      18895.644    
    548000   0.94227555     0.0023323615   0.0025476395   20.929051      19.529772      1.3992792     -0.98612156     18641.842    
    549000   0.83882094     0.0023323615  -0.00084888356  20.243302      18.997653      1.2456491     -1.5167222      18799.619    
    550000   1.0270133      0.0023323615  -0.0014523671   20.652533      19.127419      1.5251148     -1.3688264      18662.079    
    551000   1.0385446      0.0023323615   0.00042434877  20.724921      19.182682      1.5422388     -1.3353124      18525.961    
    552000   0.9729876      0.0023323615   0.0027947871   20.833026      19.38814       1.4448866     -1.2374038      18769.323    
    553000   0.95497944     0.0023323615  -8.6552839e-05  20.929113      19.510968      1.4181445     -1.0812648      18850.711    
    554000   1.0071993      0.0023323615  -0.00048556587  20.702529      19.206838      1.495691      -1.2095039      18902.708    
    555000   0.87175969     0.0023323615  -0.00045960057  20.626093      19.33153       1.2945631     -1.2697914      18950.976    
    556000   0.93590477     0.0023323615  -0.0029114935   20.757227      19.367409      1.3898186     -1.1776607      18745.399    
    557000   0.95628746     0.0023323615   0.0016948374   20.867677      19.44759       1.4200869     -1.1331099      18634.704    
    558000   0.95911492     0.0023323615  -0.0017469833   20.526401      19.102115      1.4242857     -1.2921636      18707.374    
    559000   1.0950738      0.0023323615  -0.0041265074   21.095527      19.469343      1.6261846     -1.1398389      18630.846    
    560000   1.0677204      0.0023323615   0.0020631037   21.02908       19.443515      1.5855648     -1.0716367      19287.091    
    561000   1.012517       0.0023323615   0.0032022701   20.997585      19.493997      1.5035877     -1.0323173      20374.781    
    562000   1.0810396      0.0023323615   0.0016583633   21.122211      19.516867      1.6053438     -0.87747588     19753.996    
    563000   1.1775102      0.0023323615  -0.00099138921  21.317172      19.568569      1.7486026     -0.97156048     19387.284    
    564000   0.99893041     0.0023323615  -0.00051476972  20.945294      19.461882      1.4834117     -1.027453       18993.414    
    565000   1.0259336      0.0023323615   0.0014492691   20.853251      19.32974       1.5235114     -1.281443       18782.54     
    566000   0.98865858     0.0023323615   0.0015153176   21.051922      19.583764      1.468158      -0.96497628     18775.6      
    567000   0.89573132     0.0023323615  -0.00084403308  20.558243      19.228082      1.330161      -1.2605079      18714.224    
    568000   1.0556853      0.0023323615   0.0048683945   21.261765      19.694072      1.5676926     -1.0284657      18685.535    
    569000   0.97751768     0.0023323615  -0.0013958297   20.674654      19.22304       1.4516137     -1.1495706      18642.145    
    570000   0.92421973     0.0023323615   0.0011785912   20.628015      19.255548      1.3724663     -1.224216       18685.818    
    571000   1.0947796      0.0023323615   0.00016842269  20.570222      18.944474      1.6257478     -1.4995741      18632.985    
    572000   1.0028751      0.0023323615   0.0038708583   20.629912      19.140642      1.4892696     -1.2874319      18796.281    
    573000   0.94898612     0.0023323615  -0.00080584934  20.475658      19.066414      1.4092444     -1.3072815      18769.623    
    574000   1.1269609      0.0023323615  -0.0015316594   20.857101      19.183564      1.673537      -1.3220171      18634.651    
    575000   1.0367963      0.0023323615  -0.0017255822   20.639793      19.10015       1.5396426     -1.4128461      18652.3      
    576000   0.85055878     0.0023323615   0.00076928871  20.414191      19.151111      1.2630798     -1.3840265      18610.143    
    577000   0.96228195     0.0023323615  -0.00031751717  20.520034      19.091045      1.4289887     -1.3699387      18727.258    
    578000   0.95938267     0.0023323615  -0.0048058382   20.553676      19.128993      1.4246833     -1.4543651      18672.895    
    579000   0.95818254     0.0023323615   5.1666941e-05  20.706267      19.283366      1.4229011     -1.1573855      18556.615    
    580000   1.00049        0.0023323615  -0.00062318125  20.778667      19.29294       1.4857276     -1.3201781      18586.643    
    581000   0.95335736     0.0023323615   0.0028624084   20.846001      19.430266      1.4157357     -1.1189403      18772.186    
    582000   1.0134861      0.0023323615  -0.0041227626   20.964611      19.459584      1.5050269     -1.0584537      18929.652    
    583000   0.94721701     0.0023323615  -0.00061499775  20.512741      19.106123      1.4066173     -1.337304       18767.174    
    584000   1.1059526      0.0023323615   0.0019607883   20.909177      19.266837      1.6423397     -1.2931781      18724.707    
    585000   1.0369199      0.0023323615   0.0037460361   20.816447      19.276621      1.5398261     -1.2551583      18746.543    
    586000   1.0228863      0.0023323615  -0.00010352101  21.136497      19.617511      1.5189862     -1.1482822      18773.909    
    587000   0.94010501     0.0023323615  -0.0024136988   20.692872      19.296817      1.3960559     -1.2400246      18658.698    
    588000   1.1201919      0.0023323615   0.00039296717  21.179764      19.516279      1.663485      -1.0484656      18719.865    
    589000   0.99552277     0.0023323615   0.0053519905   21.260383      19.782032      1.4783513     -0.91409781     19219.562    
    590000   1.1442579      0.0023323615  -0.001536284    21.062825      19.363602      1.699223      -1.312337       18747.311    
    591000   0.89599825     0.0023323615  -0.00026449303  20.709207      19.378649      1.3305574     -1.2380097      18544.686    
    592000   1.0400665      0.0023323615   0.0014549487   20.661725      19.117226      1.5444987     -1.3597686      18614.742    
    593000   0.9169904      0.0023323615  -0.0025967071   20.754163      19.392432      1.3617307     -1.2033987      18671.749    
    594000   1.101384       0.0023323615   0.00063072635  20.774245      19.13869       1.6355552     -1.258996       18838.266    
    595000   0.90670189     0.0023323615  -0.00038596582  20.666199      19.319747      1.3464523     -1.2408769      18742.023    
    596000   0.87683037     0.0023323615  -0.0013867816   20.800144      19.498051      1.3020931     -1.0213265      18821.641    
    597000   1.0378681      0.0023323615   0.0050376905   20.977766      19.436532      1.5412341     -1.1325326      18801.004    
    598000   0.88541824     0.0023323615   0.00031807438  20.58611       19.271264      1.3148461     -1.2362448      18791.288    
    599000   0.9449341      0.0023323615  -0.00082256042  20.811012      19.407785      1.4032271     -1.1245978      18783.034    
    600000   1.0800108      0.0023323615   0.0014716403   21.144003      19.540187      1.603816      -0.9879809      18837.975    
    601000   1.1000027      0.0023323615   0.0031202644   20.995221      19.361717      1.6335041     -1.1781424      18840.471    
    602000   0.93497253     0.0023323615  -0.0014255256   20.812099      19.423665      1.3884342     -1.0621135      18765.826    
    603000   0.84744663     0.0023323615  -0.0010605296   20.488743      19.230285      1.2584582     -1.2302458      18848.273    
    604000   0.9670632      0.0023323615  -0.0014010978   20.775638      19.339549      1.4360889     -1.1394503      18802.428    
    605000   0.97184393     0.0023323615   0.00078279965  20.72345       19.280262      1.4431882     -1.2078146      18926.605    
    606000   1.0006146      0.0023323615   0.0023325743   20.804906      19.318994      1.4859128     -1.2187654      18629.622    
    607000   1.0727396      0.0023323615   0.0033653843   20.924124      19.331106      1.5930184     -1.1152591      18586.615    
    608000   0.99771389     0.0023323615  -0.0015474485   20.984231      19.502626      1.4816051     -1.094793       18738.044    
    609000   1.0368175      0.0023323615  -0.00049824386  21.202534      19.66286       1.539674      -0.88876713     18740.788    
    610000   1.0671225      0.0023323615  -0.0041073024   21.251794      19.667117      1.5846768     -0.82758174     19764.988    
    611000   1.0838393      0.0023323615  -0.0007712584   20.842431      19.23293       1.6095014     -1.292759       20064.071    
    612000   1.0404562      0.0023323615  -1.8617053e-05  21.073371      19.528294      1.5450775     -1.0608023      19815.811    
    613000   1.08108        0.0023323615  -0.0012653098   21.056645      19.451241      1.6054039     -1.10567        19329.941    
    614000   1.1281542      0.0023323615   0.0018633697   21.105359      19.430051      1.6753089     -1.1766925      18845.917    
    615000   0.92403408     0.0023323615  -0.0015686283   20.823759      19.451569      1.3721906     -1.1976636      18652.655    
    616000   1.1266566      0.0023323615  -2.9877297e-06  21.287058      19.613973      1.6730851     -1.0199574      18829.314    
    617000   0.98010682     0.0023323615  -0.00074553105  21.087757      19.632298      1.4554586     -1.0906232      19007.118    
    618000   1.0539976      0.0023323615   0.0016732534   20.825747      19.260561      1.5651864     -1.270216       18832.952    
    619000   1.1290033      0.0023323615  -0.00037173315  20.979072      19.302502      1.67657       -1.1111269      18771.833    
    620000   0.86408553     0.0023323615  -0.0030685869   20.449746      19.166579      1.283167      -1.3863713      18607.676    
    621000   0.87799217     0.0023323615   0.0017491954   20.570446      19.266628      1.3038184     -1.2424703      18553.918    
    622000   1.0201343      0.0023323615  -0.00080930282  20.832366      19.317467      1.5148994     -1.2538544      18649.174    
    623000   1.0448436      0.0023323615  -0.00049761821  20.857724      19.306131      1.5515927     -1.2793509      18663.111    
    624000   0.9749007      0.0023323615  -0.0020614732   20.674536      19.226808      1.4477275     -1.310654       18709.713    
    625000   1.01021        0.0023323615  -0.0035372662   20.649567      19.149405      1.5001618     -1.3016495      18632.63     
    626000   0.96928833     0.0023323615  -0.0051285916   20.516578      19.077185      1.4393932     -1.3914203      18576.259    
    627000   0.98031679     0.0023323615   0.00037376411  20.721512      19.265742      1.4557704     -1.1777935      18621.169    
    628000   0.95865803     0.0023323615   0.0046949082   20.906297      19.48269       1.4236072     -1.1953128      18545.668    
    629000   0.93786831     0.0023323615  -0.0032574832   20.860959      19.468225      1.3927344     -1.1646685      18596.364    
    630000   0.84463494     0.0023323615  -0.0008456988   20.492348      19.238065      1.2542829     -1.3962045      18656.386    
    631000   0.93654339     0.0023323615   0.0052349422   20.792628      19.401861      1.3907669     -1.1114642      18583.138    
    632000   1.1584111      0.0023323615  -0.0019970121   20.882268      19.162028      1.7202406     -1.2434473      18594.451    
    633000   0.91440543     0.0023323615  -0.0043482601   20.830857      19.472965      1.3578921     -1.1073099      18857.425    
    634000   1.0986547      0.0023323615  -0.0024025287   21.073968      19.442466      1.6315023     -1.1213202      19492.403    
    635000   1.0838884      0.0023323615   0.00024346386  21.165942      19.556368      1.6095743     -0.86679103     19342.617    
    636000   0.98603958     0.0023323615   0.0017519301   20.976956      19.512687      1.4642688     -0.9426193      19261.343    
    637000   1.0593894      0.0023323615   0.00067201135  21.230859      19.657666      1.5731933     -0.91203057     19493.289    
    638000   0.97033298     0.0023323615   6.9587103e-05  20.934993      19.494049      1.4409445     -0.86591571     19764.049    
    639000   0.92265431     0.0023323615  -0.00066976174  20.666242      19.2961        1.3701416     -1.1116797      19528.109    
    640000   1.0057956      0.0023323615   0.00068217426  20.587753      19.094147      1.4936064     -1.2634691      18972.16     
    641000   0.90037232     0.0023323615   0.002899095    20.796684      19.459632      1.3370529     -1.0566145      18808.663    
    642000   1.0362566      0.0023323615   0.0021273746   20.641802      19.102961      1.538841      -1.3602579      18734.562    
    643000   0.95578263     0.0023323615   0.00044806656  20.638661      19.219324      1.4193372     -1.2418631      18715.547    
    644000   1.0609505      0.0023323615   0.0011032678   20.962178      19.386666      1.5755115     -1.1249465      18782.024    
    645000   0.84641114     0.0023323615  -0.0024658807   20.752392      19.495472      1.2569205     -1.090339       18915.92     
    646000   1.1528794      0.0023323615   0.0030544205   20.770563      19.058537      1.7120259     -1.416699       18656.564    
    647000   0.95660525     0.0023323615   0.0032247697   20.972912      19.552353      1.4205588     -0.93263765     18638.935    
    648000   0.90872696     0.0023323615  -0.0029399333   20.779275      19.429816      1.3494595     -1.0290931      19018.834    
    649000   0.95244158     0.0023323615   0.0044852333   20.85467       19.440294      1.4143757     -1.0464256      19026.255    
    650000   0.94054033     0.0023323615   0.0031881422   20.494022      19.09732       1.3967024     -1.4073324      18782.621    
    651000   0.81030226     0.0023323615  -0.0029631079   20.436059      19.23276       1.2032989     -1.2890247      18610.476    
    652000   0.92922572     0.0023323615   0.0026468767   20.375639      18.995739      1.3799002     -1.4418771      18633.82     
    653000   1.0139456      0.0023323615  -0.0004097099   20.538233      19.032524      1.5057092     -1.4082233      18525.545    
    654000   1.037182       0.0023323615   0.00025952159  20.485615      18.9454        1.5402153     -1.619011       18383.936    
    655000   0.99070038     0.0023323615   0.00047807394  20.454759      18.983569      1.4711901     -1.4709962      18472.092    
    656000   1.1025541      0.0023323615  -0.0017110331   20.70452       19.067227      1.6372929     -1.4917299      18506.019    
    657000   1.0171934      0.0023323615   0.0011985088   20.79406       19.283528      1.5105322     -1.2776622      18639.896    
    658000   0.97229299     0.0023323615  -0.0039198417   20.577874      19.134019      1.4438551     -1.4200393      18618.308    
    659000   0.97507567     0.0023323615   0.0012657999   20.630203      19.182216      1.4479874     -1.4541576      18574.973    
    660000   1.0633873      0.0023323615   0.0033211746   20.692246      19.113115      1.5791301     -1.4582582      18573.718    
    661000   1.1224715      0.0023323615  -0.0022550712   20.722558      19.055688      1.6668701     -1.3595775      18532.142    
    662000   1.0672223      0.0023323615  -0.0021590443   20.821618      19.236793      1.5848252     -1.2922654      18603.008    
    663000   1.1358363      0.0023323615   0.0032583131   20.971815      19.285098      1.6867169     -1.3168797      18608.065    
    664000   1.0603636      0.0023323615   0.0013091603   20.684681      19.110041      1.57464       -1.3247869      18619.565    
    665000   1.0250217      0.0023323615   0.002554197    20.727655      19.205497      1.5221573     -1.3506819      18586.65     
    666000   0.97532954     0.0023323615   0.0025779528   20.687211      19.238847      1.4483644     -1.2106539      18639.962    
    667000   1.0591839      0.0023323615  -0.0034347851   21.275845      19.702957      1.5728881     -0.91223663     18803.193    
    668000   1.0902723      0.0023323615  -0.0030841319   20.854832      19.235778      1.6190543     -1.1257386      18767.548    
    669000   0.94217753     0.0023323615  -0.0017019123   20.636746      19.237612      1.3991336     -1.3696739      18710.474    
    670000   1.0580511      0.0023323615  -0.0024527243   20.662185      19.090979      1.5712058     -1.40531        18490.136    
    671000   1.1471195      0.0023323615   0.0004755917   20.932496      19.229024      1.7034724     -1.2122106      18664.958    
    672000   0.94564471     0.0023323615  -0.0029838346   20.785885      19.381603      1.4042824     -1.1643986      18735.452    
    673000   0.94739057     0.0023323615  -0.0040364373   20.744737      19.337862      1.406875      -1.1265906      18756.767    
    674000   0.80872736     0.0023323615  -0.0021564018   20.684511      19.483551      1.2009601     -1.1112405      18701.191    
    675000   0.82793319     0.0023323615  -0.002122924    20.588277      19.358796      1.2294808     -1.1590783      18646.184    
    676000   0.94588421     0.0023323615  -1.7622346e-05  20.72556       19.320922      1.4046381     -1.3011504      18688.645    
    677000   0.96713659     0.0023323615  -0.0018073405   20.745703      19.309506      1.4361978     -1.2069728      18642.817    
    678000   1.0215104      0.0023323615  -0.0011094784   20.737018      19.220075      1.5169429     -1.2965004      18669.716    
    679000   1.1287182      0.0023323615   0.00074639797  21.063583      19.387437      1.6761466     -1.098292       18473.791    
    680000   0.95168582     0.0023323615  -0.00075672116  20.752764      19.339511      1.4132534     -1.0995594      18777.094    
    681000   0.99114129     0.0023323615   0.001649021    20.805947      19.334102      1.4718448     -1.0476131      19298.674    
    682000   0.87642902     0.0023323615   0.001775657    20.834778      19.533281      1.3014971     -0.99493757     18992.373    
    683000   0.87024219     0.0023323615  -0.0038379327   20.711999      19.419689      1.2923097     -1.0818783      18856.954    
    684000   0.93188764     0.0023323615  -0.0017414922   20.632379      19.248526      1.3838531     -1.2595731      18637.491    
    685000   0.82397765     0.0023323615  -0.00014403888  20.414927      19.19132       1.2236068     -1.2621186      18573.791    
    686000   0.94241326     0.0023323615  -0.0026583115   20.62923       19.229746      1.3994837     -1.256914       18665.265    
    687000   0.89602884     0.0023323615   0.00028785426  20.461845      19.131242      1.3306028     -1.377564       18614.769    
    688000   0.99886255     0.0023323615  -0.0049848623   20.936115      19.452804      1.4833109     -1.1850229      18594.527    
    689000   1.0627631      0.0023323615  -0.0032822127   21.099206      19.521003      1.5782031     -0.96010631     18891.335    
    690000   0.92312845     0.0023323615  -0.0037573871   21.038474      19.667628      1.3708458     -0.94729525     18925.076    
    691000   0.80599686     0.0023323615  -0.0012523501   20.514071      19.317166      1.1969053     -1.144792       18814.734    
    692000   0.98583706     0.0023323615   9.7843161e-05  20.515025      19.051057      1.463968      -1.4069058      18636.436    
    693000   1.0024382      0.0023323615  -0.0010418774   20.683102      19.194481      1.4886207     -1.204748       18715.186    
    694000   0.89466881     0.0023323615   0.0052569898   20.745525      19.416942      1.3285832     -1.0536046      18783.257    
    695000   0.8486487      0.0023323615  -0.0010539025   20.794129      19.533885      1.2602433     -1.0657071      18712.702    
    696000   1.0079871      0.0023323615  -0.0036059948   20.760204      19.263344      1.4968608     -1.237219       18691.168    
    697000   0.97801184     0.0023323615  -0.0022643351   20.635671      19.183323      1.4523476     -1.2201827      18950.354    
    698000   1.1502391      0.0023323615   0.0024002091   21.322551      19.614446      1.7081051     -1.0054492      18935.111    
    699000   0.96282423     0.0023323615  -0.00090400498  20.750572      19.320778      1.429794      -1.2361141      18871.112    
    700000   1.0019872      0.0023323615   0.0043319803   20.865125      19.377174      1.487951      -1.2159527      18741.038    
    701000   1.1089792      0.0023323615   4.3941938e-05  21.099598      19.452764      1.646834      -1.1050225      18688.708    
    702000   0.93094824     0.0023323615   0.0037466402   20.751228      19.36877       1.3824581     -1.1105949      18974.605    
    703000   1.148197       0.0023323615   0.00111354     20.974175      19.269103      1.7050725     -1.3288032      18709.503    
    704000   1.0589311      0.0023323615  -0.0041428206   20.991311      19.418798      1.5725127     -1.091615       18575.173    
    705000   1.135287       0.0023323615  -0.00035782433  20.680847      18.994945      1.6859012     -1.4954787      18664.835    
    706000   1.0274095      0.0023323615   0.0033529514   20.718185      19.192482      1.5257031     -1.3658393      18622.414    
    707000   0.91272818     0.0023323615  -0.0024023169   20.65196       19.296559      1.3554014     -1.2616897      18723.095    
    708000   0.80229615     0.0023323615  -0.00071341825  20.537001      19.345592      1.1914098     -1.0714439      19025.675    
    709000   1.0312616      0.0023323615   0.0025584923   20.684558      19.153134      1.5314235     -1.3514196      18607.961    
    710000   0.99487165     0.0023323615  -0.00091503779  20.695094      19.21771       1.4773844     -1.2804957      18430.163    
    711000   0.97870622     0.0023323615  -0.00076708067  20.498062      19.044683      1.4533787     -1.4475245      18691.141    
    712000   1.0281729      0.0023323615   0.0013952358   20.62565       19.098813      1.5268368     -1.2707073      18608.672    
    713000   0.92095734     0.0023323615   0.0048813974   20.536979      19.169357      1.3676217     -1.2191915      18584.076    
    714000   1.0086855      0.0023323615  -0.0013303934   20.736471      19.238573      1.497898      -1.2716519      18808.969    
    715000   0.99548671     0.0023323615  -0.0023756862   20.807847      19.329549      1.4782978     -1.0747282      18866.403    
    716000   0.96382602     0.0023323615   0.0033832288   20.866803      19.435522      1.4312816     -1.2340568      19128.779    
    717000   1.0299537      0.0023323615   0.0013389929   21.042186      19.512705      1.5294813     -1.2282641      19677.697    
    718000   1.0567121      0.0023323615  -0.0010175718   20.69655       19.127333      1.5692175     -1.3872688      19587.571    
    719000   0.96685036     0.0023323615   0.0016781806   20.76498       19.329207      1.4357728     -1.2512105      19969.352    
    720000   0.98455333     0.0023323615   0.00094542214  20.83165       19.369588      1.4620617     -1.068047       19335.805    
    721000   1.0952411      0.0023323615   0.0026700993   20.928356      19.301923      1.626433      -1.2997895      18913.927    
    722000   1.0191584      0.0023323615  -0.00090488514  20.999142      19.485692      1.5134502     -1.0474408      18850.313    
    723000   1.0273228      0.0023323615  -0.0021332981   21.157582      19.632008      1.5255743     -0.94539331     18987.596    
    724000   0.90283782     0.0023323615  -0.0042382032   20.933466      19.592752      1.3407142     -0.92872744     18830.82     
    725000   0.91062065     0.0023323615   0.00080338045  20.85203       19.499758      1.3522717     -1.116059       18751.826    
    726000   0.92471802     0.0023323615  -0.00277654     20.542865      19.169659      1.3732063     -1.2497797      18790.531    
    727000   1.0682784      0.0023323615   0.002098494    20.879911      19.293518      1.5863934     -1.1418966      18757.235    
    728000   1.0236942      0.0023323615   0.0035592223   20.771692      19.251507      1.5201859     -1.1991186      18981.158    
    729000   0.96698533     0.0023323615   3.4009374e-06  20.759708      19.323735      1.4359732     -1.3143506      18595.235    
    730000   1.1274618      0.0023323615  -0.0016993136   20.991923      19.317642      1.6742808     -1.255258       18733.912    
    731000   0.92145454     0.0023323615  -8.4976686e-05  20.493687      19.125327      1.36836       -1.3430231      18717.018    
    732000   1.0095266      0.0023323615  -0.00014702272  21.001395      19.502248      1.499147      -1.1459047      18746.941    
    733000   0.9437339      0.0023323615   0.0021499014   20.846418      19.444973      1.4014448     -1.0786053      19118.724    
    734000   0.93335324     0.0023323615   0.0016295982   21.099287      19.713258      1.3860296     -1.0334137      18796.012    
    735000   1.0260754      0.0023323615  -0.0034841249   20.872947      19.349225      1.523722      -1.2923373      18914.654    
    736000   0.84815787     0.0023323615  -0.00088672306  20.40704       19.147525      1.2595144     -1.3221145      18946.249    
    737000   0.90562888     0.0023323615   0.0016843784   21.077575      19.732716      1.3448589     -0.88625724     19591.789    
    738000   1.0571601      0.0023323615  -0.00055884617  21.054493      19.484611      1.5698827     -0.98297826     20127.146    
    739000   0.86081275     0.0023323615  -0.001530879    20.857544      19.579237      1.2783069     -0.94987332     20137.745    
    740000   0.88204839     0.0023323615   0.0018793722   20.662614      19.352772      1.3098419     -1.0403941      19713.884    
    741000   1.0906621      0.0023323615  -0.001198707    20.928381      19.308748      1.6196332     -1.1169612      19292.869    
    742000   1.0080411      0.0023323615   0.0051283594   20.902264      19.405323      1.496941      -1.1634393      18883.368    
    743000   1.0437617      0.0023323615  -1.9990596e-05  20.794535      19.244548      1.5499861     -1.1816481      18640.167    
    744000   1.0142749      0.0023323615  -0.00076557389  20.913231      19.407033      1.5061983     -1.1433039      18646.077    
    745000   0.89079371     0.0023323615   0.0023037366   20.544382      19.221553      1.3228287     -1.2584669      18643.997    
    746000   0.94290378     0.0023323615   4.9205563e-05  20.870636      19.470424      1.4002121     -1.0605021      18597.168    
    747000   1.0507503      0.0023323615  -0.0044350991   20.809421      19.249056      1.5603642     -1.2537157      18436.805    
    748000   1.0477659      0.0023323615   0.002466671    20.657253      19.101321      1.5559323     -1.3395784      18443.85     
    749000   1.1792301      0.0023323615   0.0011666874   21.020258      19.269101      1.7511566     -1.2164976      18539.832    
    750000   0.92273606     0.0023323615  -0.0011219604   20.966224      19.595961      1.370263      -0.92764231     18686.819    
    751000   0.99902804     0.0023323615   0.0028384168   20.834038      19.350481      1.4835566     -1.1171786      18763.483    
    752000   1.0349838      0.0023323615  -0.00082228092  20.895183      19.358232      1.536951      -1.2175031      19040.439    
    753000   1.1310033      0.0023323615   2.6377244e-05  21.133397      19.453857      1.6795399     -1.0324109      19200.308    
    754000   0.90655043     0.0023323615  -0.0018269661   20.763505      19.417278      1.3462274     -1.0905026      19429.545    
    755000   0.9391087      0.0023323615   0.0029033717   20.700029      19.305453      1.3945764     -1.2107826      18898.918    
    756000   0.97594261     0.0023323615   0.0015442356   20.932418      19.483143      1.4492748     -1.0926067      18597.504    
    757000   0.94385069     0.0023323615  -0.0045368248   20.923751      19.522133      1.4016183     -1.0010673      19608.608    
    758000   0.90038318     0.0023323615   0.0011481239   20.924733      19.587664      1.337069      -1.0055544      19816.358    
    759000   1.0370009      0.0023323615  -0.0017552947   20.997401      19.457454      1.5399463     -1.077921       19007.958    
    760000   0.94911643     0.0023323615   0.0023528409   20.988995      19.579557      1.4094379     -0.94978922     19074.727    
    761000   1.0805485      0.0023323615  -0.0014183988   20.888523      19.283908      1.6046145     -1.1662973      18991.841    
    762000   1.059565       0.0023323615   0.0016837159   20.607606      19.034151      1.5734541     -1.3259745      18617.925    
    763000   0.93631529     0.0023323615   0.0018973189   20.765106      19.374678      1.3904282     -1.2762485      18646.306    
    764000   0.87443899     0.0023323615   0.0023207523   20.527599      19.229057      1.2985419     -1.2211155      18576.401    
    765000   0.87790349     0.0023323615  -0.0010956025   20.692581      19.388895      1.3036867     -1.184976       18594.832    
    766000   0.99522542     0.0023323615   0.0006829377   21.034491      19.556581      1.4779098     -1.0063541      18628.77     
    767000   0.9244283      0.0023323615   0.00017357086  20.933922      19.561146      1.372776      -1.0030442      18848.768    
    768000   1.0325395      0.0023323615  -0.0039400891   20.785804      19.252483      1.5333212     -1.1814007      19581.077    
    769000   1.0389471      0.0023323615   0.0025346903   21.087081      19.544245      1.5428364     -1.0487805      19861.832    
    770000   0.94020043     0.0023323615   0.0016149025   21.101293      19.705096      1.3961976     -0.92156316     19879.613    
    771000   1.2794851      0.0023323615   0.0003598693   21.167034      19.266998      1.9000354     -1.1869279      19351.006    
    772000   0.93887228     0.0023323615   0.0009811208   20.938207      19.543982      1.3942253     -1.1304934      18696.385    
    773000   1.0797701      0.0023323615  -0.001095105    20.832643      19.229185      1.6034585     -1.3214542      18627.804    
    774000   0.97520554     0.0023323615  -0.00048049799  20.69324       19.24506       1.4481802     -1.2509848      18599.614    
    775000   0.95420312     0.0023323615  -0.0029572002   20.989186      19.572194      1.4169916     -0.9617348      18811.783    
    776000   1.0447772      0.0023323615   0.0017842532   21.049648      19.498154      1.5514941     -1.0276134      18780.61     
    777000   1.0363181      0.0023323615  -0.0024447834   21.022837      19.483905      1.5389324     -1.0489062      18825.777    
    778000   0.91198841     0.0023323615  -0.00065330834  20.788761      19.434458      1.3543028     -1.094229       18999.791    
    779000   0.92971261     0.0023323615   0.0022448097   20.552636      19.172012      1.3806232     -1.2002861      18804.528    
    780000   1.2549183      0.0023323615   0.00058623673  21.174184      19.31063       1.8635537     -1.1621215      18680.492    
    781000   1.1083146      0.0023323615   0.0015641586   20.979873      19.334026      1.6458473     -1.1414865      18618.968    
    782000   0.77304795     0.0023323615  -0.0011323996   20.43062       19.282644      1.1479762     -1.1924402      18768.536    
    783000   0.93817649     0.0023323615  -0.0002067311   20.829587      19.436395      1.3931921     -1.1070039      18759.101    
    784000   1.0502929      0.0023323615  -0.0012463221   20.587216      19.027531      1.5596849     -1.3724242      18752.115    
    785000   0.84309187     0.0023323615  -0.0011548265   20.641282      19.389291      1.2519914     -1.2102275      18647.08     
    786000   1.1069884      0.0023323615  -0.0019293263   20.916467      19.272589      1.6438778     -1.2177951      18661.252    
    787000   1.0239906      0.0023323615   0.0022510191   20.888365      19.367739      1.520626      -1.1051766      18845.707    
    788000   0.83500936     0.0023323615   0.00038167457  20.4877        19.247711      1.2399889     -1.2784762      18858.533    
    789000   0.94816454     0.0023323615  -0.0029208315   20.539129      19.131105      1.4080243     -1.4559547      18707.63     
    790000   1.1251572      0.0023323615  -0.00096469167  21.047086      19.376228      1.6708584     -1.1165392      18630.832    
    791000   1.0204058      0.0023323615   0.00076081056  21.048627      19.533325      1.5153026     -1.0240716      18721.293    
    792000   0.94061278     0.0023323615   7.2198142e-05  20.725358      19.328548      1.39681       -1.2468249      18775.869    
    793000   0.82424749     0.0023323615  -0.00026327364  20.801273      19.577266      1.2240075     -0.90204506     18628.398    
    794000   0.99792107     0.0023323615  -0.0035670347   20.974079      19.492166      1.4819128     -0.90222372     18852.484    
    795000   1.0675282      0.0023323615  -0.00060553574  20.916754      19.331475      1.5852793     -1.1309121      18859.053    
    796000   0.87729759     0.0023323615  -0.0020650684   20.723881      19.421094      1.3027869     -1.1521709      18711.768    
    797000   0.98365971     0.0023323615   0.00051432907  20.785526      19.324792      1.4607347     -1.1658102      18713.691    
    798000   0.96936953     0.0023323615   0.0017194362   20.819203      19.379689      1.4395138     -1.1840582      18847.006    
    799000   1.1656516      0.0023323615   0.0014721664   21.002588      19.271595      1.7309926     -1.2019542      18901.498    
    800000   0.99345097     0.0023323615  -0.0031298495   20.746245      19.27097       1.4752747     -1.288513       18694.95     
    801000   1.0068591      0.0023323615  -0.0032719422   20.612743      19.117557      1.4951857     -1.3100596      18667.705    
    802000   1.0856721      0.0023323615  -0.00033014466  21.038885      19.426662      1.6122231     -1.0712583      18681.17     
    803000   1.0400723      0.0023323615   0.00024145714  20.698035      19.153528      1.5445074     -1.2763123      18750.213    
    804000   0.94486061     0.0023323615   0.00087128647  20.905818      19.5027        1.403118      -1.0327608      18879.714    
    805000   0.96915488     0.0023323615  -0.00054812317  20.6456        19.206405      1.439195      -1.2296807      18652.321    
    806000   1.1019746      0.0023323615   0.0015128994   21.150066      19.513633      1.6364323     -1.0477955      18663.677    
    807000   0.93992983     0.0023323615   0.0038958286   20.522049      19.126253      1.3957958     -1.34442        18630.61     
    808000   0.9655291      0.0023323615   0.0022633895   20.703969      19.270158      1.4338107     -1.2640658      18679.056    
    809000   1.0934857      0.0023323615   0.0018838968   20.953584      19.329758      1.6238262     -1.2158603      18686.874    
    810000   1.2430719      0.0023323615  -0.0034908517   21.448892      19.60293       1.8459618     -0.93567799     18750.667    
    811000   0.97109715     0.0023323615   0.00034541661  20.776457      19.334377      1.4420793     -1.1274148      18925.144    
    812000   1.019491       0.0023323615   0.007124828    20.960887      19.446943      1.5139441     -1.0557012      19460.775    
    813000   1.0639216      0.0023323615   0.0014805374   20.923297      19.343373      1.5799236     -1.1659815      19557.438    
    814000   1.0485145      0.0023323615   0.0011577598   20.848011      19.290967      1.557044      -1.1293917      18855.754    
    815000   0.97523683     0.0023323615  -0.0034028974   20.912663      19.464436      1.4482267     -1.1826222      18622.063    
    816000   0.85423186     0.0023323615  -0.0024598932   20.651895      19.38336       1.2685343     -1.1837156      18751.171    
    817000   1.0466952      0.0023323615  -0.001180976    20.76107       19.206727      1.5543423     -1.2395158      18609.643    
    818000   0.90453185     0.0023323615  -0.0017183441   20.319284      18.976054      1.3432298     -1.520938       18524.727    
    819000   0.80945266     0.0023323615  -0.0021672661   20.588835      19.386797      1.2020372     -1.1587581      18463.061    
    820000   0.87556753     0.0023323615  -0.0031136285   20.28476       18.984543      1.3002178     -1.4702252      18614.415    
    821000   0.93868817     0.0023323615   0.0057072716   20.832611      19.43866       1.3939519     -1.183764       18558.675    
    822000   1.0799648      0.0023323615  -0.00011747545  20.993265      19.389517      1.6037477     -1.1016166      18589.025    
    823000   1.0238125      0.0023323615   0.0030749705   20.854674      19.334313      1.5203616     -1.1834458      18964.086    
    824000   0.93058836     0.0023323615   0.00084582451  20.69157       19.309646      1.3819237     -1.3133131      20121.782    
    825000   1.0522959      0.0023323615   0.00063649078  20.81255       19.249891      1.5626594     -1.2347582      20119.75     
    826000   0.96501966     0.0023323615   0.00051481777  20.66429       19.231236      1.4330542     -1.3393781      19178.132    
    827000   1.1765065      0.0023323615   0.0021462104   21.188293      19.441181      1.7471122     -1.0334205      18763.201    
    828000   1.1377162      0.0023323615  -0.00060803556  21.022898      19.333389      1.6895086     -1.1669354      18756.513    
    829000   0.9725616      0.0023323615  -0.00025162111  20.624756      19.180502      1.444254      -1.3337647      18544.631    
    830000   1.0365873      0.0023323615   0.00035627836  20.775116      19.235784      1.5393322     -1.2991296      18638.594    
    831000   0.97613782     0.0023323615  -0.002131763    20.538091      19.088527      1.4495647     -1.388093       18591.677    
    832000   1.037088       0.0023323615  -2.6494057e-05  20.763839      19.223763      1.5400757     -1.2785441      18551.852    
    833000   1.1247014      0.0023323615  -0.0025433383   20.94253       19.272348      1.6701815     -1.2325809      18695.054    
    834000   1.0521279      0.0023323615   0.0013200133   21.226334      19.663924      1.56241       -0.83827986     18941.935    
    835000   0.98593556     0.0023323615  -0.0030000655   20.979324      19.51521       1.4641143     -1.049772       19827.758    
    836000   1.060086       0.0023323615   0.0024252908   21.065352      19.491124      1.5742277     -1.1094363      19798.658    
    837000   0.96295774     0.0023323615   0.00199402     20.85889       19.428897      1.4299922     -1.0925904      19858.496    
    838000   1.0317982      0.0023323615   0.00073371713  20.903694      19.371473      1.5322203     -1.1822828      19689.497    
    839000   0.95091711     0.0023323615  -0.0012077099   20.830422      19.41831       1.4121119     -1.1328903      19042.905    
    840000   1.03076        0.0023323615  -0.0053266772   20.93169       19.401012      1.5306786     -1.2455978      18853.802    
    841000   0.93354078     0.0023323615  -0.0018084653   20.949361      19.563053      1.3863081     -1.0458257      19162.914    
    842000   1.0413956      0.0023323615  -0.00029870052  20.97874       19.432267      1.5464724     -1.103506       19432.624    
    843000   0.96493082     0.0023323615  -0.0030861305   20.830344      19.397422      1.4329223     -1.0505296      19210.089    
    844000   0.88288003     0.0023323615  -0.00098347808  20.669798      19.358721      1.3110768     -1.0986005      18878.075    
    845000   1.0284571      0.0023323615  -0.0011904869   20.909306      19.382048      1.5272588     -1.1901677      18721.073    
    846000   0.90572547     0.0023323615   0.0012749219   20.421926      19.076923      1.3450023     -1.3654109      18682.835    
    847000   1.1423537      0.0023323615  -0.0015820049   20.926934      19.230539      1.6963953     -1.3739594      18519.509    
    848000   1.0195378      0.0023323615  -0.00080816459  20.630503      19.116489      1.5140137     -1.4012809      18573.466    
    849000   0.89068888     0.0023323615   0.0015967176   20.735842      19.413169      1.322673      -1.1385493      18718.471    
    850000   0.93592184     0.0023323615   0.00063744926  20.768086      19.378242      1.3898439     -1.1590251      18863.355    
    851000   0.90328915     0.0023323615  -0.00047642339  20.860033      19.518648      1.3413844     -1.018867       18904.91     
    852000   1.0498891      0.0023323615   0.001695183    20.966992      19.407906      1.5590854     -1.1415197      18785.59     
    853000   1.0248031      0.0023323615   0.0027976369   20.65234       19.130508      1.5218326     -1.377501       18622.062    
    854000   0.88717606     0.0023323615  -0.00028099413  20.708112      19.390656      1.3174564     -1.0814103      18763.625    
    855000   1.0333199      0.0023323615  -0.0021859385   20.776692      19.242212      1.5344801     -1.1757077      18790.641    
    856000   1.0526034      0.0023323615  -0.004074728    20.98425       19.421134      1.563116      -1.1246048      18909.788    
    857000   0.98302288     0.0023323615   0.0013845433   20.862603      19.402814      1.459789      -1.1957011      18911.518    
    858000   0.95315196     0.0023323615   0.0058145477   20.625365      19.209935      1.4154307     -1.3503763      18696.539    
    859000   1.1383571      0.0023323615  -0.0013125191   21.09385       19.40339       1.6904603     -1.1896892      18632.14     
    860000   0.95589442     0.0023323615  -0.0030389341   20.779791      19.360288      1.4195032     -1.1867908      18786.344    
    861000   0.97532179     0.0023323615  -0.0059253925   20.719406      19.271053      1.4483529     -1.2405934      18561.208    
    862000   1.0186394      0.0023323615   0.0044224069   20.804393      19.291713      1.5126795     -1.2583563      18611.357    
    863000   0.94008324     0.0023323615   2.6744051e-05  20.491045      19.095021      1.3960236     -1.3258512      18627.293    
    864000   0.93891668     0.0023323615  -0.0041828187   21.08068       19.686388      1.3942913     -1.0172194      18851.979    
    865000   0.99623038     0.0023323615   0.0013632978   20.759593      19.280191      1.4794021     -1.147367       18866.311    
    866000   0.92239317     0.0023323615   0.0015596459   20.880703      19.51095       1.3697539     -0.9851691      18765.378    
    867000   0.97322461     0.0023323615  -0.00079088347  21.009341      19.564103      1.4452385     -1.1032416      18893.656    
    868000   1.0770147      0.0023323615   0.0043936047   20.814451      19.215084      1.5993668     -1.192706       18841.001    
    869000   1.1257194      0.0023323615  -0.001621617    20.796142      19.124448      1.6716934     -1.4147881      18678.063    
    870000   1.0608367      0.0023323615  -0.00073469028  20.94023       19.364888      1.5753425     -1.1870016      18640.501    
    871000   0.91240511     0.0023323615   3.3974975e-05  20.294314      18.939392      1.3549216     -1.5146065      18621.857    
    872000   1.0479666      0.0023323615  -0.00027682638  20.898242      19.342011      1.5562304     -1.1188545      18745.79     
    873000   1.0454135      0.0023323615   0.0019899678   20.811307      19.258868      1.552439      -1.1996641      19069.206    
    874000   0.85481766     0.0023323615   0.00018993742  20.901747      19.632343      1.2694042     -0.89337132     18872.928    
    875000   0.90751731     0.0023323615   0.0026953297   20.725405      19.377742      1.3476632     -1.1208958      19078.646    
    876000   0.89420339     0.0023323615   0.00075336512  20.322434      18.994542      1.327892      -1.3603067      18635.038    
    877000   0.88123447     0.0023323615  -0.00080635984  20.596547      19.287913      1.3086332     -1.2770225      18666.186    
    878000   0.98392901     0.0023323615   0.0019601878   20.820246      19.359111      1.4611346     -1.1074666      18709.888    
    879000   0.95695063     0.0023323615  -0.00086607677  20.615755      19.194684      1.4210717     -1.3006324      18964.367    
    880000   0.96291975     0.0023323615  -0.0005743799   20.841341      19.411405      1.4299358     -1.0811166      19067.719    
    881000   0.98409246     0.0023323615  -0.002055552    20.756204      19.294826      1.4613773     -1.0812182      18920.961    
    882000   0.94414361     0.0023323615   0.0012402209   20.839203      19.437149      1.4020533     -1.0072554      18855.123    
    883000   1.130405       0.0023323615   0.00041553399  20.971107      19.292455      1.6786515     -1.1294036      18859.463    
    884000   1.0345073      0.0023323615  -0.00027397063  21.061258      19.525015      1.5362433     -0.9889803      18929.763    
    885000   0.82385049     0.0023323615   0.00016268727  20.846983      19.623565      1.223418      -0.93021575     18882.111    
    886000   0.81519745     0.0023323615   7.8818085e-05  20.911002      19.700433      1.2105682     -0.91163522     18859.117    
    887000   1.0892643      0.0023323615  -0.0039888631   21.325782      19.708224      1.6175575     -0.80780167     19044.653    
    888000   1.066544       0.0023323615   0.0012922933   21.016038      19.43222       1.5838179     -0.96343142     18902.626    
    889000   0.98292812     0.0023323615  -0.0037557171   20.949892      19.490244      1.4596483     -0.9164767      18965.044    
    890000   0.96573034     0.0023323615  -0.00077578607  21.056926      19.622817      1.4341095     -0.8540235      18968.998    
    891000   0.97602176     0.0023323615   0.00018021207  21.339743      19.890351      1.4493923     -0.76775945     19218.063    
    892000   0.92821425     0.0023323615  -0.0021132363   21.074806      19.696408      1.3783982     -0.88028586     19114.979    
    893000   1.0142518      0.0023323615  -0.0019269332   20.908607      19.402444      1.506164      -1.1151679      18932.679    
    894000   1.0296203      0.0023323615  -0.00043431752  20.766908      19.237922      1.5289862     -1.2121291      18642.65     
    895000   1.0869568      0.0023323615  -0.00038724183  20.914022      19.299891      1.6141308     -1.1413546      18796.441    
    896000   0.98003416     0.0023323615  -0.0025078427   20.828794      19.373444      1.4553507     -1.0871004      18784.24     
    897000   1.0674108      0.0023323615  -0.0011273284   20.673762      19.088657      1.5851051     -1.3365028      18827.897    
    898000   1.0469389      0.0023323615   0.00086324455  20.816625      19.261921      1.5547042     -1.4006775      18677.465    
    899000   1.0159811      0.0023323615  -0.0027048189   20.781758      19.273026      1.5087319     -1.2196138      18902.389    
    900000   0.94607706     0.0023323615  -0.00023308633  20.512598      19.107674      1.4049244     -1.4156582      19008.609    
    901000   0.9866923      0.0023323615  -0.0012828221   20.725063      19.259825      1.4652381     -1.2357066      18690.741    
    902000   0.88940196     0.0023323615   0.001511747    20.789115      19.468353      1.3207619     -1.2599318      18571.679    
    903000   1.0469911      0.0023323615   0.0017656823   20.834292      19.27951       1.5547818     -1.3034067      18669.999    
    904000   1.0175844      0.0023323615  -0.00010133546  20.968909      19.457796      1.5111129     -1.1167329      18794.487    
    905000   0.86629491     0.0023323615   0.00059057141  20.804792      19.518344      1.2864479     -1.0111197      18739.068    
    906000   1.0103078      0.0023323615  -2.5348404e-05  20.652395      19.152088      1.5003071     -1.2960166      18689.135    
    907000   1.0044846      0.0023323615  -0.0020792252   21.029941      19.538281      1.4916596     -1.0613583      18672.025    
    908000   0.99902239     0.0023323615   0.00069060637  21.020682      19.537134      1.4835482     -1.1074715      18883.257    
    909000   1.1662671      0.0023323615   0.0041878952   21.2457        19.513793      1.7319066     -0.99061871     18775.128    
    910000   1.0673641      0.0023323615   0.0028845087   20.691434      19.106399      1.5850357     -1.4020279      18784.929    
    911000   0.99053566     0.0023323615   0.00089422723  20.680413      19.209468      1.4709455     -1.3548547      18561.46     
    912000   1.1099746      0.0023323615  -0.0032773414   20.953494      19.305182      1.6483122     -1.3086827      18563.172    
    913000   1.0243141      0.0023323615   0.0033372814   21.060606      19.539499      1.5211064     -1.1925856      18573.342    
    914000   0.93444631     0.0023323615   0.00029590895  20.714922      19.327269      1.3876528     -1.1562521      18687.386    
    915000   0.98911691     0.0023323615  -0.00016357516  20.805757      19.336918      1.4688386     -1.1720342      18625.082    
    916000   0.9100744      0.0023323615  -0.0014938074   20.615401      19.26394       1.3514605     -1.1925837      18492.705    
    917000   0.90882177     0.0023323615   0.0013673072   20.886293      19.536693      1.3496003     -0.97761393     18662.386    
    918000   1.0105207      0.0023323615  -0.00098990603  20.817058      19.316435      1.5006232     -1.2306315      18851.872    
    919000   1.0069851      0.0023323615  -0.003645977    20.815547      19.320174      1.4953728     -1.1828951      18599.122    
    920000   0.89741735     0.0023323615   0.00077093035  20.747905      19.415241      1.3326648     -1.103108       18759.982    
    921000   1.0006679      0.0023323615   0.0014061936   20.894228      19.408236      1.4859919     -1.1060919      18580.108    
    922000   1.0661599      0.0023323615  -0.0026241152   21.072788      19.489541      1.5832474     -1.1158334      18641.225    
    923000   1.0211233      0.0023323615   0.0010251566   20.714282      19.197914      1.5163682     -1.3820607      18637.22     
    924000   0.96988512     0.0023323615   0.0032383289   20.904138      19.463858      1.4402794     -1.1197699      18627.209    
    925000   1.1204272      0.0023323615  -0.0009954918   21.107147      19.443313      1.6638343     -1.1269468      18776.561    
    926000   0.92006228     0.0023323615   0.00069362846  20.764049      19.397757      1.3662925     -1.1508933      18755.395    
    927000   1.1229624      0.0023323615  -0.00051334863  21.062938      19.395339      1.6675991     -1.1930078      18797.991    
    928000   0.94194637     0.0023323615  -0.0027970772   20.762503      19.363713      1.3987904     -1.1752301      18667.667    
    929000   1.1312734      0.0023323615   0.0020373608   21.230927      19.550986      1.6799409     -0.97114592     18838.177    
    930000   1.1703745      0.0023323615  -0.0016804903   21.304857      19.566851      1.7380061     -1.0127828      18843.37     
    931000   1.0080426      0.0023323615  -0.00065053834  20.880799      19.383855      1.4969433     -1.0236527      18807.895    
    932000   1.1191639      0.0023323615   0.0010745034   21.002766      19.340808      1.6619585     -1.1818426      18694.07     
    933000   1.0741922      0.0023323615  -0.00042982     20.988407      19.393232      1.5951754     -1.162543       18666.598    
    934000   1.1347259      0.0023323615  -0.0050840706   21.077562      19.392494      1.6850679     -1.0897476      18751.47     
    935000   0.96152387     0.0023323615   0.00027053244  21.00146       19.573597      1.427863      -1.1165395      18804.284    
    936000   0.82833694     0.0023323615   0.00074798687  20.669124      19.439044      1.2300804     -1.1939367      18867.116    
    937000   1.0155382      0.0023323615   1.3516762e-05  20.877978      19.369904      1.5080743     -1.1322313      18898.234    
    938000   1.1136411      0.0023323615   0.0032880072   20.796796      19.143039      1.653757      -1.3639397      18735.276    
    939000   0.88681011     0.0023323615  -0.0013815386   20.540513      19.2236        1.316913      -1.3116623      18701.247    
    940000   0.78405853     0.0023323615   0.00090870968  20.281754      19.117427      1.1643269     -1.2892215      18825.983    
    941000   1.0753072      0.0023323615   0.0021777305   21.030799      19.433968      1.5968312     -1.112195       18760.461    
    942000   1.0978446      0.0023323615   0.0013319581   21.04754       19.41724       1.6302992     -1.0542199      18654.088    
    943000   1.0381477      0.0023323615  -0.00049745706  20.963284      19.421634      1.5416494     -1.3202237      18709.808    
    944000   1.0395603      0.0023323615   0.0017560465   20.828878      19.285131      1.5437471     -1.1991542      18528.255    
    945000   0.95722243     0.0023323615   0.0019266385   20.798905      19.37743       1.4214753     -1.057382       18525.181    
    946000   1.0089508      0.0023323615  -0.0019861652   20.769059      19.270768      1.498292      -1.279916       18452.037    
    947000   1.003958       0.0023323615   0.0029370814   20.830521      19.339644      1.4908776     -1.321806       18496.221    
    948000   0.90608863     0.0023323615   4.095698e-05   20.519501      19.173959      1.3455416     -1.3764264      18368.035    
    949000   1.0180745      0.0023323615   0.0010343802   20.859824      19.347984      1.5118406     -1.1757155      18615.536    
    950000   1.051722       0.0023323615   0.0030924509   21.043987      19.48218       1.5618072     -1.1515139      18684.185    
    951000   1.1250272      0.0023323615  -0.0041934225   21.276925      19.60626       1.6706655     -0.97617761     18678.999    
    952000   0.8970351      0.0023323615  -0.0025339736   20.562706      19.230609      1.3320971     -1.3384327      18615.648    
    953000   0.953486       0.0023323615   0.0017200128   20.516274      19.100347      1.4159267     -1.2870955      18532.982    
    954000   0.98692305     0.0023323615  -0.0017284515   20.972103      19.506522      1.4655807     -1.0749285      18636.186    
    955000   1.1388484      0.0023323615  -0.0011368961   20.801318      19.110129      1.6911898     -1.3227977      18422.38     
    956000   0.95391964     0.0023323615  -0.00088914051  20.856112      19.439541      1.4165707     -1.0796355      18644.209    
    957000   0.93793586     0.0023323615  -0.00074066182  20.773417      19.380582      1.3928347     -1.1002953      18609.758    
    958000   0.91234726     0.0023323615   0.0040635041   20.76899       19.414154      1.3548357     -1.1437832      18520.887    
    959000   0.88197078     0.0023323615  -0.00036004385  20.700182      19.390455      1.3097266     -1.1927767      18692.201    
    960000   0.92506202     0.0023323615  -0.0012657391   20.725265      19.351548      1.3737171     -1.1893959      18680.894    
    961000   1.135247       0.0023323615   0.00013587556  20.901146      19.215304      1.6858419     -1.2994713      18603.24     
    962000   1.0415496      0.0023323615  -0.00069262208  20.616872      19.070171      1.5467012     -1.3623251      18643.517    
    963000   0.93009103     0.0023323615   0.00091388859  20.803458      19.422273      1.3811852     -1.1029575      18640.759    
    964000   1.0858058      0.0023323615  -0.002311055    21.135037      19.522615      1.6124216     -1.0883488      18640.595    
    965000   1.2747719      0.0023323615   0.0038461011   21.177699      19.284663      1.8930362     -1.281082       18663.593    
    966000   1.039254       0.0023323615   4.7080511e-05  21.038451      19.495159      1.5432922     -0.98822048     18810.759    
    967000   1.0879091      0.0023323615   0.0044135895   21.197322      19.581777      1.615545      -0.93664897     18913.851    
    968000   0.85637775     0.0023323615   0.0010590517   20.894988      19.623267      1.271721      -1.0316793      19224.282    
    969000   0.98508639     0.0023323615  -0.0016513848   20.962284      19.499431      1.4628533     -1.0492112      19536.392    
    970000   1.0217377      0.0023323615   0.0011348613   21.08012       19.56284       1.5172805     -1.2374118      18881.86     
    971000   1.1379139      0.0023323615  -0.0020578916   21.02297       19.333168      1.6898022     -1.195213       18712.263    
    972000   1.0704567      0.0023323615  -4.6337544e-05  20.746299      19.156671      1.5896283     -1.3250361      18590.749    
    973000   0.98677996     0.0023323615  -0.0043188216   20.695001      19.229633      1.4653682     -1.3765886      18530.274    
    974000   0.88487086     0.0023323615   0.0001671756   20.585621      19.271588      1.3140332     -1.3163098      18553.345    
    975000   1.0635483      0.0023323615   0.00090211074  20.591675      19.012306      1.5793693     -1.3730116      18658.74     
    976000   0.91228819     0.0023323615   0.0021193251   20.622333      19.267585      1.354748      -1.2470378      18717.639    
    977000   1.0441856      0.0023323615  -0.0012591204   20.708367      19.157751      1.5506157     -1.2932527      18596.953    
    978000   0.93507978     0.0023323615  -0.0042247289   20.410737      19.022143      1.3885935     -1.4397102      18603.591    
    979000   0.93945896     0.0023323615  -0.00032847119  20.675308      19.280212      1.3950966     -1.2076241      18667.624    
    980000   1.0048842      0.0023323615  -0.0011216116   20.774901      19.282648      1.4922531     -1.2937243      18658.259    
    981000   1.029877       0.0023323615   0.0013215895   21.032626      19.503259      1.5293674     -1.1571572      18636.712    
    982000   0.99943823     0.0023323615  -0.001000223    20.740291      19.256125      1.4841658     -1.3765891      18529.755    
    983000   0.87482705     0.0023323615  -0.0012015361   20.55655       19.257432      1.2991182     -1.3459357      18653.809    
    984000   0.91846415     0.0023323615   0.0004134131   20.75163       19.38771       1.3639193     -1.1164836      18560.255    
    985000   1.019244       0.0023323615   0.00039475235  20.770238      19.256661      1.5135773     -1.2182549      18777.932    
    986000   0.9731011      0.0023323615  -0.0072904871   20.91069       19.465635      1.4450551     -1.1992923      19127.415    
    987000   1.0149332      0.0023323615  -0.0012394252   21.209122      19.701946      1.5071758     -1.0036762      19271.134    
    988000   0.95221482     0.0023323615   3.6268199e-05  20.892819      19.47878       1.414039      -1.1487673      19079.419    
    989000   0.98882111     0.0023323615   0.00047095191  20.857642      19.389242      1.4683994     -1.2344556      18808.49     
    990000   1.1288065      0.0023323615  -0.0044406986   21.216724      19.540446      1.6762777     -0.97542247     18861.633    
    991000   0.98971529     0.0023323615   0.0017904441   20.585469      19.115742      1.4697272     -1.3121147      18898.381    
    992000   1.0121633      0.0023323615   0.0039748148   20.694592      19.191529      1.5030625     -1.2628324      18425.318    
    993000   0.95800597     0.0023323615  -0.0028084373   20.829974      19.407335      1.4226389     -1.1118784      18685.133    
    994000   1.0057439      0.0023323615  -0.0018486433   20.800701      19.307171      1.4935297     -1.1218104      18724.296    
    995000   1.1371403      0.0023323615   0.0033792666   21.390016      19.701362      1.6886533     -0.92215556     18721.564    
    996000   0.9607427      0.0023323615   0.0026336584   20.84081       19.414107      1.4267029     -1.16148        18769.02     
    997000   1.0598315      0.0023323615   0.0014879135   21.006516      19.432666      1.5738498     -1.13638        18606.982    
    998000   1.1347408      0.0023323615   0.0023755675   21.00442       19.31933       1.6850901     -1.2231552      18697.38     
    999000   0.9935682      0.0023323615  -0.0028371159   20.739389      19.26394       1.4754488     -1.2290838      18619.652    
   1000000   0.98521899     0.0023323615  -0.0025276652   21.021938      19.558888      1.4630502     -0.88211851     18745.128    
Loop time of 53.0024 on 1 procs for 1000000 steps with 100 atoms

Performance: 8150567.901 tau/day, 18867.055 timesteps/s
99.4% CPU use with 1 MPI tasks x 1 OpenMP threads

MPI task timing breakdown:
Section |  min time  |  avg time  |  max time  |%varavg| %total
---------------------------------------------------------------
Pair    | 43.963     | 43.963     | 43.963     |   0.0 | 82.94
Bond    | 1.2605     | 1.2605     | 1.2605     |   0.0 |  2.38
Neigh   | 3.8424     | 3.8424     | 3.8424     |   0.0 |  7.25
Comm    | 1.4179     | 1.4179     | 1.4179     |   0.0 |  2.68
Output  | 0.21408    | 0.21408    | 0.21408    |   0.0 |  0.40
Modify  | 1.9467     | 1.9467     | 1.9467     |   0.0 |  3.67
Other   |            | 0.3582     |            |       |  0.68

Nlocal:            100 ave         100 max         100 min
Histogram: 1 0 0 0 0 0 0 0 0 0
Nghost:            344 ave         344 max         344 min
Histogram: 1 0 0 0 0 0 0 0 0 0
Neighs:           4851 ave        4851 max        4851 min
Histogram: 1 0 0 0 0 0 0 0 0 0

Total # of neighbors = 4851
Ave neighs/atom = 48.51
Ave special neighs/atom = 1.98
Neighbor list builds = 97929
Dangerous builds = 80375

write_data      ${outputfile_assembled} nofix nocoeff
write_data      7_assembled.data nofix nocoeff
System init for write_data ...
Generated 0 of 6 mixed pair_coeff terms from geometric mixing rule

Total wall time: 0:00:54
