LAMMPS (23 Jun 2022 - Update 1)
OMP_NUM_THREADS environment is not set. Defaulting to 1 thread. (src/comm.cpp:98)
  using 1 OpenMP thread(s) per MPI task


variable        runtime equal 1000000
variable		subsample_rate equal 1000

variable		outputfile_created string '3_created.data'
variable		outputfile_relaxed string '5_relaxed.data'
variable		outputfile_selfasb string '6_a_self_assemble.lammpstrj'
variable		outputfile_trajlin string '6_b_trajlin.data'
variable		outputfile_assembled string '7_assembled.data'

units           lj
atom_style      full
dimension       3
boundary        p p p
timestep        0.005

read_data       ${outputfile_created}
read_data       3_created.data
Reading data file ...
  orthogonal box = (0 0 0) to (35 35 35)
  1 by 1 by 1 MPI processor grid
  reading atoms ...
  100 atoms
  reading velocities ...
  100 velocities
  scanning bonds ...
  1 = max bonds/atom
  reading bonds ...
  99 bonds
Finding 1-2 1-3 1-4 neighbors ...
  special bond factors lj:    0        0        0       
  special bond factors coul:  0        0        0       
     2 = max # of 1-2 neighbors
     2 = max # of 1-3 neighbors
     4 = max # of 1-4 neighbors
     6 = max # of special neighbors
  special bonds CPU = 0.000 seconds
  read_data CPU = 0.017 seconds

bond_style      fene
bond_coeff      * 30.0 1.5 1.0 1.0
special_bonds   fene
Finding 1-2 1-3 1-4 neighbors ...
  special bond factors lj:    0        1        1       
  special bond factors coul:  0        1        1       
     2 = max # of 1-2 neighbors
     6 = max # of special neighbors
  special bonds CPU = 0.000 seconds

variable        Temp equal 1.0
variable        velSeed equal 926458

velocity        all create ${Temp} ${velSeed}
velocity        all create 1 ${velSeed}
velocity        all create 1 926458

### Output
thermo_style    custom step temp density press etotal pe ke epair spcpu
thermo          1000

###########################################################################
# Soft relaxation (to remove overlaps of particles)
######################################################################

pair_style      soft 1.0
pair_coeff      * * 0.0
variable        prefactor equal ramp(0,300)
fix             rampSoft all adapt 1 pair soft a * * v_prefactor

minimize        0.0 1.0e-8 1000 100000
WARNING: Using 'neigh_modify every 1 delay 0 check yes' setting during minimization (src/min.cpp:187)
Generated 0 of 6 mixed pair_coeff terms from geometric mixing rule
Neighbor list info ...
  update every 1 steps, delay 0 steps, check yes
  max neighbors/atom: 2000, page size: 100000
  master list distance cutoff = 1.3
  ghost atom cutoff = 1.3
  binsize = 0.65, bins = 54 54 54
  1 neighbor lists, perpetual/occasional/extra = 1 0 0
  (1) pair soft, perpetual
      attributes: half, newton on
      pair build: half/bin/newton
      stencil: half/bin/3d
      bin: standard
WARNING: Communication cutoff 1.3 is shorter than a bond length based estimate of 1.7550000000000001. This may lead to errors. (src/comm.cpp:727)
Per MPI rank memory allocation (min/avg/max) = 8.346 | 8.346 | 8.346 Mbytes
   Step          Temp         Density         Press          TotEng         PotEng         KinEng         E_pair         S/CPU     
         0   1              0.0023323615  -0.0039617958   21.524174      20.039174      1.485          0              0            
       362   1              0.0023323615   0.0023090379   21.485548      20.000548      1.485          0              66572.24     
Loop time of 0.00544181 on 1 procs for 362 steps with 100 atoms

94.8% CPU use with 1 MPI tasks x 1 OpenMP threads

Minimization stats:
  Stopping criterion = force tolerance
  Energy initial, next-to-last, final = 
      20.0391741078675   20.0005480767337   20.0005480767337
  Force two-norm initial, final = 11.878422 7.9509778e-09
  Force max component initial, final = 6.6117807 1.3572772e-09
  Final line search alpha, max atom move = 1 1.3572772e-09
  Iterations, force evaluations = 362 738

MPI task timing breakdown:
Section |  min time  |  avg time  |  max time  |%varavg| %total
---------------------------------------------------------------
Pair    | 0.00021416 | 0.00021416 | 0.00021416 |   0.0 |  3.94
Bond    | 0.0023366  | 0.0023366  | 0.0023366  |   0.0 | 42.94
Neigh   | 0.0017041  | 0.0017041  | 0.0017041  |   0.0 | 31.31
Comm    | 0.00018836 | 0.00018836 | 0.00018836 |   0.0 |  3.46
Output  | 0          | 0          | 0          |   0.0 |  0.00
Modify  | 0          | 0          | 0          |   0.0 |  0.00
Other   |            | 0.0009986  |            |       | 18.35

Nlocal:            100 ave         100 max         100 min
Histogram: 1 0 0 0 0 0 0 0 0 0
Nghost:             20 ave          20 max          20 min
Histogram: 1 0 0 0 0 0 0 0 0 0
Neighs:              0 ave           0 max           0 min
Histogram: 1 0 0 0 0 0 0 0 0 0

Total # of neighbors = 0
Ave neighs/atom = 0
Ave special neighs/atom = 1.98
Neighbor list builds = 17
Dangerous builds = 0

fix             nvtSoft all nvt temp ${Temp} ${Temp} 0.5
fix             nvtSoft all nvt temp 1 ${Temp} 0.5
fix             nvtSoft all nvt temp 1 1 0.5
run             100000
Generated 0 of 6 mixed pair_coeff terms from geometric mixing rule
WARNING: Communication cutoff 1.3 is shorter than a bond length based estimate of 1.7550000000000001. This may lead to errors. (src/comm.cpp:727)
Per MPI rank memory allocation (min/avg/max) = 7.221 | 7.221 | 7.221 Mbytes
   Step          Temp         Density         Press          TotEng         PotEng         KinEng         E_pair         S/CPU     
       362   1              0.0023323615   0.0023090379   21.485548      20.000548      1.485          0              0            
      1000   0.90989032     0.0023323615  -0.0021940042   21.776974      20.425787      1.3511871      0.00036425437  76787.417    
      2000   0.86546688     0.0023323615   0.0034714157   21.677128      20.39191       1.2852183      0.0025814786   76776.228    
      3000   0.98199538     0.0023323615   0.0028144228   21.866132      20.407869      1.4582631      0.0011756043   74094.563    
      4000   1.004495       0.0023323615  -0.0014058211   21.945624      20.453949      1.4916751      0.011986179    73892.539    
      5000   1.1222705      0.0023323615   0.0044495116   21.986385      20.319813      1.6665718      0.0050317639   74364.171    
      6000   1.0538243      0.0023323615   0.0023957538   21.985713      20.420784      1.564929       0.012100514    75229.51     
      7000   1.0210598      0.0023323615  -0.00038820026  21.904665      20.388391      1.5162738      0              76637.696    
      8000   0.94819751     0.0023323615   0.0024943091   21.747889      20.339816      1.4080733      0              76377.314    
      9000   0.92364502     0.0023323615   0.0020053029   21.724166      20.352554      1.3716129      1.7780894e-05  75732.154    
     10000   0.86685188     0.0023323615   0.00078277366  21.644879      20.357604      1.287275       0.0098636418   75885.541    
     11000   1.0057103      0.0023323615   0.00010113276  21.8558        20.362321      1.4934798      0.020705341    75723.133    
     12000   0.97901664     0.0023323615  -0.0026996968   21.871206      20.417366      1.4538397      0.0052928539   75582.933    
     13000   0.97718436     0.0023323615  -6.1641422e-06  21.963706      20.512587      1.4511188      0.025022446    75407.684    
     14000   1.0530014      0.0023323615  -0.0009993112   21.947994      20.384287      1.5637071      0.0020860456   74873.759    
     15000   0.99094527     0.0023323615   0.0011068478   21.895146      20.423592      1.4715537      0.0015091113   75760.491    
     16000   0.91285091     0.0023323615  -0.00025424173  21.87524       20.519657      1.3555836      0.0047853639   74498.883    
     17000   0.82806978     0.0023323615  -0.00054698156  21.701984      20.472301      1.2296836      0              75060.187    
     18000   1.043278       0.0023323615  -6.6143919e-05  22.003299      20.454031      1.5492679      0.0034319132   75898.868    
     19000   1.0879249      0.0023323615  -0.0017804642   21.998985      20.383416      1.6155685      0.015376175    74519.741    
     20000   1.1144506      0.0023323615   0.0025198298   22.190904      20.535944      1.6549592      0              75953.392    
     21000   1.0427751      0.0023323615   0.0011345349   22.099492      20.550971      1.548521       0.00040047813  75859.526    
     22000   1.0586695      0.0023323615   0.0017882747   22.05673       20.484606      1.5721242      0              75699.356    
     23000   1.0058426      0.0023323615  -0.0055245362   21.954628      20.460951      1.4936763      0.0027619031   75050.988    
     24000   0.98273442     0.0023323615   0.0015147357   21.862067      20.402707      1.4593606      0              75501.916    
     25000   0.95835343     0.0023323615   0.0017808774   21.937761      20.514606      1.4231548      0.00020839942  74928.335    
     26000   0.93993778     0.0023323615  -0.0021777292   21.884849      20.489042      1.3958076      0.0088889834   75328.239    
     27000   0.9308188      0.0023323615  -0.00011239942  21.842252      20.459986      1.3822659      0.021612409    74404.308    
     28000   1.0149581      0.0023323615   0.0041996387   21.906846      20.399633      1.5072129      0.0064059022   75318.185    
     29000   0.92841138     0.0023323615  -2.5398808e-05  21.987185      20.608494      1.3786909      0.0046112484   75258.039    
     30000   1.021043       0.0023323615   0.001589158    22.097958      20.581709      1.5162489      0.016799508    73074.897    
     31000   1.0465985      0.0023323615  -0.0021744286   22.037917      20.483718      1.5541987      0.0057879149   75611.622    
     32000   0.98907108     0.0023323615  -0.0015558606   22.044089      20.575318      1.4687705      0.009448173    75254.126    
     33000   1.0918536      0.0023323615  -0.0025643847   22.039275      20.417873      1.6214025      0              74010.611    
     34000   0.99801543     0.0023323615   0.0016279766   21.932339      20.450286      1.4820529      0.017384617    76393.628    
     35000   1.0352271      0.0023323615  -0.0052971711   22.076004      20.538692      1.5373122      0.00010473809  75281.2      
     36000   1.1141579      0.0023323615  -0.00093279925  22.222491      20.567966      1.6545245      0.00033678641  76329.655    
     37000   1.0369415      0.0023323615   0.00013065175  22.217841      20.677983      1.5398581      0.013788831    75199.018    
     38000   1.0515596      0.0023323615   0.0021717558   22.070766      20.5092        1.561566       0.0067894678   75886.923    
     39000   1.0238495      0.0023323615   0.00026414509  22.040141      20.519725      1.5204165      0.00044464649  74989.58     
     40000   1.0749111      0.0023323615  -0.0026849368   22.039327      20.443084      1.596243       0.012651334    73273.654    
     41000   0.99070886     0.0023323615  -0.0030385564   22.03241       20.561207      1.4712027      0.00092855646  76763.474    
     42000   0.95315224     0.0023323615   0.0019788197   21.965263      20.549832      1.4154311      0.020233689    75160.228    
     43000   1.0644183      0.0023323615  -0.0011168725   22.287172      20.706511      1.5806611      0.039694129    75356.735    
     44000   1.0253747      0.0023323615  -0.006676522    22.066233      20.543552      1.5226814      0              74561.38     
     45000   0.94179556     0.0023323615  -0.0047206018   21.970644      20.572077      1.3985664      0.019869988    74751.623    
     46000   1.0083495      0.0023323615  -0.0017646918   21.972114      20.474715      1.497399       0.00026040605  74783.218    
     47000   0.98767959     0.0023323615  -0.00080218158  22.091674      20.62497       1.4667042      0.024266258    74457.647    
     48000   1.1473449      0.0023323615  -0.0025885687   22.080512      20.376705      1.7038072      0.00065962995  74732.093    
     49000   1.0679312      0.0023323615   0.0017688272   21.970482      20.384604      1.5858779      0.014142422    75952.411    
     50000   0.9581935      0.0023323615   0.0014398836   21.955202      20.532284      1.4229173      0.0055011948   75488.043    
     51000   1.0215759      0.0023323615  -0.00093292688  21.934681      20.41764       1.5170402      0              75496.609    
     52000   0.98079591     0.0023323615   0.0040701936   21.977374      20.520892      1.4564819      0.0020862422   76109.53     
     53000   1.0090927      0.0023323615   0.0013324753   22.095438      20.596935      1.4985027      0              75603.945    
     54000   0.97519627     0.0023323615   0.0013260734   22.070151      20.621984      1.4481665      0.026885444    76340.517    
     55000   1.1805087      0.0023323615  -0.001586238    22.424088      20.671033      1.7530554      0.024690954    75980.1      
     56000   0.98387121     0.0023323615   0.0037155145   22.104425      20.643376      1.4610487      0.01435493     75758.534    
     57000   1.0723812      0.0023323615  -0.0037916262   22.122726      20.53024       1.592486       0.013635549    75939.001    
     58000   1.0152349      0.0023323615   0.00021908047  22.082827      20.575203      1.5076238      0.00077375639  75719.229    
     59000   1.1424502      0.0023323615  -0.0052108657   22.30072       20.604182      1.6965385      0.013308184    76455.189    
     60000   1.0359703      0.0023323615  -0.00097887545  22.188218      20.649802      1.538416       0.00011346294  74517.847    
     61000   1.1646839      0.0023323615  -0.002085017    22.239945      20.51039       1.7295556      0.012918477    75888.311    
     62000   1.101836       0.0023323615   0.0010338878   22.171386      20.53516       1.6362265      0.001396566    75813.373    
     63000   0.96616435     0.0023323615   0.00097550571  21.903821      20.469067      1.4347541      0.013027663    76883.565    
     64000   1.0068907      0.0023323615  -0.0020278726   22.061652      20.566419      1.4952327      0.013750276    75729.911    
     65000   0.98723233     0.0023323615   0.0022441476   22.031073      20.565033      1.46604        0.0066686189   76386.608    
     66000   1.0273881      0.0023323615  -0.0003515278   22.183579      20.657908      1.5256713      0              74590.3      
     67000   0.96528212     0.0023323615  -0.00014822656  21.9396        20.506156      1.4334439      0.010365557    76526.821    
     68000   1.069702       0.0023323615   9.4754668e-05  22.081119      20.492611      1.5885075      0.00049153926  73765.461    
     69000   1.1229502      0.0023323615   0.0011504079   22.200329      20.532748      1.6675811      0.0068454249   76629.456    
     70000   1.0062775      0.0023323615  -0.00085311964  22.094021      20.599699      1.4943221      0.013222355    74974.484    
     71000   1.0906935      0.0023323615   0.00015260357  22.145362      20.525682      1.6196798      0.018338513    75677.26     
     72000   1.010401       0.0023323615  -6.0487182e-06  22.154105      20.653659      1.5004455      0.0013793953   74534.821    
     73000   1.1177599      0.0023323615  -0.0034084797   22.254435      20.594562      1.6598735      0.00011231735  77216.762    
     74000   0.9768019      0.0023323615   0.00016143893  22.07312       20.622569      1.4505508      0.0084515956   75080.734    
     75000   1.1360996      0.0023323615   0.002159116    22.161595      20.474487      1.6871079      0.0089909162   75696.548    
     76000   0.97379329     0.0023323615  -0.00068458621  21.988928      20.542845      1.446083       0              75137.086    
     77000   0.94876793     0.0023323615  -0.0016073976   21.923496      20.514575      1.4089204      0.017745108    75308.407    
     78000   0.83947996     0.0023323615  -0.00062768559  21.726727      20.480099      1.2466277      0.0054510099   75947.727    
     79000   1.0090614      0.0023323615  -0.00080262643  22.068192      20.569736      1.4984562      0.00023011166  76825.272    
     80000   1.1217643      0.0023323615  -0.0038177864   22.367902      20.702082      1.66582        0.032902439    75875.269    
     81000   1.0240158      0.0023323615   0.00023547123  22.031597      20.510933      1.5206635      0.0068767308   75615.23     
     82000   1.003236       0.0023323615  -0.0022802982   21.894199      20.404393      1.4898055      0.019136282    74683.67     
     83000   1.0554159      0.0023323615   0.004011718    22.104562      20.537269      1.5672927      0.0080869707   73996.953    
     84000   0.83527346     0.0023323615  -0.0034122221   21.874648      20.634267      1.2403811      0.0030083664   75313.971    
     85000   1.036002       0.0023323615   0.0013573923   21.962923      20.42446       1.5384629      0.015709144    76090.854    
     86000   0.9432002      0.0023323615  -0.0032183248   21.913588      20.512936      1.4006523      0.013730309    76073.39     
     87000   0.95566008     0.0023323615  -0.00049614223  21.91653       20.497375      1.4191552      0.0035862035   74789.941    
     88000   0.93373351     0.0023323615  -0.00097093893  21.870485      20.483891      1.3865943      0.0018212145   74628.275    
     89000   0.9684944      0.0023323615  -0.00047342045  21.973429      20.535215      1.4382142      0.00087524744  74824.704    
     90000   0.98293324     0.0023323615  -0.0032204602   22.050919      20.591263      1.4596559      0.015353933    76346.234    
     91000   1.0832827      0.0023323615   0.0048517083   22.11977       20.511095      1.6086749      0.0052867789   77228.17     
     92000   0.85899662     0.0023323615  -0.0013049519   21.765697      20.490087      1.27561        0.0024124001   75968.769    
     93000   0.96176266     0.0023323615  -4.4223672e-05  21.874222      20.446004      1.4282176      0.0045653365   76982.235    
     94000   0.96019503     0.0023323615   0.00024459347  21.944954      20.519064      1.4258896      3.8053462e-05  76163.719    
     95000   0.94702149     0.0023323615  -0.0033658915   21.86315       20.456823      1.4063269      0              76994.409    
     96000   0.91119348     0.0023323615  -0.0013197298   21.825018      20.471896      1.3531223      0.00043282989  75501.631    
     97000   1.0016687      0.0023323615  -0.0019514304   22.013024      20.525546      1.487478       0.0048369955   75348.031    
     98000   1.02143        0.0023323615  -0.0057874974   22.177965      20.661142      1.5168235      0              74136.442    
     99000   1.032786       0.0023323615   0.0018228259   21.975336      20.441649      1.5336871      7.1595851e-05  77049.153    
    100000   1.0594928      0.0023323615   0.0036169719   22.011024      20.437677      1.5733468      0.00032948157  75298.29     
    100362   1.1904942      0.0023323615  -0.00089755607  22.316856      20.548972      1.7678839      0.00063845255  74652.705    
Loop time of 1.32496 on 1 procs for 100000 steps with 100 atoms

Performance: 32604663.581 tau/day, 75473.758 timesteps/s
99.2% CPU use with 1 MPI tasks x 1 OpenMP threads

MPI task timing breakdown:
Section |  min time  |  avg time  |  max time  |%varavg| %total
---------------------------------------------------------------
Pair    | 0.049251   | 0.049251   | 0.049251   |   0.0 |  3.72
Bond    | 0.12545    | 0.12545    | 0.12545    |   0.0 |  9.47
Neigh   | 0.80295    | 0.80295    | 0.80295    |   0.0 | 60.60
Comm    | 0.058887   | 0.058887   | 0.058887   |   0.0 |  4.44
Output  | 0.0010511  | 0.0010511  | 0.0010511  |   0.0 |  0.08
Modify  | 0.25324    | 0.25324    | 0.25324    |   0.0 | 19.11
Other   |            | 0.03414    |            |       |  2.58

Nlocal:            100 ave         100 max         100 min
Histogram: 1 0 0 0 0 0 0 0 0 0
Nghost:             60 ave          60 max          60 min
Histogram: 1 0 0 0 0 0 0 0 0 0
Neighs:             36 ave          36 max          36 min
Histogram: 1 0 0 0 0 0 0 0 0 0

Total # of neighbors = 36
Ave neighs/atom = 0.36
Ave special neighs/atom = 1.98
Neighbor list builds = 9821
Dangerous builds = 8265
unfix           nvtSoft
unfix           rampSoft
reset_timestep  0

write_data      ${outputfile_relaxed}
write_data      5_relaxed.data
System init for write_data ...
Generated 0 of 6 mixed pair_coeff terms from geometric mixing rule
WARNING: Communication cutoff 1.3 is shorter than a bond length based estimate of 1.7550000000000001. This may lead to errors. (src/comm.cpp:727)
WARNING: Not all mixed pair coeffs generated from mixing. Use write_data with 'pair ij' option to store all pair coeffs. (src/write_data.cpp:309)

###########################################################################
# Full LJ with Coulomb
######################################################################

# Cutoffs and parameters:
# - Values: Marcel Verkade's Bachelor Thesis
# - Mapping to atom groups: Patrick Onck's paper
# - 1: aliphatic, 2: aromatic, 3: anion, 4: cation
# pair_style	lj/cut/coul/cut <lj_cut_global> <coul_cut_global>
# pair_coeff	<type_1>  <type_2>  <eps>  <sigma>  <r_cut_lj>  <r_cut_coul>

# Problem: Onck's model is much more complex, and Marcel has no sigma reported
# Using sigma=1 randomly

variable		glob_ljeps equal 1.0
variable		glob_ljsig 	equal 1.0
variable		glob_coulcut equal 10.0
variable		att_ljcut equal 2.50
variable		rep_ljcut equal 1.12

pair_style		lj/cut/coul/cut 						${att_ljcut} 	${glob_coulcut}
pair_style		lj/cut/coul/cut 						2.5 	${glob_coulcut}
pair_style		lj/cut/coul/cut 						2.5 	10
pair_coeff		1 1 	${glob_ljeps} 	${glob_ljsig}	${att_ljcut} 	${glob_coulcut}
pair_coeff		1 1 	1 	${glob_ljsig}	${att_ljcut} 	${glob_coulcut}
pair_coeff		1 1 	1 	1	${att_ljcut} 	${glob_coulcut}
pair_coeff		1 1 	1 	1	2.5 	${glob_coulcut}
pair_coeff		1 1 	1 	1	2.5 	10
pair_coeff		1 2 	${glob_ljeps} 	${glob_ljsig}	${att_ljcut} 	${glob_coulcut}
pair_coeff		1 2 	1 	${glob_ljsig}	${att_ljcut} 	${glob_coulcut}
pair_coeff		1 2 	1 	1	${att_ljcut} 	${glob_coulcut}
pair_coeff		1 2 	1 	1	2.5 	${glob_coulcut}
pair_coeff		1 2 	1 	1	2.5 	10
pair_coeff		1 3 	${glob_ljeps} 	${glob_ljsig}	${rep_ljcut} 	${glob_coulcut}
pair_coeff		1 3 	1 	${glob_ljsig}	${rep_ljcut} 	${glob_coulcut}
pair_coeff		1 3 	1 	1	${rep_ljcut} 	${glob_coulcut}
pair_coeff		1 3 	1 	1	1.12 	${glob_coulcut}
pair_coeff		1 3 	1 	1	1.12 	10
pair_coeff		1 4 	${glob_ljeps} 	${glob_ljsig}	${rep_ljcut} 	${glob_coulcut}
pair_coeff		1 4 	1 	${glob_ljsig}	${rep_ljcut} 	${glob_coulcut}
pair_coeff		1 4 	1 	1	${rep_ljcut} 	${glob_coulcut}
pair_coeff		1 4 	1 	1	1.12 	${glob_coulcut}
pair_coeff		1 4 	1 	1	1.12 	10
pair_coeff		2 2 	${glob_ljeps} 	${glob_ljsig}	${att_ljcut} 	${glob_coulcut}
pair_coeff		2 2 	1 	${glob_ljsig}	${att_ljcut} 	${glob_coulcut}
pair_coeff		2 2 	1 	1	${att_ljcut} 	${glob_coulcut}
pair_coeff		2 2 	1 	1	2.5 	${glob_coulcut}
pair_coeff		2 2 	1 	1	2.5 	10
pair_coeff		2 3 	${glob_ljeps} 	${glob_ljsig}	${rep_ljcut} 	${glob_coulcut}
pair_coeff		2 3 	1 	${glob_ljsig}	${rep_ljcut} 	${glob_coulcut}
pair_coeff		2 3 	1 	1	${rep_ljcut} 	${glob_coulcut}
pair_coeff		2 3 	1 	1	1.12 	${glob_coulcut}
pair_coeff		2 3 	1 	1	1.12 	10
pair_coeff		2 4 	${glob_ljeps} 	${glob_ljsig}	${att_ljcut} 	${glob_coulcut}
pair_coeff		2 4 	1 	${glob_ljsig}	${att_ljcut} 	${glob_coulcut}
pair_coeff		2 4 	1 	1	${att_ljcut} 	${glob_coulcut}
pair_coeff		2 4 	1 	1	2.5 	${glob_coulcut}
pair_coeff		2 4 	1 	1	2.5 	10
pair_coeff		3 3 	${glob_ljeps} 	${glob_ljsig}	${rep_ljcut} 	${glob_coulcut}
pair_coeff		3 3 	1 	${glob_ljsig}	${rep_ljcut} 	${glob_coulcut}
pair_coeff		3 3 	1 	1	${rep_ljcut} 	${glob_coulcut}
pair_coeff		3 3 	1 	1	1.12 	${glob_coulcut}
pair_coeff		3 3 	1 	1	1.12 	10
pair_coeff		3 4 	${glob_ljeps} 	${glob_ljsig}	${att_ljcut} 	${glob_coulcut}
pair_coeff		3 4 	1 	${glob_ljsig}	${att_ljcut} 	${glob_coulcut}
pair_coeff		3 4 	1 	1	${att_ljcut} 	${glob_coulcut}
pair_coeff		3 4 	1 	1	2.5 	${glob_coulcut}
pair_coeff		3 4 	1 	1	2.5 	10
pair_coeff		4 4 	${glob_ljeps} 	${glob_ljsig}	${rep_ljcut} 	${glob_coulcut}
pair_coeff		4 4 	1 	${glob_ljsig}	${rep_ljcut} 	${glob_coulcut}
pair_coeff		4 4 	1 	1	${rep_ljcut} 	${glob_coulcut}
pair_coeff		4 4 	1 	1	1.12 	${glob_coulcut}
pair_coeff		4 4 	1 	1	1.12 	10


fix             noDriftRot 	all momentum 10 linear 1 1 1 angular
fix             nvt1 		all nvt temp ${Temp} ${Temp} 0.5
fix             nvt1 		all nvt temp 1 ${Temp} 0.5
fix             nvt1 		all nvt temp 1 1 0.5

# dump          assemble 	all custom 1000 				${outputfile_selfasb} id type xu yu zu vx vy vz
dump            lindump 	all custom ${subsample_rate} 	${outputfile_trajlin} id type xu yu zu vx vy vz
dump            lindump 	all custom 1000 	${outputfile_trajlin} id type xu yu zu vx vy vz
dump            lindump 	all custom 1000 	6_b_trajlin.data id type xu yu zu vx vy vz

run             ${runtime}
run             1000000
Generated 0 of 6 mixed pair_coeff terms from geometric mixing rule
Neighbor list info ...
  update every 1 steps, delay 10 steps, check yes
  max neighbors/atom: 2000, page size: 100000
  master list distance cutoff = 10.3
  ghost atom cutoff = 10.3
  binsize = 5.15, bins = 7 7 7
  1 neighbor lists, perpetual/occasional/extra = 1 0 0
  (1) pair lj/cut/coul/cut, perpetual
      attributes: half, newton on
      pair build: half/bin/newton
      stencil: half/bin/3d
      bin: standard
Per MPI rank memory allocation (min/avg/max) = 7.712 | 7.712 | 7.712 Mbytes
   Step          Temp         Density         Press          TotEng         PotEng         KinEng         E_pair         S/CPU     
         0   1.1904942      0.0023323615  -0.0013741722   21.920235      20.152351      1.7678839     -0.39598263     0            
      1000   1.0341246      0.0023323615   0.0047147568   21.474972      19.939297      1.535675      -0.60771455     33336.784    
      2000   0.94648779     0.0023323615   0.00025036217  21.096949      19.691415      1.4055344     -0.73387867     30896.576    
      3000   1.0496475      0.0023323615  -0.0025870044   21.153132      19.594405      1.5587266     -0.94508263     26451.17     
      4000   1.095923       0.0023323615   0.0014577192   21.049059      19.421613      1.6274456     -1.117807       20846.738    
      5000   1.0098279      0.0023323615   0.00046782356  20.688191      19.188596      1.4995944     -1.3241777      18875.187    
      6000   1.097384       0.0023323615   0.00044275092  20.607738      18.978123      1.6296152     -1.49768        18427.117    
      7000   1.2390155      0.0023323615   0.0019554767   21.123085      19.283147      1.8399381     -1.1853697      18257.127    
      8000   0.95973422     0.0023323615   0.00024814686  20.802566      19.37736       1.4252053     -1.1831144      18625.266    
      9000   0.90800295     0.0023323615  -0.00049750324  20.610277      19.261892      1.3483844     -1.2869052      18503.658    
     10000   0.93301333     0.0023323615  -0.0023648787   20.807336      19.421811      1.3855248     -1.0845516      18467.939    
     11000   0.90131601     0.0023323615  -0.00094462843  20.911397      19.572943      1.3384543     -1.0157122      18501.329    
     12000   0.86741214     0.0023323615  -0.0047402037   20.610172      19.322064      1.288107      -1.1720561      18491.941    
     13000   0.95299908     0.0023323615  -0.0034461106   20.628566      19.213363      1.4152036     -1.2919419      18495.539    
     14000   0.98239775     0.0023323615  -0.00067189514  20.852275      19.393415      1.4588607     -1.2208578      18707.139    
     15000   0.8926595      0.0023323615   0.0036290345   20.459881      19.134282      1.3255994     -1.3484193      18506.942    
     16000   0.94028442     0.0023323615  -0.0024399312   20.685125      19.288803      1.3963224     -1.261642       18251.441    
     17000   0.87915281     0.0023323615   0.0042536022   20.582563      19.277021      1.3055419     -1.2606093      18238.344    
     18000   1.0441147      0.0023323615   0.00085591597  20.667084      19.116573      1.5505103     -1.2644244      18463.013    
     19000   0.89331741     0.0023323615  -0.00067660022  20.725598      19.399022      1.3265763     -1.1151898      18508.644    
     20000   0.91337079     0.0023323615  -0.00064983843  20.852201      19.495846      1.3563556     -1.0265359      18405.211    
     21000   1.0727329      0.0023323615  -0.00056771749  20.928178      19.33517       1.5930083     -1.1920844      18467.898    
     22000   1.027789       0.0023323615   0.00017905927  20.748907      19.22264       1.5262667     -1.2491763      18377.735    
     23000   0.98854582     0.0023323615   0.0015280419   20.85956       19.391569      1.4679905     -1.2173084      18407.808    
     24000   0.90953056     0.0023323615   0.0022151411   20.261384      18.910731      1.3506529     -1.4946395      18317.338    
     25000   0.99283827     0.0023323615  -0.0033950576   20.673007      19.198642      1.4743648     -1.3217317      18310.661    
     26000   1.0017933      0.0023323615   0.00034936683  20.520164      19.032501      1.4876631     -1.4563513      18564.474    
     27000   1.1665083      0.0023323615   0.00052262101  20.917341      19.185076      1.7322648     -1.3216667      18549.735    
     28000   0.9646552      0.0023323615   0.00084609504  20.710572      19.278059      1.432513      -1.2459206      18517.128    
     29000   0.82438882     0.0023323615  -0.0023264421   20.179308      18.95509       1.2242174     -1.4561445      18354.764    
     30000   1.0962299      0.0023323615   0.0027929583   20.449179      18.821278      1.6279014     -1.5801037      18334.03     
     31000   1.017515       0.0023323615  -0.0002831954   20.755433      19.244423      1.5110097     -1.3595173      18374.034    
     32000   0.99148931     0.0023323615   0.0022805303   20.754268      19.281906      1.4723616     -1.2660176      18449.4      
     33000   0.97814688     0.0023323615  -0.00012797181  20.636694      19.184146      1.4525481     -1.3006851      18318.497    
     34000   1.157572       0.0023323615  -0.00068506372  20.977318      19.258324      1.7189944     -1.3119218      18302.516    
     35000   0.94830023     0.0023323615   0.0012571424   20.625113      19.216887      1.4082258     -1.2126442      18574.679    
     36000   0.94899005     0.0023323615   0.0052628385   20.760356      19.351106      1.4092502     -1.2815018      18758.395    
     37000   1.0350093      0.0023323615  -0.0010902406   21.012308      19.475319      1.5369888     -1.0927372      18598.987    
     38000   0.95283808     0.0023323615   0.0036590139   20.723436      19.308471      1.4149645     -1.1530885      18629.08     
     39000   0.97558542     0.0023323615  -0.00067081969  20.916372      19.467627      1.4487443     -1.1043024      18578.33     
     40000   1.2504242      0.0023323615   0.0018126778   21.133598      19.276719      1.8568799     -1.165085       18457.745    
     41000   0.94125038     0.0023323615  -0.0026965515   20.572417      19.17466       1.3977568     -1.2902603      18885.455    
     42000   0.9556842      0.0023323615  -0.00092872294  20.614178      19.194987      1.419191      -1.2316024      18820.218    
     43000   0.86628939     0.0023323615  -0.0010259324   20.439158      19.152719      1.2864397     -1.3814675      18543.649    
     44000   1.0909852      0.0023323615  -0.00096715279  21.036695      19.416582      1.620113      -1.052032       18601.912    
     45000   0.89457371     0.0023323615  -0.00035279178  20.867279      19.538837      1.328442      -1.0228089      18520.757    
     46000   0.94610199     0.0023323615  -0.0023282096   20.820739      19.415778      1.4049615     -1.1397246      18556.405    
     47000   0.98325073     0.0023323615  -0.001874617    20.72637       19.266242      1.4601273     -1.1888583      18601.68     
     48000   1.0213804      0.0023323615  -0.0042877967   20.903363      19.386613      1.5167498     -1.1516267      18605.505    
     49000   1.0516949      0.0023323615  -0.00083006114  20.622462      19.060695      1.5617669     -1.3803294      18394.74     
     50000   0.95722527     0.0023323615  -0.0022456417   20.545585      19.124106      1.4214795     -1.4126479      18447.337    
     51000   0.9635661      0.0023323615   0.0008681643   20.625616      19.19472       1.4308957     -1.2569927      18348.711    
     52000   0.95123112     0.0023323615   0.00048524466  20.56772       19.155142      1.4125782     -1.33281        18276.773    
     53000   1.0186255      0.0023323615   0.0022743882   20.742708      19.230049      1.5126588     -1.3315955      18200.814    
     54000   1.002302       0.0023323615   0.00090570415  20.763651      19.275232      1.4884185     -1.2282479      18382.392    
     55000   0.93301392     0.0023323615  -0.0016515574   20.505958      19.120433      1.3855257     -1.4460474      18349.568    
     56000   0.98203303     0.0023323615   0.00028881398  20.626351      19.168032      1.458319      -1.4477995      18499.903    
     57000   1.0396523      0.0023323615  -0.0013693598   20.93217       19.388286      1.5438836     -1.1267308      18648.324    
     58000   0.96551614     0.0023323615  -0.0036291953   20.697419      19.263628      1.4337915     -1.3437623      18850.291    
     59000   1.251448       0.0023323615   0.0034926305   20.974034      19.115634      1.8584003     -1.3310794      18670.247    
     60000   1.0325712      0.0023323615   0.00098268919  21.001413      19.468045      1.5333683     -1.0836083      18493.027    
     61000   0.98278394     0.0023323615   0.0019941189   20.658978      19.199544      1.4594342     -1.2334669      18573.338    
     62000   0.93739183     0.0023323615   0.0046993207   20.960001      19.567974      1.3920269     -1.0298726      18523.798    
     63000   0.89571604     0.0023323615   0.0021110597   20.716869      19.38673       1.3301383     -1.2018902      18579.157    
     64000   0.91671981     0.0023323615  -0.00030884647  20.573146      19.211818      1.3613289     -1.3022809      18684.206    
     65000   1.1872799      0.0023323615  -0.0017683122   21.011418      19.248307      1.7631106     -1.3546572      18617.196    
     66000   0.99764843     0.0023323615  -0.0032688246   20.833254      19.351746      1.4815079     -1.1904431      18340.457    
     67000   1.0150883      0.0023323615   0.0025318828   20.558591      19.051185      1.5074062     -1.4525766      18302.348    
     68000   1.0393594      0.0023323615  -0.0016290374   20.555719      19.012271      1.5434487     -1.5194059      18427.944    
     69000   1.0811356      0.0023323615  -0.001822212    20.574093      18.968606      1.6054864     -1.5634542      18375.265    
     70000   0.90260787     0.0023323615  -0.0014638981   20.157776      18.817404      1.3403727     -1.5837899      18446.29     
     71000   1.0932148      0.0023323615  -0.0058233632   20.643356      19.019932      1.623424      -1.5014245      18308.542    
     72000   1.139911       0.0023323615  -0.00075539697  20.684277      18.99151       1.6927678     -1.5492772      18463.399    
     73000   1.0021343      0.0023323615  -0.0013882245   20.584669      19.0965        1.4881695     -1.4382039      18484.52     
     74000   0.93661073     0.0023323615   0.0019539225   20.605323      19.214457      1.3908669     -1.3490171      18533.98     
     75000   1.0168407      0.0023323615  -0.0028593693   20.562424      19.052416      1.5100084     -1.4605328      18615.596    
     76000   0.89615594     0.0023323615  -0.0040003194   20.839954      19.509163      1.3307916     -1.1241813      18499.992    
     77000   0.93835031     0.0023323615  -0.0021627106   20.494102      19.100652      1.3934502     -1.4439966      18527.224    
     78000   0.94564575     0.0023323615  -0.0023159519   20.404188      18.999904      1.4042839     -1.4682554      18354.693    
     79000   1.0094354      0.0023323615   0.00080909597  20.438591      18.939579      1.4990116     -1.6090037      18375.708    
     80000   1.0982233      0.0023323615   0.001424848    20.825049      19.194187      1.6308616     -1.3557075      18524.827    
     81000   0.95948616     0.0023323615  -0.00084912093  20.294233      18.869396      1.4248369     -1.5131042      18523.451    
     82000   1.2119302      0.0023323615   0.00025255036  21.279878      19.480161      1.7997164     -1.0178695      19083.709    
     83000   1.0702473      0.0023323615   0.0010537404   21.045748      19.456431      1.5893172     -1.2335773      19142.763    
     84000   1.0618737      0.0023323615  -0.0031136388   20.424023      18.847141      1.5768824     -1.6809225      18743.234    
     85000   1.000178       0.0023323615  -0.0034099939   20.512395      19.027131      1.4852643     -1.555389       18488.766    
     86000   0.87935779     0.0023323615   0.00055141311  20.204464      18.898617      1.3058463     -1.5539731      18489.379    
     87000   0.95563752     0.0023323615  -0.0031590205   20.753356      19.334234      1.4191217     -1.1826478      18495.731    
     88000   0.98573567     0.0023323615  -0.0017312048   20.672496      19.208678      1.4638175     -1.389426       18587.28     
     89000   1.0935899      0.0023323615  -0.00072408682  20.730301      19.10632       1.623981      -1.3663048      18522.328    
     90000   1.0720738      0.0023323615  -0.00020209565  20.844942      19.252913      1.5920297     -1.390217       18490.204    
     91000   1.1831818      0.0023323615  -0.00091518033  21.163074      19.406049      1.757025      -1.1257389      18443.407    
     92000   1.0275309      0.0023323615   0.0035892422   20.920069      19.394186      1.5258835     -1.173635       18564.584    
     93000   0.97667576     0.0023323615   0.0013865497   20.669228      19.218864      1.4503635     -1.2984976      18473.316    
     94000   0.99198325     0.0023323615  -0.00030626396  20.725218      19.252123      1.4730951     -1.2844068      18342.369    
     95000   1.1634417      0.0023323615  -0.0015642596   20.930704      19.202993      1.7277109     -1.2575593      18426.26     
     96000   1.0021745      0.0023323615  -0.00010383755  20.559642      19.071413      1.4882292     -1.3982052      18262.625    
     97000   1.1492499      0.0023323615  -0.0024851191   20.872478      19.165842      1.706636      -1.3932855      18175.929    
     98000   0.9639374      0.0023323615   0.0043392214   20.619176      19.187729      1.431447      -1.4615431      18351.457    
     99000   1.0818995      0.0023323615  -0.0024815978   21.016676      19.410055      1.6066208     -1.1927069      18353.796    
    100000   0.9990165      0.0023323615  -0.00076913941  20.545634      19.062094      1.4835395     -1.5322315      18570.743    
    101000   1.1675342      0.0023323615  -0.0023986126   20.814823      19.081035      1.7337883     -1.47037        18750.164    
    102000   1.0372287      0.0023323615   0.00032993643  20.500664      18.960379      1.5402846     -1.5028562      18463.597    
    103000   1.0410634      0.0023323615   0.0013300641   20.838809      19.29283       1.5459792     -1.2522053      18436.74     
    104000   1.1514216      0.0023323615  -0.0058191926   20.96603       19.256169      1.7098611     -1.2801736      18560.676    
    105000   0.98323762     0.0023323615   0.0025999125   20.530908      19.0708        1.4601079     -1.4600987      18591.497    
    106000   1.0024345      0.0023323615   0.00046497578  20.300208      18.811592      1.4886153     -1.6838847      18425.403    
    107000   1.0129156      0.0023323615   0.00071502727  20.676557      19.172377      1.5041797     -1.394209       18388.769    
    108000   1.0471325      0.0023323615   0.0042171119   20.595847      19.040855      1.5549917     -1.4448713      18469.388    
    109000   1.0488533      0.0023323615  -0.0034189756   20.666478      19.108931      1.5575472     -1.432291       18497.956    
    110000   0.92058602     0.0023323615   0.0032570614   20.28134       18.91427       1.3670702     -1.7093855      18224.784    
    111000   1.033935       0.0023323615  -0.0005345595   20.683138      19.147744      1.5353935     -1.4705803      18215.694    
    112000   0.95632759     0.0023323615  -0.00026193458  20.710888      19.290742      1.4201465     -1.2506117      18333.804    
    113000   1.0566222      0.0023323615   0.0029079393   20.720927      19.151843      1.569084      -1.3192378      18322.963    
    114000   1.0471986      0.0023323615  -0.00084874242  20.404581      18.849491      1.5550899     -1.6386053      18370.436    
    115000   0.9627863      0.0023323615   0.00020754758  20.332353      18.902616      1.4297377     -1.5110043      18364.737    
    116000   1.0076332      0.0023323615   0.0017932739   20.525445      19.02911       1.4963354     -1.4994673      18381.464    
    117000   0.99855219     0.0023323615  -0.00041402939  20.477345      18.994495      1.48285       -1.4100611      18452.558    
    118000   0.91091478     0.0023323615   0.0021617224   20.290553      18.937845      1.3527085     -1.5680792      18508.482    
    119000   1.0909368      0.0023323615  -8.9733567e-05  20.582182      18.962141      1.6200412     -1.5226033      18373.357    
    120000   0.96533481     0.0023323615  -0.0028381727   20.737201      19.303679      1.4335222     -1.3772368      18343.575    
    121000   0.88509314     0.0023323615   1.5827734e-05  20.658937      19.344574      1.3143633     -1.1985663      18476.486    
    122000   0.90865549     0.0023323615   0.0055559158   20.183753      18.8344        1.3493534     -1.7311002      18540.662    
    123000   1.0369224      0.0023323615   7.471991e-05   20.59398       19.05415       1.5398297     -1.4748002      18317.738    
    124000   0.97276566     0.0023323615  -0.0023595417   20.701         19.256443      1.444557      -1.3584108      18448.319    
    125000   1.108878       0.0023323615  -0.00036316789  20.674359      19.027675      1.6466839     -1.5594932      18473.148    
    126000   1.0622252      0.0023323615  -0.0021043265   20.592477      19.015072      1.5774044     -1.4373888      18482.103    
    127000   0.94069638     0.0023323615   0.0018836515   20.426509      19.029575      1.3969341     -1.3952115      18528.214    
    128000   1.0303881      0.0023323615  -0.0020339011   20.46832       18.938194      1.5301263     -1.4884451      18519.623    
    129000   0.97598143     0.0023323615   0.0044459579   20.339623      18.890291      1.4493324     -1.693213       18316.454    
    130000   1.0621399      0.0023323615  -0.001613797    20.334026      18.756748      1.5772777     -1.7323108      18230.992    
    131000   0.8729614      0.0023323615  -0.0037853692   20.257838      18.961491      1.2963477     -1.6092525      18258.853    
    132000   1.0471769      0.0023323615  -0.0009565896   20.525978      18.97092       1.5550577     -1.6063357      18408.925    
    133000   1.1186669      0.0023323615   0.0017468511   20.596878      18.935658      1.6612203     -1.5217496      18427.383    
    134000   0.97646867     0.0023323615   0.0025504693   20.628216      19.17816       1.450056      -1.3381946      18498.041    
    135000   0.94669448     0.0023323615  -0.0010270723   20.243736      18.837894      1.4058413     -1.6968875      18487.557    
    136000   0.92802568     0.0023323615   0.0016146141   20.648251      19.270133      1.3781181     -1.2439706      18414.807    
    137000   0.96044123     0.0023323615   0.00063097003  20.576625      19.150369      1.4262552     -1.4172115      18529.239    
    138000   0.96307411     0.0023323615   0.0021206319   20.792318      19.362153      1.430165      -1.1385527      18550.269    
    139000   1.1171838      0.0023323615  -0.0014224261   20.911867      19.252849      1.659018      -1.2110449      18509.958    
    140000   1.023126       0.0023323615   0.0020868813   20.627347      19.108005      1.5193421     -1.4113275      18403.962    
    141000   1.1080833      0.0023323615  -0.0031439509   20.657861      19.012358      1.6455037     -1.5404531      18328.061    
    142000   0.94246059     0.0023323615   0.0022134699   20.368738      18.969184      1.399554      -1.450672       18401.007    
    143000   1.0274219      0.0023323615   0.0026363005   20.736855      19.211133      1.5257216     -1.2759354      18420.52     
    144000   1.0287317      0.0023323615   0.0031501284   20.660471      19.132805      1.5276665     -1.4600113      18245.249    
    145000   1.0770813      0.0023323615   0.00014586879  20.432441      18.832975      1.5994658     -1.678646       18312.495    
    146000   1.0088108      0.0023323615   0.0008816521   20.797694      19.29961       1.498084      -1.2993481      18203.877    
    147000   1.0462709      0.0023323615   0.0015536811   20.664614      19.110902      1.5537123     -1.3877291      18505.243    
    148000   1.0218834      0.0023323615   0.0013218448   20.55825       19.040753      1.5174969     -1.3265504      18470.441    
    149000   1.0130595      0.0023323615   0.005787005    20.622196      19.117803      1.5043933     -1.4858978      18385.307    
    150000   1.0744859      0.0023323615  -0.00075828415  20.607403      19.011792      1.5956115     -1.4474179      18394.947    
    151000   0.86728592     0.0023323615   0.0026817885   20.284977      18.997057      1.2879196     -1.3864226      18331.215    
    152000   1.0051823      0.0023323615   0.00051918963  20.497966      19.00527       1.4926957     -1.5093935      18494.055    
    153000   0.94669576     0.0023323615  -0.00010063601  20.454869      19.049025      1.4058432     -1.415878       18450.481    
    154000   1.017212       0.0023323615  -0.0025205204   20.726956      19.216397      1.5105598     -1.3607179      18313.201    
    155000   1.1197575      0.0023323615   0.0058807158   20.599532      18.936692      1.6628399     -1.5842604      18377.911    
    156000   1.026294       0.0023323615  -0.0047902152   20.714251      19.190205      1.5240467     -1.3315916      18480.427    
    157000   1.0345379      0.0023323615  -0.0031453367   21.027997      19.491708      1.5362888     -1.1891464      18546.047    
    158000   1.1155329      0.0023323615   0.00043806395  20.953567      19.297001      1.6565663     -1.2476422      18577.037    
    159000   1.0316286      0.0023323615  -0.0024428359   21.026166      19.494197      1.5319685     -1.2182212      18605.724    
    160000   1.0058983      0.0023323615   0.0022494863   20.596086      19.102327      1.4937589     -1.4043219      18561.974    
    161000   1.0726531      0.0023323615  -0.00030650298  20.521831      18.928941      1.5928898     -1.5648692      18474.205    
    162000   0.87795397     0.0023323615  -0.0026913279   20.339105      19.035343      1.3037617     -1.5680457      18416.258    
    163000   0.98355867     0.0023323615  -0.0015213667   20.502625      19.04204       1.4605846     -1.5232913      18276.121    
    164000   1.0210532      0.0023323615  -0.005025652    20.648047      19.131783      1.516264      -1.4991681      18305.382    
    165000   0.99722231     0.0023323615  -0.00097634154  20.699792      19.218917      1.4808751     -1.5025248      18448.523    
    166000   1.0095627      0.0023323615  -0.00077968936  20.676124      19.176924      1.4992005     -1.4687109      18627.13     
    167000   1.089816       0.0023323615  -0.0041901684   20.583628      18.965251      1.6183768     -1.5535473      18467.218    
    168000   1.0050355      0.0023323615  -0.0022696319   20.844391      19.351913      1.4924777     -1.2858514      18445.772    
    169000   1.0423957      0.0023323615   0.0012531679   20.625383      19.077425      1.5479576     -1.4912301      18473.972    
    170000   1.0495433      0.0023323615   0.0014356338   20.639102      19.080531      1.5585717     -1.4752307      18440.47     
    171000   0.99247319     0.0023323615   0.00046023457  20.848041      19.374219      1.4738227     -1.161959       18479.551    
    172000   0.94035772     0.0023323615   0.0059560787   20.532537      19.136106      1.3964312     -1.3430715      18446.375    
    173000   0.8795142      0.0023323615  -0.0012341906   20.579673      19.273595      1.3060786     -1.1945053      18520.925    
    174000   1.0414666      0.0023323615   0.0016172399   20.680895      19.134317      1.5465778     -1.2696653      18986.332    
    175000   0.98994519     0.0023323615  -0.00023262474  20.857021      19.386953      1.4700686     -1.2006321      18978.336    
    176000   0.95311296     0.0023323615  -0.0017037175   20.675681      19.260308      1.4153728     -1.1499652      18779.076    
    177000   0.91105185     0.0023323615   0.0026743822   20.718341      19.365429      1.352912      -1.143029       18427.087    
    178000   0.92161049     0.0023323615   0.0019623661   20.638045      19.269453      1.3685916     -1.2235926      18654.9      
    179000   0.87754243     0.0023323615   0.0039156745   20.292907      18.989756      1.3031505     -1.4582863      18484.835    
    180000   0.95170744     0.0023323615  -0.00032505207  20.397944      18.984658      1.4132855     -1.3955053      18527.571    
    181000   0.99480479     0.0023323615  -0.003123709    20.838003      19.360718      1.4772851     -1.2348357      18418.892    
    182000   0.76835992     0.0023323615  -0.0008660664   20.42308       19.282066      1.1410145     -1.1506273      18582.827    
    183000   1.077581       0.0023323615   5.3558384e-05  20.723314      19.123106      1.6002077     -1.3219269      18691.466    
    184000   1.0918466      0.0023323615  -0.00060326305  20.864084      19.242692      1.6213922     -1.3514157      18503.24     
    185000   1.096395       0.0023323615   0.00051939204  20.808059      19.179912      1.6281465     -1.3072749      18510.569    
    186000   1.0026306      0.0023323615  -0.0029224759   20.858974      19.370067      1.4889064     -1.1873226      18492.04     
    187000   0.96223541     0.0023323615  -0.0014922766   20.636469      19.207549      1.4289196     -1.3044827      18533.185    
    188000   1.1048223      0.0023323615   0.0014966523   20.972183      19.331522      1.6406612     -1.2482902      18342.284    
    189000   1.0801816      0.0023323615  -0.00071198786  20.730147      19.126078      1.6040696     -1.2931016      18323.791    
    190000   1.038376       0.0023323615  -0.0051152198   20.957481      19.415493      1.5419884     -1.3788188      18468.732    
    191000   0.91470901     0.0023323615   0.0015790571   20.37083       19.012487      1.3583429     -1.5870088      18476.322    
    192000   1.0720551      0.0023323615  -0.0058725015   20.683169      19.091167      1.5920019     -1.4992503      18359.957    
    193000   1.0745221      0.0023323615   0.002732728    20.841381      19.245716      1.5956653     -1.3237324      18455.08     
    194000   1.0190737      0.0023323615   0.001393891    20.366614      18.853289      1.5133244     -1.5901653      18312.801    
    195000   0.99279148     0.0023323615  -0.003522515    20.557834      19.083539      1.4742954     -1.5134794      18422.383    
    196000   1.0048371      0.0023323615  -0.0033949732   20.472252      18.980069      1.4921832     -1.5867511      18511.029    
    197000   0.99837288     0.0023323615  -0.005370291    20.847731      19.365147      1.4825837     -1.3809042      18425.968    
    198000   0.96986951     0.0023323615   0.0046454287   20.675492      19.235236      1.4402562     -1.3064262      18493.26     
    199000   0.93347548     0.0023323615  -0.00035764638  20.437209      19.050998      1.3862111     -1.3609461      18618.141    
    200000   0.95414807     0.0023323615   0.00069526079  20.783122      19.366212      1.4169099     -1.3750385      18680.349    
    201000   1.1036369      0.0023323615  -0.001442165    20.739972      19.101072      1.6389008     -1.3909469      18684.272    
    202000   0.82106043     0.0023323615  -0.0019650932   20.753697      19.534422      1.2192747     -0.96365628     18628.673    
    203000   0.89836187     0.0023323615  -0.0023115003   20.52164       19.187573      1.3340674     -1.3548031      18464.048    
    204000   0.96045476     0.0023323615   0.00073713812  20.715892      19.289616      1.4262753     -1.2872756      18361.656    
    205000   0.98838411     0.0023323615   0.0050682076   20.372902      18.905151      1.4677504     -1.5158846      18359.157    
    206000   1.0391733      0.0023323615   0.0052300743   20.882324      19.339152      1.5431724     -1.1952376      18498.963    
    207000   0.99670878     0.0023323615   0.0007351161   20.35546       18.875348      1.4801125     -1.4942896      18350.263    
    208000   0.86643563     0.0023323615  -0.0004640054   20.408573      19.121916      1.2866569     -1.3696275      18452.268    
    209000   1.0672891      0.0023323615  -0.0039320909   20.828897      19.243972      1.5849244     -1.2429406      18555.822    
    210000   1.0751881      0.0023323615   0.0065936167   20.632091      19.035437      1.5966543     -1.5488628      18613.613    
    211000   0.9613209      0.0023323615  -0.00081583574  20.674673      19.247111      1.4275615     -1.2761744      18543.721    
    212000   0.93057235     0.0023323615   0.00076975735  20.712851      19.330951      1.3818999     -1.1471871      18581.937    
    213000   0.94818469     0.0023323615   0.00059507911  20.662838      19.254783      1.4080543     -1.2522543      18581.498    
    214000   0.88059181     0.0023323615   0.0026974745   20.505701      19.198022      1.3076788     -1.2457619      18468.223    
    215000   1.0294603      0.0023323615  -0.00069165019  20.728183      19.199435      1.5287485     -1.2849185      18542.877    
    216000   1.0431776      0.0023323615   4.3795527e-05  20.579269      19.030151      1.5491188     -1.5740807      18476.958    
    217000   0.92888534     0.0023323615   0.001653551    20.848042      19.468648      1.3793947     -1.1052551      18499.57     
    218000   0.967065       0.0023323615   0.0047279508   20.602894      19.166802      1.4360915     -1.3368016      18386.795    
    219000   0.95805149     0.0023323615  -8.8319063e-05  20.45763       19.034923      1.4227065     -1.3600994      18412.874    
    220000   0.97989768     0.0023323615   0.0014380254   20.623387      19.168239      1.4551481     -1.3867821      18388.535    
    221000   0.95341911     0.0023323615  -0.0020699344   20.418004      19.002177      1.4158274     -1.475084       18400.377    
    222000   1.0358068      0.0023323615   0.00080096462  20.38759       18.849417      1.5381731     -1.5550309      18397.408    
    223000   0.96560476     0.0023323615   0.0028964127   20.623012      19.189089      1.4339231     -1.4432562      18389.389    
    224000   1.0032832      0.0023323615  -0.0014873409   20.768058      19.278183      1.4898755     -1.3092468      18343.194    
    225000   0.91772767     0.0023323615  -0.00059415543  20.438666      19.075841      1.3628256     -1.4432128      18430.169    
    226000   1.0958497      0.0023323615  -0.00065313022  20.78509       19.157753      1.6273368     -1.3250677      18529.487    
    227000   1.0149447      0.0023323615   0.00045574054  20.513072      19.005879      1.5071929     -1.3960616      18473.1      
    228000   1.0098354      0.0023323615  -0.0020248808   20.611524      19.111918      1.4996056     -1.3778484      18551.566    
    229000   1.0062418      0.0023323615  -0.0013342942   20.599338      19.105069      1.4942691     -1.3827975      18523.128    
    230000   1.0667576      0.0023323615  -0.0016237109   20.913142      19.329007      1.584135      -1.2843847      18506.351    
    231000   0.95401397     0.0023323615  -0.00060729021  20.409395      18.992685      1.4167107     -1.5283739      18633.361    
    232000   1.0256598      0.0023323615   0.00013822606  20.610054      19.086949      1.5231049     -1.2933011      18502.046    
    233000   1.0304853      0.0023323615  -0.002220815    20.531149      19.000878      1.5302706     -1.5568481      18341.222    
    234000   1.254399       0.0023323615   0.0016092537   21.080893      19.21811       1.8627825     -1.2279741      18392.832    
    235000   1.1252815      0.0023323615   0.0011720403   20.959306      19.288263      1.671043      -1.2135763      18357.792    
    236000   1.1004193      0.0023323615   0.00063926974  20.830958      19.196836      1.6341227     -1.38258        18401.662    
    237000   1.0667984      0.0023323615   0.0039069657   20.595239      19.011044      1.5841957     -1.528521       18316.245    
    238000   0.92424863     0.0023323615   0.0020803436   20.499934      19.127425      1.3725092     -1.3046171      18367.849    
    239000   1.0069726      0.0023323615  -0.002729259    20.308167      18.812812      1.4953543     -1.6811745      18292.915    
    240000   0.94450415     0.0023323615   0.0014359267   20.378373      18.975784      1.4025887     -1.4898971      18191.346    
    241000   1.0281587      0.0023323615   0.0039915509   20.490816      18.964         1.5268157     -1.4117574      18361.237    
    242000   1.0634339      0.0023323615  -0.00086918663  20.8729        19.2937        1.5791994     -1.2789974      18360.18     
    243000   0.96784903     0.0023323615   0.0016442093   20.587935      19.150679      1.4372558     -1.3056016      18433.58     
    244000   0.94223726     0.0023323615   0.00065838937  20.428617      19.029395      1.3992223     -1.5028588      18450.171    
    245000   1.0096697      0.0023323615  -0.0023018908   20.638171      19.138812      1.4993595     -1.4683836      18373.986    
    246000   0.87477432     0.0023323615   0.0022741076   20.210543      18.911503      1.2990399     -1.6429196      18287.69     
    247000   1.0417791      0.0023323615  -0.0040549764   20.578025      19.030983      1.5470419     -1.4898141      18153.608    
    248000   1.188337       0.0023323615  -0.0021674015   20.82807       19.06339       1.7646805     -1.3759956      18323.226    
    249000   1.0618687      0.0023323615   0.0022207419   20.755165      19.17829       1.576875      -1.2587071      18538.837    
    250000   1.164785       0.0023323615   0.0041862889   20.951126      19.22142       1.7297057     -1.3351468      18535.901    
    251000   1.1913033      0.0023323615   0.0037586654   20.746142      18.977056      1.7690855     -1.4477099      18341.907    
    252000   0.93553247     0.0023323615   0.0021951205   20.897364      19.508098      1.3892657     -1.2031699      18419.007    
    253000   1.052361       0.0023323615  -0.0017914019   20.888281      19.325525      1.5627561     -1.0600461      18935.614    
    254000   0.8792927      0.0023323615  -0.0022171607   20.506144      19.200395      1.3057497     -1.3271928      18966.947    
    255000   1.0755517      0.0023323615  -0.00083317172  20.831175      19.23398       1.5971943     -1.27656        18504.296    
    256000   1.0265085      0.0023323615   0.0037135099   20.477206      18.952841      1.5243651     -1.4567352      18428.009    
    257000   0.98517044     0.0023323615   0.0010924114   20.686111      19.223133      1.4629781     -1.321369       18629.58     
    258000   1.0094646      0.0023323615  -0.0024864046   20.936172      19.437117      1.4990549     -1.2459982      18551.718    
    259000   0.88375312     0.0023323615  -0.0023804541   20.551095      19.238721      1.3123734     -1.4646089      18483.5      
    260000   0.87959271     0.0023323615  -0.00073537129  20.612892      19.306697      1.3061952     -1.1744325      18453.152    
    261000   0.98610824     0.0023323615  -0.0022694209   20.501188      19.036817      1.4643707     -1.4288143      18561.298    
    262000   1.0321709      0.0023323615   0.0016814459   21.007317      19.474544      1.5327738     -1.1824143      18447.508    
    263000   1.15919        0.0023323615   0.0032946629   20.830201      19.108804      1.7213971     -1.4604581      18310.439    
    264000   0.91757421     0.0023323615   0.00089908715  20.518763      19.156165      1.3625977     -1.3521744      18547.711    
    265000   0.94896675     0.0023323615   0.0030889938   20.387136      18.97792       1.4092156     -1.435628       18535.673    
    266000   1.0046218      0.0023323615   0.0013318537   21.006428      19.514565      1.4918634     -1.095264       18601.25     
    267000   1.0033513      0.0023323615   0.0021799698   20.574874      19.084897      1.4899767     -1.3855343      18520.193    
    268000   0.9126717      0.0023323615  -0.0012777631   20.48416       19.128843      1.3553175     -1.3214773      18451.846    
    269000   0.94405981     0.0023323615   0.0014937406   20.459443      19.057514      1.4019288     -1.5497519      18413.934    
    270000   0.9226346      0.0023323615  -0.0032614662   20.447788      19.077675      1.3701124     -1.4852943      18423.781    
    271000   0.94405931     0.0023323615   0.0018533358   20.461956      19.060028      1.4019281     -1.4773339      18223.996    
    272000   0.90227355     0.0023323615   0.0026970573   20.743921      19.404044      1.3398762     -1.2177727      18432.072    
    273000   0.85800489     0.0023323615   0.001119253    20.482921      19.208784      1.2741373     -1.1787973      18653.652    
    274000   0.94619582     0.0023323615  -0.0017676098   20.764064      19.358963      1.4051008     -1.1764815      18378.973    
    275000   0.95806775     0.0023323615  -0.00040081818  20.703876      19.281145      1.4227306     -1.4035405      18414.736    
    276000   1.1619686      0.0023323615  -0.0015583921   20.875332      19.149809      1.7255234     -1.4620094      18350.87     
    277000   0.92798275     0.0023323615   0.00033972004  20.547347      19.169292      1.3780544     -1.2715024      18368.434    
    278000   1.0997668      0.0023323615   0.00022792831  20.800098      19.166944      1.6331536     -1.3177801      18605.369    
    279000   1.0688523      0.0023323615  -0.0020554305   20.721312      19.134066      1.5872457     -1.3481275      18500.043    
    280000   0.97659826     0.0023323615   0.0016727919   20.63647       19.186221      1.4502484     -1.3715507      18372.333    
    281000   1.0400011      0.0023323615   0.00081714837  20.74072       19.196318      1.5444016     -1.3507737      18426.556    
    282000   1.0181246      0.0023323615   0.0047763722   20.796146      19.284231      1.5119151     -1.3319518      18412.131    
    283000   1.1437992      0.0023323615   0.002726401    20.663726      18.965184      1.6985418     -1.4671396      18349.082    
    284000   1.2028751      0.0023323615   0.0028512155   20.830715      19.044445      1.7862695     -1.5066932      18392.907    
    285000   1.0687814      0.0023323615  -0.0058661291   20.808244      19.221104      1.5871404     -1.2477503      18478.798    
    286000   1.0959399      0.0023323615  -0.0029789728   20.846031      19.21856       1.6274708     -1.2805462      18572.284    
    287000   0.89028647     0.0023323615  -0.0039924955   20.505672      19.183596      1.3220754     -1.4196716      18387.838    
    288000   1.0805663      0.0023323615  -0.0030369808   20.982792      19.378151      1.604641      -1.195006       18440.804    
    289000   1.1081629      0.0023323615  -0.0014741582   21.068396      19.422774      1.645622      -1.1505826      18603.76     
    290000   1.0776869      0.0023323615  -0.0028964989   20.844466      19.244101      1.6003651     -1.2569599      18661.241    
    291000   1.1355855      0.0023323615  -0.00066093477  20.911999      19.225654      1.6863444     -1.2452831      18985.603    
    292000   0.92840902     0.0023323615   0.00075650263  20.468279      19.089592      1.3786874     -1.4043906      18765.477    
    293000   0.90943313     0.0023323615   0.0022705195   20.262399      18.911891      1.3505082     -1.5357007      18506.231    
    294000   0.94116711     0.0023323615   0.00097985215  20.218006      18.820373      1.3976332     -1.5815687      18496.8      
    295000   1.0937456      0.0023323615   0.0035741351   20.790664      19.166451      1.6242123     -1.2916127      18586.948    
    296000   0.92535425     0.0023323615  -9.5777913e-05  20.377361      19.00321       1.3741511     -1.365909       18783.982    
    297000   1.0444836      0.0023323615   0.0018823261   20.865159      19.314101      1.5510581     -1.1608782      18634.429    
    298000   1.044944       0.0023323615  -0.0030797035   20.859207      19.307465      1.5517419     -1.2540907      18507.123    
    299000   0.93221453     0.0023323615  -0.0028286672   20.79696       19.412621      1.3843386     -1.374792       18460.132    
    300000   0.93325522     0.0023323615  -0.0029164515   20.706803      19.320919      1.385884      -1.2015492      18418.225    
    301000   0.84037769     0.0023323615  -0.0013464705   20.434943      19.186982      1.2479609     -1.3149525      18501.175    
    302000   1.0657501      0.0023323615  -0.0011700436   20.724167      19.141528      1.582639      -1.3547524      18571.095    
    303000   1.0073588      0.0023323615   0.0014512738   20.699773      19.203845      1.4959279     -1.299213       18448.19     
    304000   0.96522885     0.0023323615  -0.0029294381   20.304964      18.8716        1.4333648     -1.4679525      18437.564    
    305000   0.8948344      0.0023323615   0.00052604106  20.466484      19.137655      1.3288291     -1.4004432      18573.521    
    306000   1.1158585      0.0023323615  -0.0037409771   20.93945       19.2824        1.6570498     -1.2032785      18772.239    
    307000   1.1105039      0.0023323615   0.0054637201   20.788574      19.139476      1.6490983     -1.4717893      18785.605    
    308000   1.0131201      0.0023323615   0.0017216393   20.971993      19.467509      1.5044833     -1.1731471      18666.204    
    309000   1.0257171      0.0023323615   0.0064074445   20.679886      19.156696      1.5231899     -1.4421638      18679.656    
    310000   1.0826882      0.0023323615   0.0013486199   20.775578      19.167786      1.607792      -1.4063106      18516.52     
    311000   0.97271137     0.0023323615   1.1339096e-05  20.379325      18.934849      1.4444764     -1.5415112      18398.545    
    312000   0.95515594     0.0023323615  -0.0044316993   20.322795      18.904388      1.4184066     -1.6709587      18330.053    
    313000   1.1011467      0.0023323615  -0.00088275214  20.681474      19.046271      1.6352028     -1.5359157      18323.098    
    314000   0.94733362     0.0023323615  -0.0021066673   20.358464      18.951674      1.4067904     -1.5258906      18402.218    
    315000   0.97891612     0.0023323615   0.00016498179  20.701078      19.247388      1.4536904     -1.238973       18620.006    
    316000   1.0590427      0.0023323615   0.00042605412  20.858227      19.285549      1.5726784     -1.193177       18517.273    
    317000   1.0109886      0.0023323615   0.00066224345  20.671996      19.170678      1.5013181     -1.4190561      18535.474    
    318000   1.0266085      0.0023323615   0.00051576366  20.660984      19.13647       1.5245136     -1.3757469      18331.11     
    319000   1.0234571      0.0023323615   0.00091718119  20.47507       18.955236      1.5198339     -1.5282072      18297.369    
    320000   1.0334059      0.0023323615   0.0012634637   20.710379      19.175771      1.5346078     -1.3891024      18311.336    
    321000   0.92620968     0.0023323615  -0.0013915098   20.616321      19.240899      1.3754214     -1.4026114      18408.266    
    322000   1.0022905      0.0023323615   0.00081342781  20.540736      19.052334      1.4884013     -1.3527897      18756.347    
    323000   0.97711062     0.0023323615   0.0031240646   20.48585       19.03484       1.4510093     -1.3390495      18647.78     
    324000   0.99873605     0.0023323615  -0.00052379014  20.602336      19.119213      1.483123      -1.3596349      18518.187    
    325000   0.93719458     0.0023323615  -0.00047998878  20.698892      19.307158      1.391734      -1.2387855      18348.917    
    326000   1.0913785      0.0023323615  -0.00034737299  20.537292      18.916595      1.620697      -1.4533578      18405.788    
    327000   0.9960804      0.0023323615   0.0020075775   20.169871      18.690691      1.4791794     -1.7219806      18357.111    
    328000   1.0508426      0.0023323615  -0.0021120426   20.777366      19.216865      1.5605013     -1.3406021      18419.347    
    329000   1.0114499      0.0023323615  -0.000168673    20.659485      19.157482      1.5020031     -1.2935488      18534.675    
    330000   0.98058661     0.0023323615  -0.0040167879   20.854236      19.398065      1.4561711     -1.1205524      18627.435    
    331000   1.1056489      0.0023323615  -0.002609869    20.738639      19.09675       1.6418886     -1.361886       18594.001    
    332000   1.0000206      0.0023323615   0.0024572109   20.92111       19.43608       1.4850306     -1.2261407      18592.411    
    333000   0.95353476     0.0023323615   0.0015987031   20.657191      19.241192      1.4159991     -1.3747606      18472.191    
    334000   1.1193401      0.0023323615   0.0016170147   21.111143      19.448923      1.66222       -1.1778546      18507.267    
    335000   0.95767954     0.0023323615   0.00041423701  20.794346      19.372192      1.4221541     -1.1926803      18501.652    
    336000   1.0199421      0.0023323615  -0.0017731664   20.679133      19.164519      1.514614      -1.3276906      18485.287    
    337000   0.99934541     0.0023323615   0.0025405309   20.711376      19.227348      1.4840279     -1.3148766      18436.781    
    338000   0.9139084      0.0023323615  -0.0001343279   20.811556      19.454402      1.357154      -1.1647002      18707.995    
    339000   0.98128615     0.0023323615  -0.0006769124   20.882537      19.425327      1.4572099     -1.0352239      18669.957    
    340000   0.85671079     0.0023323615   0.00060960029  20.703182      19.430967      1.2722155     -1.0268793      18756.203    
    341000   1.201144       0.0023323615   0.0032428303   21.167584      19.383885      1.7836988     -1.1323225      19189.348    
    342000   1.0724181      0.0023323615  -0.00014521756  20.772567      19.180027      1.5925409     -1.3053278      18895.111    
    343000   0.96523667     0.0023323615   5.2069295e-05  20.66688       19.233503      1.4333765     -1.3046872      18546.054    
    344000   1.0884968      0.0023323615   0.0021286506   20.696811      19.080394      1.6164177     -1.3533003      18375.735    
    345000   1.0726359      0.0023323615   0.0042387156   20.670458      19.077594      1.5928644     -1.3963771      18418.317    
    346000   1.0933406      0.0023323615  -0.00093502049  20.780473      19.156862      1.6236108     -1.3236072      18389.203    
    347000   1.087144       0.0023323615  -0.0026624522   20.678011      19.063602      1.6144088     -1.4883304      18348.002    
    348000   0.94832837     0.0023323615   0.0026415851   20.724994      19.316727      1.4082676     -1.2937213      18316.646    
    349000   0.96460119     0.0023323615  -0.00078907527  20.782391      19.349958      1.4324328     -1.2062695      18483.668    
    350000   1.1792741      0.0023323615   0.0028541458   20.949857      19.198635      1.751222      -1.2732696      18401.33     
    351000   0.9831756      0.0023323615  -0.0035915584   20.359511      18.899496      1.4600158     -1.5132238      18395.859    
    352000   1.1157916      0.0023323615   0.001356959    20.682787      19.025836      1.6569505     -1.3498268      18455.237    
    353000   0.97189494     0.0023323615   0.0018977306   20.699968      19.256704      1.443264      -1.2064202      18652.819    
    354000   0.83970405     0.0023323615   0.00095908907  20.539496      19.292536      1.2469605     -1.2214304      19104.062    
    355000   1.0556953      0.0023323615  -6.330877e-05   20.905204      19.337496      1.5677075     -1.1745996      18661.695    
    356000   0.87005112     0.0023323615   0.00024774294  20.608659      19.316633      1.2920259     -1.1550299      18418.158    
    357000   1.1253034      0.0023323615   0.0016513237   21.036412      19.365336      1.6710755     -1.1372995      18550.097    
    358000   1.1043553      0.0023323615   0.00090985666  20.874522      19.234554      1.6399677     -1.2345648      18565.655    
    359000   1.0941556      0.0023323615  -0.0022643757   20.788756      19.163935      1.624821      -1.3734112      18510.923    
    360000   0.9128252      0.0023323615  -0.00049509586  20.683453      19.327907      1.3555454     -1.2147122      18475.634    
    361000   1.0177581      0.0023323615   0.00050069557  20.787505      19.276134      1.5113708     -1.2234622      18403.447    
    362000   1.0059518      0.0023323615  -0.0033885912   20.911407      19.417568      1.4938385     -1.1674009      18464.677    
    363000   1.0763715      0.0023323615  -0.00072183063  20.680272      19.08186       1.5984117     -1.4562455      18392.09     
    364000   0.88032899     0.0023323615   0.0028968333   20.170071      18.862782      1.3072885     -1.5429541      18351.194    
    365000   1.0499925      0.0023323615  -0.0028501169   20.587267      19.028029      1.5592388     -1.4379622      18430.632    
    366000   1.1541778      0.0023323615  -0.0014525717   20.941285      19.227331      1.7139541     -1.2967449      18565.935    
    367000   1.011571       0.0023323615   2.4242768e-05  20.634881      19.132698      1.502183      -1.3226122      18527.656    
    368000   1.0072216      0.0023323615   0.0045993922   20.959549      19.463825      1.4957241     -1.0580611      18547.749    
    369000   0.85211618     0.0023323615  -0.0038272495   20.795276      19.529883      1.2653925     -1.0360575      18622.195    
    370000   0.88718964     0.0023323615   0.0026438185   20.896737      19.579261      1.3174766     -0.93746593     18680.369    
    371000   1.1171953      0.0023323615   0.0025518316   21.066139      19.407104      1.6590351     -1.1810431      18911.963    
    372000   0.93999687     0.0023323615   0.0020279087   20.925182      19.529286      1.3958954     -0.94427838     18787.206    
    373000   1.0575995      0.0023323615   0.0042391277   20.967793      19.397258      1.5705353     -1.1891636      18589.814    
    374000   0.99930401     0.0023323615   0.0036816012   20.785836      19.30187       1.4839665     -1.2906917      18804.964    
    375000   1.1987696      0.0023323615   0.0050885532   20.923111      19.142939      1.7801728     -1.3674201      18509.862    
    376000   0.94024053     0.0023323615   0.0034890528   20.693054      19.296797      1.3962572     -1.1378902      18487.05     
    377000   0.94373819     0.0023323615   0.0012431221   20.829476      19.428025      1.4014512     -1.2219025      18643.632    
    378000   0.90827278     0.0023323615   0.0031570851   20.324802      18.976017      1.3487851     -1.4988226      18578.586    
    379000   0.98450108     0.0023323615  -0.00039467255  20.47655       19.014566      1.4619841     -1.3948413      18521.121    
    380000   0.97220833     0.0023323615  -0.0016829162   20.433255      18.989525      1.4437294     -1.6133905      18160.766    
    381000   1.0442204      0.0023323615   0.0025505257   20.817472      19.266805      1.5506673     -1.3721731      18223.174    
    382000   0.93113101     0.0023323615   0.0030936455   20.893733      19.511003      1.3827296     -1.0940693      18362.987    
    383000   0.91067277     0.0023323615  -0.0029649876   20.607501      19.255152      1.3523491     -1.2313242      18438.885    
    384000   0.81522524     0.0023323615  -0.00064598228  20.077234      18.866624      1.2106095     -1.5738305      18653.44     
    385000   1.0353023      0.0023323615   0.00040362438  20.610467      19.073043      1.5374238     -1.3048355      18581.917    
    386000   0.94947865     0.0023323615   0.0033608348   20.440224      19.030248      1.4099758     -1.4048279      18493.959    
    387000   0.93747752     0.0023323615  -0.0047630365   20.570226      19.178072      1.3921541     -1.2503778      18953.459    
    388000   0.85824221     0.0023323615   0.00085953595  20.808291      19.533801      1.2744897     -1.1412724      18961.791    
    389000   0.94589184     0.0023323615  -0.0033699259   20.6568        19.25215       1.4046494     -1.3554682      18537.089    
    390000   0.94090931     0.0023323615  -0.00082539093  20.598864      19.201614      1.3972503     -1.3843766      18489.899    
    391000   0.98556995     0.0023323615  -0.0010611946   20.584791      19.12122       1.4635714     -1.3894673      18500.283    
    392000   0.94948221     0.0023323615   0.00052364873  20.844765      19.434784      1.4099811     -1.2271708      18385.744    
    393000   1.0397068      0.0023323615  -0.0027064815   20.702502      19.158537      1.5439646     -1.3679011      18588.568    
    394000   0.88932299     0.0023323615  -0.00061438596  20.472831      19.152186      1.3206446     -1.3687255      18624.078    
    395000   0.98889088     0.0023323615   0.0016588005   20.650828      19.182325      1.4685029     -1.3045597      18494.795    
    396000   1.0123142      0.0023323615  -0.00044279582  20.610321      19.107034      1.5032867     -1.3963861      18300.817    
    397000   0.8859693      0.0023323615   0.00082756738  20.46833       19.152665      1.3156644     -1.3944228      18266.95     
    398000   0.9849194      0.0023323615   0.001885727    20.516622      19.054017      1.4626053     -1.3906381      18341.428    
    399000   0.82046276     0.0023323615  -0.0046881913   20.507453      19.289066      1.2183872     -1.2672582      18434.108    
    400000   0.92906063     0.0023323615  -0.0032355231   20.929848      19.550193      1.379655      -1.0543086      18476.622    
    401000   1.0280646      0.0023323615   0.00071373088  20.741437      19.214761      1.526676      -1.3239921      18382.883    
    402000   0.98036412     0.0023323615  -0.0045693263   20.830231      19.374391      1.4558407     -1.2254215      18461.917    
    403000   1.1740124      0.0023323615  -0.0039483917   20.79962       19.056211      1.7434084     -1.4669573      18297.902    
    404000   1.0023628      0.0023323615  -0.0008452145   20.449978      18.961469      1.4885087     -1.5404219      18335.845    
    405000   0.94306797     0.0023323615  -0.0013491846   20.439638      19.039182      1.4004559     -1.44552        18464.342    
    406000   0.98562311     0.0023323615  -0.00079926005  20.309442      18.845792      1.4636503     -1.5661699      18482.224    
    407000   1.0401819      0.0023323615   0.0027808368   20.622858      19.078188      1.5446701     -1.3655268      18345.517    
    408000   0.9929914      0.0023323615  -0.0022307006   20.525348      19.050756      1.4745922     -1.4011202      18458.387    
    409000   0.96787622     0.0023323615  -0.0029313169   20.629936      19.19264       1.4372962     -1.3732392      18436.29     
    410000   0.85651567     0.0023323615   0.0025097249   20.569704      19.297778      1.2719258     -1.3298044      18438.514    
    411000   0.95166233     0.0023323615   0.0018761564   20.447113      19.033895      1.4132186     -1.4419933      18383.821    
    412000   1.0265919      0.0023323615   0.00042469666  20.57905       19.054561      1.5244889     -1.4343751      18460.305    
    413000   1.0629205      0.0023323615  -0.0022648227   20.840013      19.261576      1.5784369     -1.2415074      18280.211    
    414000   1.05828        0.0023323615   0.0016951762   20.436843      18.865297      1.5715457     -1.6283319      18425.838    
    415000   0.87505207     0.0023323615   0.0013397387   20.371853      19.0724        1.2994523     -1.4361152      18354.224    
    416000   1.0609049      0.0023323615   0.0023888526   20.574202      18.998758      1.5754438     -1.3631345      18240.494    
    417000   0.90893642     0.0023323615  -0.0034990105   20.42487       19.0751        1.3497706     -1.4509685      18399.226    
    418000   0.91991353     0.0023323615  -0.0026619868   20.533701      19.167629      1.3660716     -1.4118293      18378.838    
    419000   0.98014258     0.0023323615  -0.001621955    20.629714      19.174202      1.4555117     -1.3931404      18473.76     
    420000   0.90862316     0.0023323615  -0.0027419892   20.546065      19.196759      1.3493054     -1.4181731      18391.154    
    421000   0.91023259     0.0023323615  -0.0005213222   20.500731      19.149036      1.3516954     -1.3643081      18493.352    
    422000   0.87758825     0.0023323615  -4.6387948e-05  20.568599      19.265381      1.3032186     -1.3648269      18387.177    
    423000   0.948827       0.0023323615  -0.0012107583   20.322864      18.913856      1.4090081     -1.4591324      18278.055    
    424000   0.86002232     0.0023323615  -0.0019388246   20.202549      18.925416      1.2771331     -1.6268674      18324.205    
    425000   0.99557351     0.0023323615  -0.0010827769   20.616482      19.138055      1.4784267     -1.4111035      18415.633    
    426000   1.0260744      0.0023323615  -0.00050775821  20.668756      19.145035      1.5237205     -1.4048233      18637.087    
    427000   0.96752924     0.0023323615  -0.00080405138  20.58107       19.144289      1.4367809     -1.4326923      18350.468    
    428000   0.9903448      0.0023323615  -0.0022414591   20.572051      19.101389      1.470662      -1.337726       18290.596    
    429000   0.75695439     0.0023323615   0.0066170258   20.082175      18.958098      1.1240773     -1.5159378      18398.199    
    430000   1.0986245      0.0023323615  -0.0021410844   21.014892      19.383435      1.6314574     -1.1398504      18562.42     
    431000   1.0041854      0.0023323615  -0.00080842879  20.660488      19.169272      1.4912153     -1.305621       18610.289    
    432000   1.0399064      0.0023323615  -0.0031452368   20.661586      19.117325      1.544261      -1.3552218      18418.046    
    433000   0.96244512     0.0023323615   0.0020909222   20.59535       19.166119      1.429231      -1.3382547      18369.357    
    434000   1.0544883      0.0023323615  -0.0016109358   20.729159      19.163244      1.5659151     -1.3680326      18391.934    
    435000   1.0336716      0.0023323615  -0.0053407394   20.668572      19.13357       1.5350023     -1.4470753      18470.157    
    436000   0.89405951     0.0023323615  -0.00013502003  20.350395      19.022717      1.3276784     -1.4003293      18541.217    
    437000   1.1059875      0.0023323615   0.0045423792   20.728339      19.085947      1.6423914     -1.4170657      18663.994    
    438000   1.0241158      0.0023323615   0.0044614257   20.687566      19.166754      1.520812      -1.3082357      19248.279    
    439000   0.86191282     0.0023323615  -0.0013272775   20.554857      19.274917      1.2799405     -1.1798349      19524.351    
    440000   1.042812       0.0023323615   2.4109993e-05  20.887979      19.339403      1.5485758     -1.1855532      18745.03     
    441000   0.94275035     0.0023323615   0.00058273759  20.500878      19.100894      1.3999843     -1.4146116      18506.169    
    442000   0.85255321     0.0023323615   0.0018474869   20.451926      19.185884      1.2660415     -1.3949481      18407.037    
    443000   1.1276241      0.0023323615   0.00080115152  20.981065      19.306543      1.6745218     -1.37309        18477.574    
    444000   0.99953156     0.0023323615  -0.0056127253   20.454062      18.969758      1.4843044     -1.5614815      18497.575    
    445000   0.87249647     0.0023323615  -0.0011734473   20.520379      19.224721      1.2956573     -1.247707       18305.046    
    446000   0.9056595      0.0023323615  -0.0030461658   20.695768      19.350863      1.3449044     -1.2097729      18462.197    
    447000   0.91376525     0.0023323615   0.0011955842   20.768329      19.411387      1.3569414     -1.1670611      18445.656    
    448000   1.0828398      0.0023323615   0.0012339617   20.704906      19.096889      1.6080171     -1.4084488      18507.597    
    449000   0.84023967     0.0023323615   0.0015206483   20.113865      18.866109      1.2477559     -1.5737923      18536.747    
    450000   0.99994779     0.0023323615  -0.0031220319   20.509173      19.02425       1.4849225     -1.4227014      18542.174    
    451000   0.9169774      0.0023323615  -0.00060520616  20.287278      18.925567      1.3617114     -1.5957349      18420.218    
    452000   0.86243637     0.0023323615   0.0022639076   20.570072      19.289354      1.280718      -1.2339031      18511.517    
    453000   0.91125993     0.0023323615  -0.00069248469  20.707637      19.354416      1.353221      -1.2299754      18834.21     
    454000   1.0427922      0.0023323615   0.00081660654  20.777166      19.228619      1.5485464     -1.3501166      18626.521    
    455000   0.98224472     0.0023323615  -0.0034184898   20.81267       19.354037      1.4586334     -1.2443181      18637.766    
    456000   0.9483976      0.0023323615   0.0011461337   20.710243      19.301873      1.4083704     -1.1991447      18700.421    
    457000   0.97987782     0.0023323615  -0.0011493611   20.871535      19.416416      1.4551186     -1.0796899      18543.659    
    458000   1.1258847      0.0023323615   0.0003213009   21.048726      19.376788      1.6719388     -1.1906478      18594.49     
    459000   0.87910214     0.0023323615   0.0025259857   20.837455      19.531988      1.3054667     -1.0724497      18781.914    
    460000   1.049385       0.0023323615   0.0020080794   20.722782      19.164445      1.5583367     -1.3419104      18611.153    
    461000   1.021867       0.0023323615  -0.0024199399   20.7774        19.259927      1.5174725     -1.1743083      18436.144    
    462000   0.92907094     0.0023323615   0.0079063572   20.422652      19.042982      1.3796703     -1.4641914      18584.712    
    463000   0.98891515     0.0023323615  -0.001730995    20.579824      19.111285      1.468539      -1.3769058      18490.982    
    464000   1.0194303      0.0023323615  -0.0028373655   20.69915       19.185296      1.513854      -1.3215648      18488.749    
    465000   0.96244587     0.0023323615  -0.0047033662   20.450038      19.020806      1.4292321     -1.4164522      18611.146    
    466000   0.99467862     0.0023323615  -0.0023178235   20.301533      18.824435      1.4770978     -1.6166831      18414.872    
    467000   1.0179395      0.0023323615   0.0025686837   20.488534      18.976894      1.5116401     -1.5659386      18406.345    
    468000   0.8581732      0.0023323615   0.00017056989  19.944482      18.670095      1.2743872     -1.7352166      18400.088    
    469000   1.008383       0.0023323615  -0.0042854029   20.601693      19.104244      1.4974488     -1.3726823      18600.113    
    470000   1.0304383      0.0023323615  -0.00019205383  20.261241      18.73104       1.5302009     -1.7166847      18669.583    
    471000   1.0611461      0.0023323615  -0.0042607509   20.72          19.144198      1.5758019     -1.3566508      18549.935    
    472000   1.135476       0.0023323615  -0.0049727432   20.777663      19.091481      1.6861818     -1.4497293      18542.381    
    473000   0.91018978     0.0023323615  -0.0012344242   20.483049      19.131417      1.3516318     -1.3925569      18548.653    
    474000   0.96832226     0.0023323615   0.00069216167  20.560393      19.122434      1.4379586     -1.3241751      18587.453    
    475000   1.1746689      0.0023323615  -0.00066806215  21.490589      19.746206      1.7443833     -0.95074104     18741.717    
    476000   1.0771085      0.0023323615  -0.003473811    21.118358      19.518852      1.5995062     -1.1128001      19269.155    
    477000   0.98410832     0.0023323615   0.00066757751  20.962329      19.500928      1.4614008     -1.1489362      19010.263    
    478000   0.95346395     0.0023323615   0.0066670185   20.419304      19.00341       1.415894      -1.4318951      18610.181    
    479000   1.2291782      0.0023323615   0.0036392332   20.859914      19.034585      1.8253296     -1.3599187      18551.031    
    480000   1.0041413      0.0023323615  -0.0023075777   20.660618      19.169468      1.4911499     -1.2505555      18460.066    
    481000   1.0231319      0.0023323615  -0.0039570214   20.459952      18.940601      1.5193508     -1.497619       18542.333    
    482000   0.89930628     0.0023323615  -0.0014973684   20.48626       19.15079       1.3354698     -1.2898125      18473.247    
    483000   1.1076028      0.0023323615   0.0025247627   21.196884      19.552093      1.6447902     -1.0918374      18644.154    
    484000   0.96609227     0.0023323615   0.0022841474   20.845769      19.411122      1.434647      -1.102221       18853.795    
    485000   0.96998016     0.0023323615  -0.0034068049   20.800314      19.359893      1.4404205     -1.2226924      18960.21     
    486000   0.89314147     0.0023323615  -0.0017820572   20.746515      19.4202        1.3263151     -1.1666651      18894.714    
    487000   1.1817107      0.0023323615  -0.00020205265  20.659846      18.905005      1.7548404     -1.5720647      18414.794    
    488000   1.0105893      0.0023323615   0.0028844103   20.615866      19.115141      1.5007251     -1.3700492      18341.249    
    489000   1.044323       0.0023323615  -0.0011961474   20.502246      18.951426      1.5508197     -1.5193612      18375.549    
    490000   0.91460538     0.0023323615   0.00073225313  20.565602      19.207413      1.358189      -1.2847063      18414.801    
    491000   0.90392028     0.0023323615   0.0016352245   20.312372      18.97005       1.3423216     -1.6623505      18365.646    
    492000   0.96762422     0.0023323615   0.001376513    20.727744      19.290822      1.436922      -1.3425946      18280.904    
    493000   1.2637569      0.0023323615  -0.001570976    21.096633      19.219954      1.8766789     -1.3536131      17601.041    
    494000   0.92135725     0.0023323615   0.00013709217  20.521129      19.152914      1.3682155     -1.4294312      18418.205    
    495000   0.95525633     0.0023323615   0.00089368871  20.539615      19.12106       1.4185557     -1.3723969      18515.538    
    496000   1.0359646      0.0023323615   0.0020493345   20.958314      19.419907      1.5384075     -1.1378657      18479.804    
    497000   0.98373504     0.0023323615   6.2158455e-05  20.807043      19.346196      1.4608465     -1.2971017      18481.549    
    498000   1.1197914      0.0023323615   0.0011476237   20.866677      19.203786      1.6628903     -1.3892826      18465.298    
    499000   0.96157343     0.0023323615   0.0010622534   20.345045      18.917108      1.4279365     -1.4919794      18494.812    
    500000   1.0599145      0.0023323615   0.0010033064   20.539584      18.965611      1.5739731     -1.5323233      18381.075    
    501000   0.82589552     0.0023323615  -0.00059398487  20.210565      18.98411       1.2264549     -1.518584       18395.065    
    502000   0.94771739     0.0023323615  -0.0010593126   20.485109      19.077749      1.4073603     -1.3581069      18486.944    
    503000   1.0421307      0.0023323615  -0.0010172028   20.673001      19.125437      1.5475641     -1.3829605      18496.602    
    504000   1.0206169      0.0023323615  -0.0037451946   20.787632      19.272016      1.5156161     -1.3502455      18545.644    
    505000   1.0734322      0.0023323615  -0.0035766269   20.608358      19.014311      1.5940468     -1.4209573      18489.903    
    506000   0.97369924     0.0023323615  -0.0026909959   20.871452      19.425509      1.4459434     -1.1144284      18569.606    
    507000   0.95297647     0.0023323615   0.0021370238   20.754414      19.339244      1.4151701     -1.2504371      18748.941    
    508000   0.93257622     0.0023323615   0.0023878194   20.757398      19.372522      1.3848757     -1.2188967      18603.837    
    509000   1.0370149      0.0023323615  -0.0021594481   20.735388      19.195421      1.5399672     -1.2377834      18603.077    
    510000   1.1252681      0.0023323615   9.3603261e-06  21.311439      19.640416      1.6710231     -1.0615065      18655.05     
    511000   1.0179422      0.0023323615  -0.0033036881   20.445036      18.933392      1.5116441     -1.6332922      18504.19     
    512000   0.9143504      0.0023323615   0.0026183594   20.217225      18.859415      1.3578103     -1.6100279      18475.915    
    513000   0.91424996     0.0023323615   7.8475959e-05  20.333065      18.975403      1.3576612     -1.5122497      18588.36     
    514000   1.0285567      0.0023323615   0.0028225389   20.468953      18.941546      1.5274067     -1.6801937      18459.926    
    515000   1.0180288      0.0023323615   0.0040100426   20.802624      19.290851      1.5117727     -1.3971196      18444.112    
    516000   0.98068176     0.0023323615   0.006585418    20.852723      19.396411      1.4563124     -1.1127076      18386.825    
    517000   0.88890652     0.0023323615   0.00069672726  20.459625      19.139598      1.3200262     -1.3942334      18336.186    
    518000   1.0745979      0.0023323615  -0.00082001047  20.737542      19.141764      1.5957778     -1.3258374      18156.607    
    519000   0.99199715     0.0023323615  -0.0038070575   20.538271      19.065155      1.4731158     -1.4802506      18258.068    
    520000   1.0101986      0.0023323615   0.0050597498   20.873531      19.373386      1.5001449     -1.3390768      18218.949    
    521000   1.1209224      0.0023323615  -0.00016893419  20.768321      19.103751      1.6645697     -1.4328434      18384.711    
    522000   1.0143695      0.0023323615   0.00278465     20.625233      19.118894      1.5063387     -1.4363766      18303.626    
    523000   1.0991114      0.0023323615   0.0014409033   20.762134      19.129953      1.6321804     -1.3017933      18314.541    
    524000   0.9526803      0.0023323615   0.0007633728   20.582277      19.167546      1.4147302     -1.5148643      18528.733    
    525000   1.1042984      0.0023323615   0.0041640006   20.742248      19.102364      1.6398831     -1.2796002      18592.813    
    526000   0.99169765     0.0023323615  -0.0020208562   20.914893      19.442222      1.472671      -1.1948446      18454.309    
    527000   1.0309928      0.0023323615   0.0025421836   20.56692       19.035896      1.5310244     -1.4750676      18483.212    
    528000   1.0288939      0.0023323615   0.0044003959   20.732921      19.205013      1.5279074     -1.3853474      18567.012    
    529000   0.87679479     0.0023323615  -0.0040160796   20.796445      19.494404      1.3020403     -1.1335209      18390.656    
    530000   1.0731806      0.0023323615   0.0046173335   21.012433      19.418759      1.5936732     -1.1444754      18640.47     
    531000   0.88654105     0.0023323615   0.0030808896   20.622741      19.306228      1.3165135     -1.0771881      18680.649    
    532000   0.93818986     0.0023323615  -0.0036676035   20.792084      19.398872      1.3932119     -1.1514054      18637.198    
    533000   1.039132       0.0023323615   0.0016260787   20.749434      19.206323      1.5431111     -1.4077234      18325.763    
    534000   0.98741641     0.0023323615  -0.00048553257  20.394077      18.927764      1.4663134     -1.5080814      18340.676    
    535000   0.87548182     0.0023323615  -0.0013805873   20.277977      18.977886      1.3000905     -1.5119539      18539.75     
    536000   0.90545832     0.0023323615   0.00094635597  20.286843      18.942237      1.3446056     -1.548622       18561.695    
    537000   1.0775972      0.0023323615   0.0013226991   20.9438        19.343568      1.6002319     -1.2661726      18643.816    
    538000   0.9914582      0.0023323615  -0.0032840063   20.874615      19.4023        1.4723154     -1.2740775      18784.505    
    539000   0.91966063     0.0023323615  -0.0042994471   20.643496      19.2778        1.365696      -1.2771375      18416.132    
    540000   1.0815493      0.0023323615  -0.0020758197   20.671519      19.065418      1.6061008     -1.413177       18464.311    
    541000   0.98325772     0.0023323615  -0.0048170959   20.634595      19.174457      1.4601377     -1.3875195      18518.956    
    542000   0.95157616     0.0023323615  -0.00053055493  20.554021      19.140931      1.4130906     -1.4509772      18394.717    
    543000   1.1169679      0.0023323615  -0.00044439749  20.873679      19.214982      1.6586973     -1.4148129      18449.148    
    544000   0.96267609     0.0023323615   0.0035309345   20.513313      19.083739      1.429574      -1.3612829      18440.705    
    545000   1.1292346      0.0023323615   0.0049539174   20.952265      19.275352      1.6769133     -1.2601366      18534.768    
    546000   1.0667908      0.0023323615   0.0046656873   20.623205      19.03902       1.5841843     -1.271865       18549.221    
    547000   1.0824212      0.0023323615  -0.0046838613   20.948348      19.340952      1.6073954     -1.123629       18627.14     
    548000   1.0729588      0.0023323615   0.0046593598   20.937567      19.344223      1.5933439     -1.1272467      18580.81     
    549000   0.88794627     0.0023323615  -0.0028771926   20.28774       18.96914       1.3186002     -1.5522289      18480.926    
    550000   0.99151853     0.0023323615   0.0032739593   20.514698      19.042293      1.472405      -1.4010686      18487.694    
    551000   1.0961181      0.0023323615   0.0016182402   20.249177      18.621442      1.6277353     -1.775785       18189.019    
    552000   1.1904905      0.0023323615  -0.00015921896  21.011963      19.244085      1.7678784     -1.3406051      18265.957    
    553000   1.0730143      0.0023323615  -0.0030292876   20.649582      19.056156      1.5934262     -1.4535448      18276.823    
    554000   0.9996683      0.0023323615  -0.0020752318   20.687983      19.203476      1.4845074     -1.4048428      18335.178    
    555000   0.93052619     0.0023323615   0.0011789611   20.386404      19.004573      1.3818314     -1.4629484      18410.979    
    556000   0.94299958     0.0023323615  -0.0030135408   20.391349      18.990994      1.4003544     -1.4349491      18460.988    
    557000   1.0383375      0.0023323615  -0.004166052    20.937043      19.395112      1.5419313     -1.2200208      18516.005    
    558000   0.90377226     0.0023323615   0.002640804    20.184891      18.842789      1.3421018     -1.5878546      18516.177    
    559000   0.93096258     0.0023323615  -0.0031080867   20.762202      19.379722      1.3824794     -1.1303665      18396.893    
    560000   1.0222645      0.0023323615   0.005401938    20.762476      19.244413      1.5180628     -1.2086328      18504.567    
    561000   0.95234969     0.0023323615   0.001679125    20.390172      18.975933      1.4142393     -1.5715041      18496.526    
    562000   1.140132       0.0023323615   0.0033310492   20.629036      18.93594       1.6930961     -1.5071008      18596.215    
    563000   0.86848574     0.0023323615   0.0021096675   20.387363      19.097662      1.2897013     -1.4063758      18584.335    
    564000   0.94984157     0.0023323615   0.0018978968   20.517777      19.107262      1.4105147     -1.3289682      18616.106    
    565000   0.97452683     0.0023323615  -0.00073874437  20.582966      19.135794      1.4471723     -1.4082713      18701.612    
    566000   0.91499417     0.0023323615   0.00019246221  20.250631      18.891865      1.3587663     -1.5666019      18408.191    
    567000   1.1217523      0.0023323615   0.0023187611   20.917454      19.251652      1.6658021     -1.2306357      18632.651    
    568000   1.057429       0.0023323615  -0.0014835502   20.819298      19.249016      1.570282      -1.2466742      18544.572    
    569000   0.98744449     0.0023323615  -0.0003383836   20.616304      19.149949      1.4663551     -1.3295971      18567.585    
    570000   0.97739873     0.0023323615  -0.0016218111   20.834878      19.383441      1.4514371     -1.0733734      19197.28     
    571000   0.95547631     0.0023323615  -0.0033917627   20.83545       19.416567      1.4188823     -1.1545252      19162.605    
    572000   1.0950365      0.0023323615  -0.0025258283   21.072853      19.446723      1.6261292     -1.1503789      18904.247    
    573000   1.0148299      0.0023323615   0.0016488915   20.843419      19.336396      1.5070223     -1.1987063      18727.76     
    574000   0.97579773     0.0023323615  -0.00016188737  20.58876       19.1397        1.4490596     -1.4209219      18651.467    
    575000   1.1452763      0.0023323615   0.0027516997   20.690357      18.989622      1.7007354     -1.5234862      18456.377    
    576000   1.0880557      0.0023323615  -0.0022563215   20.832811      19.217048      1.6157627     -1.2304213      18401.292    
    577000   0.91464741     0.0023323615  -0.00013982356  20.164875      18.806624      1.3582514     -1.6532537      18370.013    
    578000   1.0559868      0.0023323615   0.00028359732  20.515876      18.947736      1.5681403     -1.6315469      18360.926    
    579000   1.0021907      0.0023323615  -0.002297334    20.611817      19.123564      1.4882531     -1.4711393      18405.663    
    580000   0.90132046     0.0023323615  -0.0025607561   20.483753      19.145292      1.3384609     -1.2500221      18501.299    
    581000   1.0375088      0.0023323615   0.0032913323   20.618128      19.077427      1.5407006     -1.373646       18444.947    
    582000   1.0750879      0.0023323615   0.00052963043  20.658299      19.061793      1.5965055     -1.4493153      18639.523    
    583000   1.0709193      0.0023323615   0.0022669665   20.57105       18.980735      1.5903152     -1.6140438      18558.399    
    584000   1.0431128      0.0023323615  -0.002711716    20.547439      18.998416      1.5490226     -1.4614041      18532.958    
    585000   1.0349941      0.0023323615   0.004966429    20.984404      19.447437      1.5369663     -1.2362715      18472.488    
    586000   0.98003229     0.0023323615  -0.0002401818   20.674937      19.219589      1.4553479     -1.5454896      18501.22     
    587000   0.89191093     0.0023323615  -0.0010744046   20.447781      19.123293      1.3244877     -1.4122236      18523.335    
    588000   1.103362       0.0023323615   4.5958913e-05  20.458349      18.819856      1.6384926     -1.6831543      18557.298    
    589000   0.91660056     0.0023323615   0.00031317306  20.892804      19.531652      1.3611518     -1.1326477      18596.163    
    590000   0.9592203      0.0023323615   0.0026716161   20.469682      19.04524       1.4244421     -1.3785194      18710.516    
    591000   1.0195303      0.0023323615  -1.2773371e-05  20.625901      19.111898      1.5140025     -1.3961441      18576.452    
    592000   1.0084812      0.0023323615  -0.0035386453   20.714849      19.217254      1.4975946     -1.3178945      18597.181    
    593000   1.0571144      0.0023323615   3.937949e-05   20.761334      19.191519      1.5698149     -1.3058363      18596.672    
    594000   0.9378073      0.0023323615   0.0029117293   20.461059      19.068416      1.3926438     -1.4114789      18571.665    
    595000   1.2407675      0.0023323615   0.00012821103  20.878248      19.035709      1.8425397     -1.3926358      18620.058    
    596000   0.95683535     0.0023323615   0.0023860013   20.581531      19.16063       1.4209005     -1.3481339      18458.55     
    597000   1.0571267      0.0023323615   0.0019604289   20.413062      18.843229      1.5698332     -1.5395619      18456.111    
    598000   1.0110527      0.0023323615  -0.002758352    20.481668      18.980255      1.5014133     -1.5248211      18371.331    
    599000   1.04934        0.0023323615   0.0017934055   20.345133      18.786863      1.5582699     -1.6949907      18399.226    
    600000   0.9290601      0.0023323615   0.00045869482  20.441091      19.061436      1.3796542     -1.3859531      18230.32     
    601000   1.0934913      0.0023323615   0.0023921164   20.753027      19.129192      1.6238346     -1.4118671      18290.528    
    602000   1.0577503      0.0023323615  -0.0030383125   20.819044      19.248285      1.5707593     -1.2481981      18408.49     
    603000   1.0369835      0.0023323615   0.0047305419   20.548528      19.008607      1.5399206     -1.3634726      18478.34     
    604000   1.0159521      0.0023323615   0.0030793462   20.61039       19.101701      1.5086889     -1.4040192      18542.474    
    605000   1.0163216      0.0023323615  -0.0029119163   20.603929      19.094691      1.5092375     -1.3475287      18481.682    
    606000   1.1052371      0.0023323615  -0.00069310936  20.755937      19.11466       1.6412771     -1.2360253      18668.731    
    607000   1.0734144      0.0023323615  -0.0042505052   21.058334      19.464314      1.5940204     -1.1507267      18546.137    
    608000   0.92489272     0.0023323615  -0.0033546699   20.753102      19.379636      1.3734657     -1.1992614      18590.995    
    609000   0.97640783     0.0023323615   0.002478621    20.707216      19.257251      1.4499656     -1.239345       18490.146    
    610000   0.93060662     0.0023323615   0.0010293041   20.524495      19.142544      1.3819508     -1.358907       18451.569    
    611000   1.043934       0.0023323615  -0.0064919441   20.712623      19.162381      1.5502419     -1.4463839      18297.48     
    612000   1.0252696      0.0023323615  -0.0046652615   21.164932      19.642407      1.5225253     -0.98886609     18536.338    
    613000   0.9540183      0.0023323615  -0.002078027    20.502272      19.085554      1.4167172     -1.3358592      18918.081    
    614000   0.94167978     0.0023323615  -0.0014711469   20.515352      19.116957      1.3983945     -1.3955731      18612.301    
    615000   0.9205119      0.0023323615   0.0027192529   20.290947      18.923987      1.3669602     -1.4750267      18310.822    
    616000   1.1534389      0.0023323615   0.00025190967  20.668981      18.956124      1.7128568     -1.5154217      18236.339    
    617000   1.1222191      0.0023323615  -0.0012626442   20.637105      18.97061       1.6664953     -1.5354357      18247.61     
    618000   0.9754993      0.0023323615  -0.002677878    20.530861      19.082244      1.4486165     -1.4024046      18278.149    
    619000   0.93958398     0.0023323615   0.0043918263   20.556956      19.161674      1.3952822     -1.3004888      18346.253    
    620000   0.98970203     0.0023323615   0.0017776528   20.556001      19.086294      1.4697075     -1.3769089      18378.313    
    621000   0.86500967     0.0023323615   0.0023281914   20.243511      18.958972      1.2845394     -1.5185879      18349.22     
    622000   1.0247236      0.0023323615   0.0011218309   20.404579      18.882865      1.5217146     -1.6065356      18493.404    
    623000   1.0105111      0.0023323615   0.00095941802  20.713342      19.212733      1.500609      -1.4454389      18501.947    
    624000   1.0060834      0.0023323615  -0.002858525    20.629363      19.135329      1.4940339     -1.3822209      18876.244    
    625000   1.0433896      0.0023323615   0.001507331    20.741081      19.191647      1.5494336     -1.2732273      18709.383    
    626000   1.031443       0.0023323615   0.0018804068   20.84348       19.311787      1.5316928     -1.3497352      18520.764    
    627000   0.92449078     0.0023323615   0.0005477508   20.546323      19.173454      1.3728688     -1.4871497      18503.384    
    628000   0.99302955     0.0023323615   0.0045914673   20.502423      19.027774      1.4746489     -1.5238418      18552.79     
    629000   0.98994659     0.0023323615  -0.0015424559   20.542952      19.072882      1.4700707     -1.5403782      18424.907    
    630000   1.0474525      0.0023323615  -0.00087413819  20.769047      19.21358       1.5554669     -1.3118426      18418.518    
    631000   0.90781443     0.0023323615   0.0041249025   20.426785      19.078681      1.3481044     -1.4631093      18560.155    
    632000   1.0474688      0.0023323615   0.00092311341  20.601941      19.046449      1.5554911     -1.4642273      18544.445    
    633000   0.97415572     0.0023323615   0.00010347934  20.576354      19.129732      1.4466212     -1.3612749      18450.143    
    634000   1.086508       0.0023323615  -0.00070217641  20.875514      19.26205       1.6134644     -1.3492198      18547.177    
    635000   0.99318791     0.0023323615   0.0028100583   20.435042      18.960158      1.4748841     -1.5529808      18403.833    
    636000   0.99230152     0.0023323615   0.000392746    20.561564      19.087996      1.4735678     -1.3527654      18483.182    
    637000   0.87168758     0.0023323615  -0.0043942473   20.705373      19.410917      1.2944561     -1.09739        18560.297    
    638000   1.044788       0.0023323615   0.0010889543   20.995953      19.444443      1.5515102     -1.1431976      18681.95     
    639000   0.91672537     0.0023323615   0.0034997389   20.595312      19.233975      1.3613372     -1.297381       18600.588    
    640000   1.0957478      0.0023323615   0.0018792991   20.647115      19.019929      1.6271854     -1.5256574      18606.354    
    641000   0.97649057     0.0023323615   0.0011349782   20.377402      18.927313      1.4500885     -1.4624548      18479.004    
    642000   0.96038307     0.0023323615  -0.0014899475   20.490273      19.064104      1.4261689     -1.4290805      18636.809    
    643000   1.1247657      0.0023323615   0.0011376431   21.063766      19.393489      1.6702771     -1.2801941      18566.594    
    644000   0.9372574      0.0023323615  -0.0019182933   20.386084      18.994256      1.3918272     -1.5386955      18591.082    
    645000   1.1558383      0.0023323615   0.00080531436  20.812342      19.095922      1.7164198     -1.4881485      18546.574    
    646000   1.0224734      0.0023323615  -0.0029893901   20.932006      19.413633      1.518373      -1.1986222      18619.273    
    647000   1.0238265      0.0023323615  -0.0037041575   20.740738      19.220356      1.5203823     -1.2961782      18506.314    
    648000   0.97217395     0.0023323615   0.0017507132   20.576897      19.133219      1.4436783     -1.3198991      18556.512    
    649000   0.90886018     0.0023323615   0.0014725697   20.418654      19.068996      1.3496574     -1.3960098      18347.739    
    650000   0.96570316     0.0023323615   0.0013345105   20.425409      18.99134       1.4340692     -1.4749682      18531.286    
    651000   0.97026092     0.0023323615   0.00068419058  20.865408      19.42457       1.4408375     -1.1335943      18294.873    
    652000   0.9812669      0.0023323615   0.0018307001   20.9569        19.499719      1.4571813     -1.2050762      18164.009    
    653000   0.95480318     0.0023323615  -0.0049215383   20.613477      19.195594      1.4178827     -1.3433087      18386.073    
    654000   0.94004295     0.0023323615  -0.00022867019  20.463724      19.067761      1.3959638     -1.4147339      18619.752    
    655000   0.9849114      0.0023323615  -0.0025273166   20.846104      19.38351       1.4625934     -1.29861        18499.563    
    656000   1.0173136      0.0023323615  -0.0016349262   20.393118      18.882407      1.5107107     -1.5989113      18435.232    
    657000   0.98097652     0.0023323615  -0.00069838834  20.731312      19.274562      1.4567501     -1.3379194      18426.961    
    658000   1.0478492      0.0023323615  -0.0011232339   20.942986      19.38693       1.556056      -1.2536901      18351.049    
    659000   0.97729712     0.0023323615   0.00090910251  20.640059      19.188772      1.4512862     -1.2312941      18425.209    
    660000   0.9950447      0.0023323615  -0.0016903731   20.558849      19.081208      1.4776414     -1.5216875      18425.543    
    661000   1.0946024      0.0023323615  -0.00067233706  20.830336      19.204852      1.6254845     -1.2384878      18386.076    
    662000   0.99321485     0.0023323615  -0.0015892107   20.59604       19.121116      1.474924      -1.3935266      18400.726    
    663000   1.1256877      0.0023323615   0.000983218    20.631341      18.959694      1.6716463     -1.5037667      18423.288    
    664000   0.98009571     0.0023323615   0.00086803682  21.055069      19.599627      1.4554421     -1.0148524      18619.152    
    665000   0.97639097     0.0023323615  -0.0015336603   21.132176      19.682236      1.4499406     -0.95650766     18678.674    
    666000   1.0319678      0.0023323615   0.002115863    20.81484       19.282368      1.5324723     -1.219073       18527.326    
    667000   0.95012891     0.0023323615   0.0031052434   20.320236      18.909295      1.4109414     -1.6086052      18304.741    
    668000   0.9975079      0.0023323615   0.00020992665  20.690742      19.209443      1.4812992     -1.3690726      18362.97     
    669000   0.92487204     0.0023323615  -0.0018225305   20.520339      19.146904      1.373435      -1.4062281      18568.487    
    670000   1.0833782      0.0023323615  -0.0029029228   21.061211      19.452395      1.6088166     -1.3050636      18595.764    
    671000   1.1799417      0.0023323615  -0.0029814269   20.929237      19.177024      1.7522134     -1.356189       18547.308    
    672000   0.94751247     0.0023323615  -0.0040081385   21.205236      19.79818       1.407056      -0.87364952     18675.396    
    673000   1.0825074      0.0023323615  -0.0031466198   20.961784      19.35426       1.6075235     -1.1878154      18878.125    
    674000   0.97106298     0.0023323615   7.0070649e-05  20.462863      19.020835      1.4420285     -1.3442886      18492.568    
    675000   0.97680664     0.0023323615  -0.00038818741  20.888426      19.437868      1.4505579     -1.2034465      18542.347    
    676000   1.0406388      0.0023323615  -0.0010964064   20.841376      19.296028      1.5453486     -1.3369452      18545.092    
    677000   0.96839949     0.0023323615   0.00057087787  20.290413      18.85234       1.4380732     -1.5520585      18371.322    
    678000   1.0596473      0.0023323615   0.0016573941   20.884403      19.310827      1.5735762     -1.2981671      18370.422    
    679000   1.0406894      0.0023323615   0.0051833795   20.959692      19.414268      1.5454237     -1.2059697      18550.249    
    680000   1.0209828      0.0023323615   0.00016400069  20.536145      19.019986      1.5161595     -1.4803386      18404.434    
    681000   0.81919725     0.0023323615  -0.0036450404   20.111313      18.894805      1.2165079     -1.4951976      18557.929    
    682000   0.92498608     0.0023323615  -0.0011571409   20.516616      19.143012      1.3736043     -1.3822951      18455.803    
    683000   0.8743753      0.0023323615  -0.00024706446  20.565651      19.267203      1.2984473     -1.3713987      18641.469    
    684000   0.82608807     0.0023323615   0.00017575963  20.140771      18.91403       1.2267408     -1.4879248      18445.506    
    685000   0.99720658     0.0023323615   0.00060531771  20.412245      18.931393      1.4808518     -1.5235003      18562.841    
    686000   0.91849101     0.0023323615  -0.0014005501   20.577305      19.213346      1.3639592     -1.3433971      18622.062    
    687000   0.9561503      0.0023323615   0.0015080618   20.484715      19.064832      1.4198832     -1.4576275      18567.109    
    688000   1.0172036      0.0023323615  -0.0037320741   20.387181      18.876634      1.5105473     -1.5125817      18508.451    
    689000   1.023283       0.0023323615   0.0014598654   20.720679      19.201104      1.5195752     -1.3140787      18540.067    
    690000   0.99322085     0.0023323615  -0.0010606368   20.662691      19.187758      1.474933      -1.266789       18604.353    
    691000   1.0275439      0.0023323615  -0.00055290895  20.784724      19.258821      1.5259027     -1.365723       18440.078    
    692000   1.0226514      0.0023323615  -0.0017649768   20.836842      19.318204      1.5186374     -1.2485985      18593.457    
    693000   1.0675975      0.0023323615  -0.0014142967   20.851209      19.265826      1.5853822     -1.194414       18583.19     
    694000   1.1099401      0.0023323615   0.00067766995  20.612394      18.964133      1.648261      -1.5985884      18380.172    
    695000   1.1084373      0.0023323615  -9.0701426e-05  20.889067      19.243037      1.6460294     -1.271087       18628.801    
    696000   1.0466084      0.0023323615  -1.0727507e-05  20.765986      19.211772      1.5542135     -1.3653118      18814.546    
    697000   0.93864226     0.0023323615  -0.00094549018  20.769034      19.37515       1.3938838     -1.2255014      18929.566    
    698000   0.9293847      0.0023323615  -0.0023252578   20.539306      19.15917       1.3801363     -1.4216989      18493.394    
    699000   0.98438426     0.0023323615  -0.0015687019   20.663173      19.201362      1.4618106     -1.3094931      18238.791    
    700000   1.0333227      0.0023323615  -0.0033060005   20.595909      19.061425      1.5344842     -1.3743904      18503        
    701000   0.9024248      0.0023323615   2.2950333e-06  20.458938      19.118837      1.3401008     -1.4317164      18309.7      
    702000   0.93306125     0.0023323615   0.002765704    20.495258      19.109662      1.3855959     -1.3465273      18416.482    
    703000   0.86008864     0.0023323615  -0.0015454292   20.445718      19.168486      1.2772316     -1.2608628      18403.138    
    704000   0.87532492     0.0023323615  -0.0033896055   20.684132      19.384275      1.2998575     -1.1801042      18430.724    
    705000   0.94208246     0.0023323615  -0.00060253654  20.737682      19.33869       1.3989925     -1.2105         18696.224    
    706000   0.96214952     0.0023323615   0.0015723537   20.594407      19.165615      1.428792      -1.406312       18605.765    
    707000   1.0045878      0.0023323615  -0.0016926881   20.438559      18.946746      1.4918129     -1.5532454      18444.705    
    708000   0.94980048     0.0023323615  -3.512429e-05   20.645894      19.23544       1.4104537     -1.3173733      18458.329    
    709000   1.0484962      0.0023323615   0.00093435638  20.774377      19.217361      1.5570168     -1.3257733      18515.624    
    710000   0.90513943     0.0023323615   0.0044283845   20.48897       19.144838      1.3441321     -1.2367812      18718.696    
    711000   0.92642799     0.0023323615  -0.00041379906  20.502536      19.12679       1.3757456     -1.3226712      18794.115    
    712000   1.1454499      0.0023323615   0.00050074795  20.783693      19.0827        1.7009931     -1.33792        18971.165    
    713000   1.003679       0.0023323615   0.0038867153   20.799795      19.309331      1.4904633     -1.237305       18616.248    
    714000   1.0234405      0.0023323615  -0.00036213011  20.646267      19.126457      1.5198091     -1.4799571      18638.41     
    715000   1.0339591      0.0023323615   0.0016261131   20.568092      19.032663      1.5354293     -1.5416124      18467.789    
    716000   1.0472741      0.0023323615  -0.0023956819   20.53193       18.976728      1.5552021     -1.4607076      18528.272    
    717000   0.92701885     0.0023323615   0.00091128931  20.196574      18.819951      1.376623      -1.5747655      18504.399    
    718000   1.042118       0.0023323615   9.1955938e-06  20.621234      19.073689      1.5475452     -1.4576615      18480.136    
    719000   1.0001299      0.0023323615   0.0027859141   20.774608      19.289415      1.4851929     -1.3517833      18636.429    
    720000   0.98518817     0.0023323615  -0.0029163917   20.510631      19.047626      1.4630044     -1.548043       18633.201    
    721000   1.0678086      0.0023323615  -0.001559985    20.690539      19.104843      1.5856957     -1.4096782      18598.956    
    722000   1.1219875      0.0023323615   0.0061225142   20.813371      19.147219      1.6661514     -1.3375292      18373.212    
    723000   1.0526946      0.0023323615  -0.0006656842   20.640389      19.077137      1.5632515     -1.4117734      18412.698    
    724000   1.016875       0.0023323615   0.0022056804   20.550256      19.040197      1.5100594     -1.4752955      18544.4      
    725000   1.127921       0.0023323615   0.0034318647   20.829879      19.154917      1.6749626     -1.2952862      18558.561    
    726000   0.86888609     0.0023323615  -0.0051044313   20.326099      19.035804      1.2902958     -1.558837       18730.372    
    727000   0.95367091     0.0023323615  -0.0028173405   20.64206       19.225859      1.4162013     -1.3201942      18694.337    
    728000   0.87416833     0.0023323615  -0.00043052661  20.53083       19.23269       1.29814       -1.4069764      18463.396    
    729000   0.97870611     0.0023323615   0.0013044258   20.786766      19.333388      1.4533786     -1.3167966      18333.609    
    730000   0.99778396     0.0023323615  -0.00012482956  20.725183      19.243473      1.4817092     -1.2919576      18479.284    
    731000   0.93391618     0.0023323615   0.0034622545   20.834291      19.447426      1.3868655     -1.0664411      18558.978    
    732000   1.1144669      0.0023323615   0.00044346827  21.147587      19.492604      1.6549834     -1.128106       18833.254    
    733000   0.93573879     0.0023323615  -0.00017003487  20.526032      19.13646       1.3895721     -1.335531       18551.614    
    734000   1.0607323      0.0023323615  -0.00017697801  20.955819      19.380632      1.5751875     -1.1775009      18843.05     
    735000   0.87571419     0.0023323615  -0.0021137355   20.659062      19.358626      1.3004356     -1.1904638      18779.656    
    736000   0.95071244     0.0023323615  -0.00064991361  20.691425      19.279617      1.411808      -1.2641042      18877.561    
    737000   0.95281934     0.0023323615  -0.0040035297   20.689005      19.274068      1.4149367     -1.3459816      18557.888    
    738000   0.95193637     0.0023323615  -0.0021533004   20.716513      19.302887      1.4136255     -1.2485291      18527.419    
    739000   0.98525584     0.0023323615   0.0041355003   20.661333      19.198228      1.4631049     -1.2532509      18537.085    
    740000   0.97432072     0.0023323615  -0.0036442351   20.802952      19.356086      1.4468663     -1.2998943      18534.41     
    741000   0.96601533     0.0023323615   0.0020759379   20.656836      19.222303      1.4345328     -1.2685847      18423.822    
    742000   1.0583414      0.0023323615  -0.0019208909   20.880815      19.309178      1.571637      -1.2383013      18462.31     
    743000   0.92552066     0.0023323615  -0.00055873419  20.713339      19.338941      1.3743982     -1.1595946      18665.499    
    744000   1.0759898      0.0023323615   0.0016476822   20.850085      19.25224       1.5978449     -1.3883018      18735.811    
    745000   0.91283172     0.0023323615  -0.0015852103   20.473987      19.118432      1.3555551     -1.3977112      18672.133    
    746000   0.97975144     0.0023323615  -0.0035024227   20.748029      19.293098      1.4549309     -1.312635       18604.308    
    747000   1.1327915      0.0023323615  -0.00026077476  20.83598       19.153784      1.6821954     -1.3872459      18610.507    
    748000   1.0650994      0.0023323615   0.0019562933   20.998698      19.417025      1.5816726     -1.1473668      18535.529    
    749000   1.0307001      0.0023323615  -0.002477637    20.751831      19.221241      1.5305896     -1.3195676      18478.176    
    750000   1.0102329      0.0023323615  -0.0014910846   20.934264      19.434068      1.5001959     -1.0736721      18605.078    
    751000   0.91947188     0.0023323615   0.001874155    20.692056      19.32664       1.3654157     -1.1949322      18595.14     
    752000   1.1396157      0.0023323615  -0.0021090687   20.967712      19.275382      1.6923294     -1.1737087      18627.922    
    753000   1.2889861      0.0023323615   0.004771435    20.980868      19.066724      1.9141443     -1.3718773      18525.504    
    754000   1.1248568      0.0023323615   0.0017320424   20.856251      19.185839      1.6704123     -1.2569263      18508.194    
    755000   1.0834492      0.0023323615   0.0014686135   20.807936      19.199014      1.608922      -1.2493208      18477.173    
    756000   0.94118296     0.0023323615   0.0015161176   20.611976      19.214319      1.3976567     -1.2646862      18555.149    
    757000   1.0657078      0.0023323615  -0.0039906738   20.625411      19.042835      1.5825761     -1.3642765      18558.292    
    758000   1.0015083      0.0023323615  -0.0025688769   20.625763      19.138523      1.4872399     -1.3609683      18582.36     
    759000   0.9549498      0.0023323615  -0.0027673126   20.552573      19.134473      1.4181005     -1.4507852      18477.303    
    760000   0.9510896      0.0023323615   0.0042195134   20.81236       19.399992      1.4123681     -1.1835994      18699.443    
    761000   1.0004765      0.0023323615  -0.0035482891   20.572101      19.086394      1.4857077     -1.340092       18546.15     
    762000   1.0617318      0.0023323615  -0.00060288198  20.623268      19.046596      1.5766717     -1.3720957      18357.461    
    763000   1.1456587      0.0023323615  -0.00078353062  20.567129      18.865826      1.7013031     -1.552097       18580.308    
    764000   0.9460311      0.0023323615  -0.00046857272  20.41917       19.014314      1.4048562     -1.4706737      18447.93     
    765000   0.98020931     0.0023323615  -0.0040028247   20.500299      19.044688      1.4556108     -1.4271422      18509.365    
    766000   0.81450751     0.0023323615   0.0017398229   20.313815      19.104271      1.2095437     -1.4049011      18559.679    
    767000   0.92432955     0.0023323615  -0.0025747682   20.716502      19.343872      1.3726294     -1.1845307      18447.174    
    768000   1.0722709      0.0023323615   0.0046362789   20.773606      19.181283      1.5923223     -1.3248045      18383.458    
    769000   0.96124587     0.0023323615  -0.0050487002   20.60322       19.17577       1.4274501     -1.292933       18566.888    
    770000   1.0505486      0.0023323615   0.0061633016   20.865582      19.305517      1.5600646     -1.3874375      18579.696    
    771000   1.0019396      0.0023323615  -0.0021528479   20.45709       18.96921       1.4878803     -1.5176612      18454.158    
    772000   0.99108735     0.0023323615   0.0050784982   20.493159      19.021395      1.4717647     -1.4585116      18604.984    
    773000   0.95442408     0.0023323615   0.0030521947   20.396157      18.978837      1.4173198     -1.4890791      18748.822    
    774000   1.0192891      0.0023323615   0.005818018    20.62858       19.114936      1.5136443     -1.4604501      18401.859    
    775000   0.92972845     0.0023323615  -0.0023457288   20.485836      19.105189      1.3806467     -1.461191       18306.131    
    776000   0.83772853     0.0023323615  -3.2372225e-05  20.347238      19.103211      1.2440269     -1.390386       18416.822    
    777000   0.99613205     0.0023323615   0.0018346685   20.647604      19.168348      1.4792561     -1.4300437      18664.511    
    778000   0.90832162     0.0023323615  -0.0038022706   20.635855      19.286998      1.3488576     -1.3034318      18597.507    
    779000   1.0476255      0.0023323615   0.0017599813   20.770477      19.214753      1.5557239     -1.2164202      18484.575    
    780000   1.0293465      0.0023323615   0.0031654559   20.937635      19.409055      1.5285796     -0.97079966     18536.403    
    781000   1.0485122      0.0023323615   0.0021898374   20.770042      19.213002      1.5570405     -1.3883762      18385.226    
    782000   1.0333015      0.0023323615  -0.0031849797   20.806201      19.271748      1.5344527     -1.2957603      18503.785    
    783000   1.0467243      0.0023323615  -0.0024371678   20.204763      18.650378      1.5543856     -1.8017432      18394.042    
    784000   1.0425699      0.0023323615   4.4901806e-05  20.528664      18.980447      1.5482163     -1.4515763      18287.58     
    785000   0.92556353     0.0023323615  -0.0053871257   20.384448      19.009986      1.3744618     -1.5040381      18304.969    
    786000   1.1010574      0.0023323615   0.00069631221  20.579825      18.944755      1.6350703     -1.7167814      18436.873    
    787000   0.9465234      0.0023323615   0.001647627    20.234307      18.82872       1.4055873     -1.6276103      18335.767    
    788000   1.1408324      0.0023323615   0.0041553919   20.575949      18.881813      1.6941361     -1.5805713      18361.197    
    789000   0.94930702     0.0023323615  -0.00083778892  20.355398      18.945677      1.4097209     -1.5178229      18445.36     
    790000   0.9636878      0.0023323615   0.0010172745   20.665836      19.234759      1.4310764     -1.165158       18384.389    
    791000   0.99102817     0.0023323615   0.003514528    20.331328      18.859651      1.4716768     -1.5954241      18366.64     
    792000   0.7854391      0.0023323615  -0.0031649048   20.343735      19.177358      1.1663771     -1.3332732      18460.302    
    793000   1.0978858      0.0023323615   0.0042172872   21.036076      19.405716      1.6303604     -1.1480058      18501.669    
    794000   0.97015297     0.0023323615  -0.0014576787   20.80598       19.365303      1.4406772     -1.2498417      18563.1      
    795000   1.013783       0.0023323615  -0.0029061013   20.786673      19.281205      1.5054678     -1.2386504      18758.219    
    796000   1.080342       0.0023323615  -0.0044794048   20.929057      19.324749      1.6043079     -1.1997431      18580.107    
    797000   1.0211212      0.0023323615   0.00092239132  20.399694      18.883329      1.5163651     -1.5210557      18584.249    
    798000   0.97913526     0.0023323615   0.0020603303   20.404048      18.950032      1.4540159     -1.4740526      18436.992    
    799000   0.93588622     0.0023323615  -0.0013710252   20.697817      19.308026      1.389791      -1.1749246      18473.641    
    800000   1.0990772      0.0023323615  -0.0015995228   20.928836      19.296707      1.6321296     -1.1092143      18505.981    
    801000   0.90480697     0.0023323615   0.0012637338   20.660657      19.317019      1.3436383     -1.1939852      18610.677    
    802000   1.0817748      0.0023323615   0.0020294436   20.975837      19.369401      1.6064356     -1.1895941      18693.129    
    803000   0.99341525     0.0023323615   0.0014878171   20.742168      19.266946      1.4752216     -1.2605095      18820.793    
    804000   1.0045575      0.0023323615  -0.0041080436   20.952933      19.461165      1.4917679     -1.0046168      18535.584    
    805000   0.99050645     0.0023323615   0.0034333304   20.72563       19.254728      1.4709021     -1.3595426      18497.452    
    806000   1.2167909      0.0023323615  -0.0035611777   20.765965      18.959031      1.8069345     -1.4836596      18161.017    
    807000   0.98895084     0.0023323615  -0.0012792975   20.562714      19.094122      1.468592      -1.4783417      18124.465    
    808000   1.0565435      0.0023323615   0.0012496871   20.725899      19.156932      1.568967      -1.3691868      18266.863    
    809000   0.94769089     0.0023323615  -0.0018976172   20.614024      19.206703      1.407321      -1.3569865      18175.889    
    810000   1.06788        0.0023323615  -0.0006145802   20.643337      19.057535      1.5858018     -1.3919414      18266.037    
    811000   1.0337499      0.0023323615  -0.0030682886   20.788031      19.252912      1.5351186     -1.3494107      18407.859    
    812000   1.0480332      0.0023323615   0.00237266     20.557463      19.001134      1.5563293     -1.556803       18384.068    
    813000   1.0290103      0.0023323615   0.0012114664   20.602189      19.074109      1.5280803     -1.4074834      18462.033    
    814000   0.96392867     0.0023323615   0.0040120236   20.442691      19.011257      1.4314341     -1.6298139      18482.743    
    815000   0.97453919     0.0023323615   0.0026484217   20.673757      19.226566      1.4471907     -1.3064102      18420.088    
    816000   0.92216424     0.0023323615   0.0020481426   20.386493      19.01708       1.3694139     -1.4918482      18330.316    
    817000   0.91369488     0.0023323615   0.0023770803   20.201332      18.844495      1.3568369     -1.6349543      18350.414    
    818000   0.92291396     0.0023323615   0.00098293746  20.465373      19.094846      1.3705272     -1.4503198      18274.665    
    819000   1.0146884      0.0023323615  -0.0043325934   20.398096      18.891283      1.5068122     -1.628022       18290.324    
    820000   1.0636684      0.0023323615  -0.00019902365  20.673596      19.094049      1.5795476     -1.342476       18539.681    
    821000   1.0410124      0.0023323615  -0.0013483782   20.831805      19.285902      1.5459034     -1.1940185      18595.525    
    822000   1.0320341      0.0023323615  -0.00067289527  20.51336       18.980789      1.5325706     -1.5434516      18482.264    
    823000   1.0277121      0.0023323615   0.0011708913   20.88887       19.362718      1.5261524     -1.1568422      18564.712    
    824000   0.95745702     0.0023323615  -0.00014746486  20.598722      19.176898      1.4218237     -1.3728816      18347.554    
    825000   0.98679603     0.0023323615  -0.0010255348   20.384766      18.919374      1.4653921     -1.5616898      18423.267    
    826000   1.0604594      0.0023323615  -0.00016790949  20.326404      18.751622      1.5747822     -1.7111097      18453.807    
    827000   0.91001185     0.0023323615   0.0031042913   20.416054      19.064687      1.3513676     -1.4538073      18421.645    
    828000   1.0444832      0.0023323615   0.0015129827   20.633816      19.082758      1.5510576     -1.360024       18439.165    
    829000   1.0290948      0.0023323615   0.00424997     20.577688      19.049482      1.5282058     -1.3938044      18507.13     
    830000   1.0347475      0.0023323615  -0.002689003    20.565284      19.028684      1.5366        -1.4476814      18554.314    
    831000   0.99451946     0.0023323615  -1.5866842e-05  20.608727      19.131866      1.4768614     -1.4158533      18650.181    
    832000   0.94575696     0.0023323615   0.0010497274   20.407633      19.003184      1.4044491     -1.4486997      18490.102    
    833000   0.90151716     0.0023323615  -0.0033550154   20.479261      19.140508      1.338753      -1.3201101      18457.073    
    834000   0.90411626     0.0023323615  -6.3412418e-05  20.471065      19.128453      1.3426126     -1.4139266      18558.799    
    835000   0.96258283     0.0023323615  -0.0021880097   20.637304      19.207868      1.4294355     -1.2273417      18479.034    
    836000   0.97248331     0.0023323615   0.00311509     20.757359      19.313222      1.4441377     -1.2232283      18555.646    
    837000   0.9894249      0.0023323615   0.0044243515   20.841703      19.372407      1.469296      -1.2473137      18555.715    
    838000   1.1246631      0.0023323615   0.00023735208  21.047227      19.377102      1.6701248     -1.236214       18502.053    
    839000   1.0578671      0.0023323615  -0.0029789981   20.798134      19.227201      1.5709327     -1.4069974      18432.974    
    840000   0.97543398     0.0023323615  -0.00096295564  20.806562      19.358042      1.4485195     -1.1576342      18544.951    
    841000   0.89869035     0.0023323615  -0.0018194629   20.539517      19.204962      1.3345552     -1.313699       18518.881    
    842000   0.98977989     0.0023323615  -0.0018640217   20.499763      19.029939      1.4698231     -1.449249       18485.937    
    843000   0.9533149      0.0023323615   0.00012620916  20.532515      19.116843      1.4156726     -1.3350933      18514.649    
    844000   0.96068325     0.0023323615   0.00074074262  20.699139      19.272524      1.4266146     -1.3464662      18330.494    
    845000   1.1718388      0.0023323615  -0.0020482214   20.757962      19.017781      1.7401805     -1.4479764      18459.701    
    846000   0.89584576     0.0023323615  -0.0012363413   20.645271      19.314941      1.330331      -1.2959035      18396.283    
    847000   0.98987803     0.0023323615  -0.0030733996   20.475528      19.00556       1.4699689     -1.4753531      18467.765    
    848000   1.0757312      0.0023323615   0.0045176647   20.58329       18.985829      1.5974609     -1.6178822      18553.559    
    849000   1.0314458      0.0023323615  -0.0047449592   20.715803      19.184106      1.531697      -1.3594942      18474.598    
    850000   0.92407552     0.0023323615  -0.00054315062  20.756207      19.383955      1.3722521     -1.2112217      18401.597    
    851000   1.0411029      0.0023323615   0.00054178376  20.659911      19.113873      1.5460378     -1.3465493      18386.002    
    852000   1.0115057      0.0023323615  -0.0047540069   20.793523      19.291437      1.5020859     -1.1958185      18527.828    
    853000   0.96889166     0.0023323615   0.00216801     20.711432      19.272628      1.4388041     -1.1946418      18564.892    
    854000   1.0960407      0.0023323615   0.0004700461   20.825095      19.197475      1.6276204     -1.310624       18498.223    
    855000   1.0373204      0.0023323615   0.0024775164   20.528449      18.988028      1.5404208     -1.4805216      18337.513    
    856000   1.0280866      0.0023323615  -0.0012602627   20.884545      19.357836      1.5267087     -1.2113555      18581.329    
    857000   1.1074961      0.0023323615  -0.00047943517  20.524376      18.879744      1.6446317     -1.6375026      18561.211    
    858000   1.1352237      0.0023323615  -0.0047838688   21.007244      19.321437      1.6858072     -1.3837219      18462.46     
    859000   1.0317561      0.0023323615   0.0023358172   20.592832      19.060674      1.5321578     -1.3045038      18526.323    
    860000   1.0003035      0.0023323615  -0.0043741629   20.545727      19.060276      1.4854507     -1.4403206      18534.162    
    861000   1.1173913      0.0023323615  -0.0025193004   20.683422      19.024096      1.659326      -1.5209424      18302.931    
    862000   0.90754775     0.0023323615   0.0030763556   20.111012      18.763304      1.3477084     -1.6446307      18401.967    
    863000   1.0990325      0.0023323615  -0.00083703916  20.870484      19.238421      1.6320633     -1.3695724      18446.188    
    864000   0.93601235     0.0023323615  -0.00064153325  20.750083      19.360105      1.3899783     -1.2908464      18598.828    
    865000   0.99836233     0.0023323615  -0.0021743873   20.37267       18.890102      1.4825681     -1.4809084      18471.555    
    866000   1.0498019      0.0023323615  -0.0046030928   20.717997      19.159041      1.5589558     -1.3902042      18385.409    
    867000   0.89670817     0.0023323615   0.00084869424  20.343513      19.011901      1.3316116     -1.4707755      18509.849    
    868000   0.99138834     0.0023323615   0.0021388945   20.556041      19.083829      1.4722117     -1.3739834      18437.036    
    869000   1.0228636      0.0023323615   0.0035800283   20.550112      19.03116       1.5189525     -1.4297777      18547.388    
    870000   0.98503827     0.0023323615   0.00077512337  20.578199      19.115417      1.4627818     -1.4117439      18440.125    
    871000   1.0154618      0.0023323615  -0.00073190814  20.699569      19.191608      1.5079607     -1.3414646      18449.69     
    872000   0.95571653     0.0023323615  -0.0020083719   20.570062      19.150823      1.4192391     -1.4248988      18536.648    
    873000   1.1704761      0.0023323615  -0.0021638708   20.999004      19.260847      1.738157      -1.2793163      18372.748    
    874000   1.0181192      0.0023323615   0.0008756372   20.641538      19.129631      1.511907      -1.3226878      18354.089    
    875000   0.90710228     0.0023323615  -0.0040776628   20.683431      19.336385      1.3470469     -1.3092038      18367.366    
    876000   1.1045746      0.0023323615   0.0018395792   20.936017      19.295724      1.6402932     -1.2346754      18378.537    
    877000   0.98580643     0.0023323615  -0.0033570028   20.818792      19.35487       1.4639225     -1.1097559      18674.103    
    878000   0.93763092     0.0023323615  -0.0015442213   20.655868      19.263486      1.3923819     -1.2204537      18570.846    
    879000   0.94309359     0.0023323615  -0.0029010333   20.783215      19.382721      1.400494      -1.1908522      18602.419    
    880000   1.1679525      0.0023323615  -0.0057050772   21.201234      19.466825      1.7344095     -1.1728925      18508.699    
    881000   0.97034951     0.0023323615  -0.0028495574   20.607443      19.166474      1.440969      -1.3434029      18595.664    
    882000   1.1925968      0.0023323615  -0.0035927068   21.25308       19.482074      1.7710063     -1.0284148      18705.87     
    883000   0.91922292     0.0023323615  -0.00012110939  20.519457      19.15441       1.365046      -1.2984036      18784.417    
    884000   0.99334121     0.0023323615   0.0020428864   20.573773      19.098662      1.4751117     -1.3542686      18709.615    
    885000   1.176183       0.0023323615  -0.0022369092   20.810366      19.063734      1.7466318     -1.4823041      18678.912    
    886000   1.0704689      0.0023323615   0.002837467    20.426013      18.836367      1.5896463     -1.599732       18394.581    
    887000   0.87113834     0.0023323615  -0.0044223064   20.585724      19.292084      1.2936404     -1.287076       18471.6      
    888000   0.90387044     0.0023323615   0.00035735442  20.215331      18.873083      1.3422476     -1.6181642      18422.067    
    889000   1.0132575      0.0023323615   0.0036766773   20.666329      19.161642      1.5046874     -1.6020706      18483.544    
    890000   0.90691616     0.0023323615   0.0038078801   20.449365      19.102594      1.3467705     -1.4429919      18466.197    
    891000   0.98250707     0.0023323615   0.0014333563   20.494247      19.035224      1.459023      -1.5200462      18530.274    
    892000   0.88970046     0.0023323615   0.00079860258  20.266064      18.944859      1.3212052     -1.4383843      18503.36     
    893000   1.1508129      0.0023323615  -0.0019235471   21.058094      19.349137      1.7089572     -1.2508814      18476.308    
    894000   1.0149488      0.0023323615  -0.0069782826   20.646353      19.139154      1.5071989     -1.4557897      18561.805    
    895000   0.99593604     0.0023323615  -0.001625569    20.747181      19.268216      1.478965      -1.2225427      18569.789    
    896000   1.0723627      0.0023323615   0.00096481306  20.866969      19.27451       1.5924585     -1.2004355      18650.923    
    897000   0.96404304     0.0023323615  -0.0040155773   20.726723      19.295119      1.4316039     -1.1856697      18620.562    
    898000   0.88784799     0.0023323615  -0.0021269381   20.403739      19.085285      1.3184543     -1.4254944      18425.471    
    899000   0.8921435      0.0023323615   0.0038847332   20.623441      19.298608      1.3248331     -1.2270665      18517.16     
    900000   1.0045078      0.0023323615  -0.0011226403   20.618485      19.126791      1.4916941     -1.4115524      18459.441    
    901000   0.97293329     0.0023323615  -0.0033648948   20.767666      19.32286       1.4448059     -1.1657366      18685.783    
    902000   0.99438931     0.0023323615   0.003007974    20.714119      19.237451      1.4766681     -1.1907746      18683.734    
    903000   0.82538106     0.0023323615  -0.0013042775   20.241707      19.016016      1.2256909     -1.4860955      18523.331    
    904000   1.0652557      0.0023323615  -0.00068837076  20.655937      19.074032      1.5819047     -1.3752466      18379.569    
    905000   1.1100299      0.0023323615   0.0046587344   21.050681      19.402286      1.6483943     -1.1120895      18641.452    
    906000   0.90295603     0.0023323615  -0.0014160668   20.579106      19.238216      1.3408897     -1.3658086      18579.025    
    907000   0.82798824     0.0023323615   0.00092685514  20.560834      19.331272      1.2295625     -1.4234076      18531.165    
    908000   0.90940884     0.0023323615   0.00099578343  20.317561      18.967089      1.3504721     -1.4334577      18583.024    
    909000   1.0175525      0.0023323615  -0.0020964499   20.991514      19.480448      1.5110655     -1.1475683      18620.218    
    910000   1.143331       0.0023323615   0.0021136492   21.006475      19.308628      1.6978466     -1.0823887      18553.659    
    911000   0.99623137     0.0023323615  -0.0011870448   20.573013      19.09361       1.4794036     -1.428581       18449.137    
    912000   1.0678183      0.0023323615  -0.0017144147   20.553956      18.968246      1.5857101     -1.5093958      18472.413    
    913000   0.88640612     0.0023323615   0.0018819663   20.530944      19.214631      1.3163131     -1.4718127      18428.764    
    914000   1.0312833      0.0023323615   0.00062217758  20.704734      19.173279      1.5314558     -1.365262       18399.247    
    915000   0.96999363     0.0023323615  -0.00022694135  20.718632      19.278191      1.4404405     -1.3187237      18376.019    
    916000   0.97011112     0.0023323615   0.0035527391   20.512328      19.071713      1.440615      -1.5589423      18450.348    
    917000   0.87158207     0.0023323615  -0.0029496756   20.518785      19.224486      1.2942994     -1.4128967      18763.833    
    918000   0.97711668     0.0023323615   0.002108983    20.509155      19.058136      1.4510183     -1.4117844      18784.657    
    919000   0.99887816     0.0023323615   0.0039164064   20.605538      19.122204      1.4833341     -1.3506336      18538.978    
    920000   0.92794565     0.0023323615   0.00069887157  20.528323      19.150324      1.3779993     -1.3916406      18355.706    
    921000   0.87059406     0.0023323615  -0.0019082118   20.505655      19.212823      1.2928322     -1.3344736      18503.957    
    922000   1.049857       0.0023323615   0.00096028487  20.701826      19.142788      1.5590376     -1.5060677      18421.129    
    923000   1.0421495      0.0023323615   0.00049514489  20.680832      19.13324       1.5475919     -1.4053094      18374.128    
    924000   1.0459891      0.0023323615   0.0038502914   20.35192       18.798626      1.5532939     -1.642004       18351.218    
    925000   0.90098622     0.0023323615   0.0034250163   20.429129      19.091165      1.3379645     -1.4790973      18337.89     
    926000   0.98651725     0.0023323615   0.00066793971  20.500893      19.035915      1.4649781     -1.4900727      18404.801    
    927000   1.1460637      0.0023323615   0.0020028091   20.817106      19.115201      1.7019046     -1.4746175      18489.684    
    928000   1.0999518      0.0023323615   0.00043269453  20.67003       19.036602      1.6334284     -1.4290563      18548.322    
    929000   1.1855862      0.0023323615  -0.002567124    20.927924      19.167328      1.7605955     -1.3041562      18353.418    
    930000   1.0145184      0.0023323615  -0.0033354592   20.878162      19.371602      1.5065598     -1.1186296      18571.946    
    931000   0.86699715     0.0023323615  -0.0019930458   20.676279      19.388788      1.2874908     -1.1768048      18429.887    
    932000   1.0205757      0.0023323615  -0.0013941545   20.705729      19.190174      1.515555      -1.3724219      18518.039    
    933000   1.0770824      0.0023323615   0.00010785759  21.097103      19.497635      1.5994673     -1.0080303      18548.39     
    934000   0.96599918     0.0023323615  -0.00023876053  20.610935      19.176426      1.4345088     -1.2689963      18732.973    
    935000   0.90931104     0.0023323615  -0.0015082302   20.61455       19.264223      1.3503269     -1.2383548      18750.759    
    936000   0.91018958     0.0023323615   0.001584318    20.691         19.339369      1.3516315     -1.2267181      18651.209    
    937000   0.92050897     0.0023323615   0.00029028845  20.586665      19.219709      1.3669558     -1.2929438      18734.281    
    938000   0.92654702     0.0023323615   0.0010848164   20.674549      19.298627      1.3759223     -1.2091877      18672.713    
    939000   0.98873921     0.0023323615  -0.00095803975  20.339137      18.87086       1.4682777     -1.6840395      18524.507    
    940000   1.0078442      0.0023323615  -0.0007031365   20.538183      19.041534      1.4966486     -1.4087311      18296.856    
    941000   1.1452735      0.0023323615   0.0033982546   20.800812      19.100081      1.7007312     -1.375729       18346.121    
    942000   1.1045173      0.0023323615  -0.0024560873   20.839656      19.199447      1.6402082     -1.3598886      18555.294    
    943000   0.90545523     0.0023323615   0.0028372831   20.330765      18.986164      1.344601      -1.4861757      18507.148    
    944000   0.93125481     0.0023323615   0.0023501814   20.575479      19.192565      1.3829134     -1.4010568      18391.192    
    945000   0.86207698     0.0023323615  -0.00011473153  20.205477      18.925292      1.2801843     -1.5237667      18417.09     
    946000   1.0502496      0.0023323615   0.0028340011   20.308081      18.748461      1.5596206     -1.7158122      18406.423    
    947000   0.91701962     0.0023323615  -0.0010543469   20.787247      19.425473      1.3617741     -1.1377325      18000.688    
    948000   1.0767203      0.0023323615   0.00045784482  20.575508      18.976578      1.5989297     -1.4470392      18298.211    
    949000   1.1400489      0.0023323615   0.0016120818   20.98305       19.290077      1.6929726     -1.2638084      18357.195    
    950000   1.1018358      0.0023323615   0.00098428798  20.875945      19.239718      1.6362261     -1.2340373      18531.946    
    951000   0.9376696      0.0023323615   4.6917451e-05  20.536459      19.144019      1.3924394     -1.3780403      18344.502    
    952000   1.1247893      0.0023323615   0.0030211954   20.81453       19.144218      1.6703121     -1.3216364      18262.291    
    953000   1.0306713      0.0023323615   0.0013472248   20.887757      19.35721       1.5305469     -1.1591909      18415.307    
    954000   0.85813837     0.0023323615   0.00083740544  20.348384      19.074049      1.2743355     -1.4642961      18486.981    
    955000   1.1217948      0.0023323615   0.0013078521   20.653361      18.987496      1.6658652     -1.5506423      18520.066    
    956000   1.0334582      0.0023323615   0.00071061434  20.715653      19.180967      1.5346854     -1.3215175      18549.918    
    957000   0.89712273     0.0023323615  -0.002721571    20.552616      19.220389      1.3322273     -1.3253084      18477.355    
    958000   0.97889818     0.0023323615   0.00027407264  20.75618       19.302516      1.4536638     -1.3935047      18362.841    
    959000   0.96872815     0.0023323615   0.0033507351   20.382175      18.943614      1.4385613     -1.5746553      18377.549    
    960000   1.1319673      0.0023323615   0.00099079471  20.685788      19.004816      1.6809715     -1.4186923      18403.528    
    961000   1.1063638      0.0023323615   0.0024350085   21.206694      19.563744      1.6429502     -0.99387137     18581.955    
    962000   0.9395058      0.0023323615  -0.0016788647   20.875046      19.47988       1.3951661     -1.0851756      18728.607    
    963000   1.1505412      0.0023323615   0.0027154402   20.893012      19.184459      1.7085536     -1.2649184      18504.793    
    964000   0.82843993     0.0023323615   0.00016235743  20.290065      19.059831      1.2302333     -1.3108458      18419.973    
    965000   0.94934642     0.0023323615   0.0028516121   20.536237      19.126458      1.4097794     -1.3916158      18618.905    
    966000   1.0298541      0.0023323615  -0.0048184834   20.631681      19.102347      1.5293333     -1.4967004      18761.943    
    967000   0.99936735     0.0023323615   0.0016686413   20.780781      19.296721      1.4840605     -1.3079114      18564.225    
    968000   0.85683522     0.0023323615   0.00092798197  20.3403        19.0679        1.2724003     -1.4469064      18206.448    
    969000   0.93878822     0.0023323615   0.00072754337  20.421865      19.027764      1.3941005     -1.5191832      17931.738    
    970000   0.83622853     0.0023323615   0.0030026999   20.399996      19.158196      1.2417994     -1.3747565      18067.772    
    971000   0.9112738      0.0023323615  -0.00048998032  20.484309      19.131067      1.3532416     -1.3889053      18351.211    
    972000   1.0629171      0.0023323615  -0.002102531    20.767623      19.189191      1.5784318     -1.3168809      18338.843    
    973000   0.95683682     0.0023323615   0.00014204236  20.5113        19.090397      1.4209027     -1.3933529      18286.819    
    974000   0.99824831     0.0023323615  -0.00082522393  20.66983       19.187431      1.4823987     -1.3621932      18355.217    
    975000   0.93795767     0.0023323615  -0.0011988279   20.572826      19.179959      1.3928671     -1.3683519      18500.877    
    976000   1.008035       0.0023323615   0.0075155901   20.44305       18.946119      1.4969319     -1.4700717      18383.648    
    977000   1.093206       0.0023323615   0.00018078055  20.614712      18.991301      1.6234109     -1.4840837      18383.601    
    978000   0.90946709     0.0023323615  -0.00013248134  20.542961      19.192402      1.3505586     -1.2049328      18461.412    
    979000   1.0462267      0.0023323615  -0.0020422761   20.754443      19.200796      1.5536466     -1.355059       18470.27     
    980000   0.92352828     0.0023323615  -0.0040933177   20.770035      19.398595      1.3714395     -1.2479187      18389.599    
    981000   0.99522937     0.0023323615   8.1001186e-05  20.431364      18.953448      1.4779156     -1.583865       18337.317    
    982000   1.0551213      0.0023323615  -0.0028508622   20.762042      19.195186      1.5668552     -1.3772751      18271.688    
    983000   1.0417578      0.0023323615   0.0017008594   20.853894      19.306883      1.5470103     -1.1548278      18609.161    
    984000   0.96926643     0.0023323615  -0.0030320173   20.693239      19.253878      1.4393607     -1.3190173      18539.632    
    985000   0.90117945     0.0023323615  -0.00053734701  20.621214      19.282963      1.3382515     -1.2668302      18651.084    
    986000   0.90994777     0.0023323615   0.004679699    20.398144      19.046872      1.3512724     -1.3538738      18642.928    
    987000   0.96208743     0.0023323615   0.00062534455  20.77774       19.34904       1.4286998     -1.2413625      18668.442    
    988000   1.0855656      0.0023323615   0.0013763025   20.912089      19.300024      1.6120649     -1.1735866      18665.917    
    989000   0.90387487     0.0023323615   0.00016084658  20.607238      19.264984      1.3422542     -1.1605539      18505.044    
    990000   0.88161471     0.0023323615  -0.0029071698   20.518315      19.209117      1.3091978     -1.3078947      18625.878    
    991000   1.0661059      0.0023323615  -0.0021069333   21.012586      19.429419      1.5831672     -1.2417073      18624.658    
    992000   1.0622242      0.0023323615   0.0030101398   21.043292      19.465889      1.5774029     -1.0241027      18617.596    
    993000   1.0652956      0.0023323615  -0.00080498751  21.01649       19.434526      1.5819639     -1.2660125      18878.429    
    994000   1.2744571      0.0023323615   0.00098185076  21.259135      19.366566      1.8925689     -1.1843633      19073.826    
    995000   0.9807903      0.0023323615  -0.0040607628   20.54134       19.084866      1.4564736     -1.3515977      18828.732    
    996000   1.0085827      0.0023323615   0.001984827    20.535229      19.037484      1.4977453     -1.4211923      18467.013    
    997000   1.012108       0.0023323615  -0.0043193289   20.669146      19.166165      1.5029804     -1.3879119      18429.22     
    998000   1.0465563      0.0023323615  -0.00042299586  20.591325      19.037189      1.5541361     -1.4213393      18451.167    
    999000   0.9788111      0.0023323615  -0.0030347858   20.703963      19.250429      1.4535345     -1.4352639      18346.175    
   1000000   0.84051707     0.0023323615   0.005273137    20.20313       18.954962      1.2481678     -1.5918794      18339.349    
Loop time of 53.9892 on 1 procs for 1000000 steps with 100 atoms

Performance: 8001593.272 tau/day, 18522.207 timesteps/s
99.4% CPU use with 1 MPI tasks x 1 OpenMP threads

MPI task timing breakdown:
Section |  min time  |  avg time  |  max time  |%varavg| %total
---------------------------------------------------------------
Pair    | 44.941     | 44.941     | 44.941     |   0.0 | 83.24
Bond    | 1.2552     | 1.2552     | 1.2552     |   0.0 |  2.32
Neigh   | 3.8015     | 3.8015     | 3.8015     |   0.0 |  7.04
Comm    | 1.4265     | 1.4265     | 1.4265     |   0.0 |  2.64
Output  | 0.2138     | 0.2138     | 0.2138     |   0.0 |  0.40
Modify  | 1.9953     | 1.9953     | 1.9953     |   0.0 |  3.70
Other   |            | 0.3556     |            |       |  0.66

Nlocal:            100 ave         100 max         100 min
Histogram: 1 0 0 0 0 0 0 0 0 0
Nghost:            296 ave         296 max         296 min
Histogram: 1 0 0 0 0 0 0 0 0 0
Neighs:           4851 ave        4851 max        4851 min
Histogram: 1 0 0 0 0 0 0 0 0 0

Total # of neighbors = 4851
Ave neighs/atom = 48.51
Ave special neighs/atom = 1.98
Neighbor list builds = 97910
Dangerous builds = 80163

write_data      ${outputfile_assembled} nofix nocoeff
write_data      7_assembled.data nofix nocoeff
System init for write_data ...
Generated 0 of 6 mixed pair_coeff terms from geometric mixing rule

Total wall time: 0:00:55
