LAMMPS (23 Jun 2022 - Update 1)
OMP_NUM_THREADS environment is not set. Defaulting to 1 thread. (src/comm.cpp:98)
  using 1 OpenMP thread(s) per MPI task


variable        runtime equal 1000000
variable		subsample_rate equal 1000

variable		outputfile_created string '3_created.data'
variable		outputfile_relaxed string '5_relaxed.data'
variable		outputfile_selfasb string '6_a_self_assemble.lammpstrj'
variable		outputfile_trajlin string '6_b_trajlin.data'
variable		outputfile_assembled string '7_assembled.data'

units           lj
atom_style      full
dimension       3
boundary        p p p
timestep        0.005

read_data       ${outputfile_created}
read_data       3_created.data
Reading data file ...
  orthogonal box = (0 0 0) to (35 35 35)
  1 by 1 by 1 MPI processor grid
  reading atoms ...
  100 atoms
  reading velocities ...
  100 velocities
  scanning bonds ...
  1 = max bonds/atom
  reading bonds ...
  99 bonds
Finding 1-2 1-3 1-4 neighbors ...
  special bond factors lj:    0        0        0       
  special bond factors coul:  0        0        0       
     2 = max # of 1-2 neighbors
     2 = max # of 1-3 neighbors
     4 = max # of 1-4 neighbors
     6 = max # of special neighbors
  special bonds CPU = 0.000 seconds
  read_data CPU = 0.006 seconds

bond_style      fene
bond_coeff      * 30.0 1.5 1.0 1.0
special_bonds   fene
Finding 1-2 1-3 1-4 neighbors ...
  special bond factors lj:    0        1        1       
  special bond factors coul:  0        1        1       
     2 = max # of 1-2 neighbors
     6 = max # of special neighbors
  special bonds CPU = 0.000 seconds

variable        Temp equal 1.0
variable        velSeed equal 926458

velocity        all create ${Temp} ${velSeed}
velocity        all create 1 ${velSeed}
velocity        all create 1 926458

### Output
thermo_style    custom step temp density press etotal pe ke epair spcpu
thermo          1000

###########################################################################
# Soft relaxation (to remove overlaps of particles)
######################################################################

pair_style      soft 1.0
pair_coeff      * * 0.0
variable        prefactor equal ramp(0,300)
fix             rampSoft all adapt 1 pair soft a * * v_prefactor

minimize        0.0 1.0e-8 1000 100000
WARNING: Using 'neigh_modify every 1 delay 0 check yes' setting during minimization (src/min.cpp:187)
Generated 0 of 6 mixed pair_coeff terms from geometric mixing rule
Neighbor list info ...
  update every 1 steps, delay 0 steps, check yes
  max neighbors/atom: 2000, page size: 100000
  master list distance cutoff = 1.3
  ghost atom cutoff = 1.3
  binsize = 0.65, bins = 54 54 54
  1 neighbor lists, perpetual/occasional/extra = 1 0 0
  (1) pair soft, perpetual
      attributes: half, newton on
      pair build: half/bin/newton
      stencil: half/bin/3d
      bin: standard
WARNING: Communication cutoff 1.3 is shorter than a bond length based estimate of 1.7550000000000001. This may lead to errors. (src/comm.cpp:727)
Per MPI rank memory allocation (min/avg/max) = 8.346 | 8.346 | 8.346 Mbytes
   Step          Temp         Density         Press          TotEng         PotEng         KinEng         E_pair         S/CPU     
         0   1              0.0023323615  -0.0039617958   21.524174      20.039174      1.485          0              0            
       362   1              0.0023323615   0.0023090379   21.485548      20.000548      1.485          0              69244.01     
Loop time of 0.00523 on 1 procs for 362 steps with 100 atoms

97.8% CPU use with 1 MPI tasks x 1 OpenMP threads

Minimization stats:
  Stopping criterion = force tolerance
  Energy initial, next-to-last, final = 
      20.0391741078675   20.0005480767337   20.0005480767337
  Force two-norm initial, final = 11.878422 7.9509778e-09
  Force max component initial, final = 6.6117807 1.3572772e-09
  Final line search alpha, max atom move = 1 1.3572772e-09
  Iterations, force evaluations = 362 738

MPI task timing breakdown:
Section |  min time  |  avg time  |  max time  |%varavg| %total
---------------------------------------------------------------
Pair    | 0.00021341 | 0.00021341 | 0.00021341 |   0.0 |  4.08
Bond    | 0.0023262  | 0.0023262  | 0.0023262  |   0.0 | 44.48
Neigh   | 0.0015213  | 0.0015213  | 0.0015213  |   0.0 | 29.09
Comm    | 0.00018609 | 0.00018609 | 0.00018609 |   0.0 |  3.56
Output  | 0          | 0          | 0          |   0.0 |  0.00
Modify  | 0          | 0          | 0          |   0.0 |  0.00
Other   |            | 0.0009831  |            |       | 18.80

Nlocal:            100 ave         100 max         100 min
Histogram: 1 0 0 0 0 0 0 0 0 0
Nghost:             20 ave          20 max          20 min
Histogram: 1 0 0 0 0 0 0 0 0 0
Neighs:              0 ave           0 max           0 min
Histogram: 1 0 0 0 0 0 0 0 0 0

Total # of neighbors = 0
Ave neighs/atom = 0
Ave special neighs/atom = 1.98
Neighbor list builds = 17
Dangerous builds = 0

fix             nvtSoft all nvt temp ${Temp} ${Temp} 0.5
fix             nvtSoft all nvt temp 1 ${Temp} 0.5
fix             nvtSoft all nvt temp 1 1 0.5
run             100000
Generated 0 of 6 mixed pair_coeff terms from geometric mixing rule
WARNING: Communication cutoff 1.3 is shorter than a bond length based estimate of 1.7550000000000001. This may lead to errors. (src/comm.cpp:727)
Per MPI rank memory allocation (min/avg/max) = 7.221 | 7.221 | 7.221 Mbytes
   Step          Temp         Density         Press          TotEng         PotEng         KinEng         E_pair         S/CPU     
       362   1              0.0023323615   0.0023090379   21.485548      20.000548      1.485          0              0            
      1000   0.90989032     0.0023323615  -0.0021940042   21.776974      20.425787      1.3511871      0.00036425437  78962.693    
      2000   0.86546688     0.0023323615   0.0034714157   21.677128      20.39191       1.2852183      0.0025814786   78075.965    
      3000   0.98199538     0.0023323615   0.0028144228   21.866132      20.407869      1.4582631      0.0011756043   74287.737    
      4000   1.004495       0.0023323615  -0.0014058211   21.945624      20.453949      1.4916751      0.011986179    74186.53     
      5000   1.1222705      0.0023323615   0.0044495116   21.986385      20.319813      1.6665718      0.0050317639   73504.231    
      6000   1.0538243      0.0023323615   0.0023957538   21.985713      20.420784      1.564929       0.012100514    74587.902    
      7000   1.0210598      0.0023323615  -0.00038820026  21.904665      20.388391      1.5162738      0              74351.101    
      8000   0.94819751     0.0023323615   0.0024943091   21.747889      20.339816      1.4080733      0              77181.647    
      9000   0.92364502     0.0023323615   0.0020053029   21.724166      20.352554      1.3716129      1.7780894e-05  76238.88     
     10000   0.86685188     0.0023323615   0.00078277366  21.644879      20.357604      1.287275       0.0098636418   76391.463    
     11000   1.0057103      0.0023323615   0.00010113276  21.8558        20.362321      1.4934798      0.020705341    76205.996    
     12000   0.97901664     0.0023323615  -0.0026996968   21.871206      20.417366      1.4538397      0.0052928539   75978.656    
     13000   0.97718436     0.0023323615  -6.1641422e-06  21.963706      20.512587      1.4511188      0.025022446    75868.81     
     14000   1.0530014      0.0023323615  -0.0009993112   21.947994      20.384287      1.5637071      0.0020860456   75371.588    
     15000   0.99094527     0.0023323615   0.0011068478   21.895146      20.423592      1.4715537      0.0015091113   75487.531    
     16000   0.91285091     0.0023323615  -0.00025424173  21.87524       20.519657      1.3555836      0.0047853639   75800.88     
     17000   0.82806978     0.0023323615  -0.00054698156  21.701984      20.472301      1.2296836      0              75531.057    
     18000   1.043278       0.0023323615  -6.6143919e-05  22.003299      20.454031      1.5492679      0.0034319132   76734.375    
     19000   1.0879249      0.0023323615  -0.0017804642   21.998985      20.383416      1.6155685      0.015376175    75296.136    
     20000   1.1144506      0.0023323615   0.0025198298   22.190904      20.535944      1.6549592      0              76199.301    
     21000   1.0427751      0.0023323615   0.0011345349   22.099492      20.550971      1.548521       0.00040047813  75213.865    
     22000   1.0586695      0.0023323615   0.0017882747   22.05673       20.484606      1.5721242      0              76014.014    
     23000   1.0058426      0.0023323615  -0.0055245362   21.954628      20.460951      1.4936763      0.0027619031   75154.224    
     24000   0.98273442     0.0023323615   0.0015147357   21.862067      20.402707      1.4593606      0              76101.989    
     25000   0.95835343     0.0023323615   0.0017808774   21.937761      20.514606      1.4231548      0.00020839942  75618.667    
     26000   0.93993778     0.0023323615  -0.0021777292   21.884849      20.489042      1.3958076      0.0088889834   76202.965    
     27000   0.9308188      0.0023323615  -0.00011239942  21.842252      20.459986      1.3822659      0.021612409    75502.15     
     28000   1.0149581      0.0023323615   0.0041996387   21.906846      20.399633      1.5072129      0.0064059022   75987.161    
     29000   0.92841138     0.0023323615  -2.5398808e-05  21.987185      20.608494      1.3786909      0.0046112484   76078.668    
     30000   1.021043       0.0023323615   0.001589158    22.097958      20.581709      1.5162489      0.016799508    73620.523    
     31000   1.0465985      0.0023323615  -0.0021744286   22.037917      20.483718      1.5541987      0.0057879149   76383.86     
     32000   0.98907108     0.0023323615  -0.0015558606   22.044089      20.575318      1.4687705      0.009448173    75877.117    
     33000   1.0918536      0.0023323615  -0.0025643847   22.039275      20.417873      1.6214025      0              74884.261    
     34000   0.99801543     0.0023323615   0.0016279766   21.932339      20.450286      1.4820529      0.017384617    77277.203    
     35000   1.0352271      0.0023323615  -0.0052971711   22.076004      20.538692      1.5373122      0.00010473809  75976.168    
     36000   1.1141579      0.0023323615  -0.00093279925  22.222491      20.567966      1.6545245      0.00033678641  76602.76     
     37000   1.0369415      0.0023323615   0.00013065175  22.217841      20.677983      1.5398581      0.013788831    75691.953    
     38000   1.0515596      0.0023323615   0.0021717558   22.070766      20.5092        1.561566       0.0067894678   76575.958    
     39000   1.0238495      0.0023323615   0.00026414509  22.040141      20.519725      1.5204165      0.00044464649  75618.432    
     40000   1.0749111      0.0023323615  -0.0026849368   22.039327      20.443084      1.596243       0.012651334    74218.971    
     41000   0.99070886     0.0023323615  -0.0030385564   22.03241       20.561207      1.4712027      0.00092855646  77246.401    
     42000   0.95315224     0.0023323615   0.0019788197   21.965263      20.549832      1.4154311      0.020233689    75654.485    
     43000   1.0644183      0.0023323615  -0.0011168725   22.287172      20.706511      1.5806611      0.039694129    75646.29     
     44000   1.0253747      0.0023323615  -0.006676522    22.066233      20.543552      1.5226814      0              74986.144    
     45000   0.94179556     0.0023323615  -0.0047206018   21.970644      20.572077      1.3985664      0.019869988    75524.942    
     46000   1.0083495      0.0023323615  -0.0017646918   21.972114      20.474715      1.497399       0.00026040605  75637.404    
     47000   0.98767959     0.0023323615  -0.00080218158  22.091674      20.62497       1.4667042      0.024266258    75490.272    
     48000   1.1473449      0.0023323615  -0.0025885687   22.080512      20.376705      1.7038072      0.00065962995  75764.343    
     49000   1.0679312      0.0023323615   0.0017688272   21.970482      20.384604      1.5858779      0.014142422    76912.238    
     50000   0.9581935      0.0023323615   0.0014398836   21.955202      20.532284      1.4229173      0.0055011948   76185.345    
     51000   1.0215759      0.0023323615  -0.00093292688  21.934681      20.41764       1.5170402      0              75927.965    
     52000   0.98079591     0.0023323615   0.0040701936   21.977374      20.520892      1.4564819      0.0020862422   76578.427    
     53000   1.0090927      0.0023323615   0.0013324753   22.095438      20.596935      1.4985027      0              75828.93     
     54000   0.97519627     0.0023323615   0.0013260734   22.070151      20.621984      1.4481665      0.026885444    76855.202    
     55000   1.1805087      0.0023323615  -0.001586238    22.424088      20.671033      1.7530554      0.024690954    76169.88     
     56000   0.98387121     0.0023323615   0.0037155145   22.104425      20.643376      1.4610487      0.01435493     75958.192    
     57000   1.0723812      0.0023323615  -0.0037916262   22.122726      20.53024       1.592486       0.013635549    76619.692    
     58000   1.0152349      0.0023323615   0.00021908047  22.082827      20.575203      1.5076238      0.00077375639  75846.5      
     59000   1.1424502      0.0023323615  -0.0052108657   22.30072       20.604182      1.6965385      0.013308184    77305.149    
     60000   1.0359703      0.0023323615  -0.00097887545  22.188218      20.649802      1.538416       0.00011346294  75781.372    
     61000   1.1646839      0.0023323615  -0.002085017    22.239945      20.51039       1.7295556      0.012918477    77941.041    
     62000   1.101836       0.0023323615   0.0010338878   22.171386      20.53516       1.6362265      0.001396566    76776.64     
     63000   0.96616435     0.0023323615   0.00097550571  21.903821      20.469067      1.4347541      0.013027663    78033.719    
     64000   1.0068907      0.0023323615  -0.0020278726   22.061652      20.566419      1.4952327      0.013750276    76386.258    
     65000   0.98723233     0.0023323615   0.0022441476   22.031073      20.565033      1.46604        0.0066686189   77188.874    
     66000   1.0273881      0.0023323615  -0.0003515278   22.183579      20.657908      1.5256713      0              75170.364    
     67000   0.96528212     0.0023323615  -0.00014822656  21.9396        20.506156      1.4334439      0.010365557    76963.24     
     68000   1.069702       0.0023323615   9.4754668e-05  22.081119      20.492611      1.5885075      0.00049153926  74243.531    
     69000   1.1229502      0.0023323615   0.0011504079   22.200329      20.532748      1.6675811      0.0068454249   76911.706    
     70000   1.0062775      0.0023323615  -0.00085311964  22.094021      20.599699      1.4943221      0.013222355    75503.917    
     71000   1.0906935      0.0023323615   0.00015260357  22.145362      20.525682      1.6196798      0.018338513    76035.728    
     72000   1.010401       0.0023323615  -6.0487182e-06  22.154105      20.653659      1.5004455      0.0013793953   75134.765    
     73000   1.1177599      0.0023323615  -0.0034084797   22.254435      20.594562      1.6598735      0.00011231735  77898.219    
     74000   0.9768019      0.0023323615   0.00016143893  22.07312       20.622569      1.4505508      0.0084515956   75786.949    
     75000   1.1360996      0.0023323615   0.002159116    22.161595      20.474487      1.6871079      0.0089909162   76448.216    
     76000   0.97379329     0.0023323615  -0.00068458621  21.988928      20.542845      1.446083       0              75818.851    
     77000   0.94876793     0.0023323615  -0.0016073976   21.923496      20.514575      1.4089204      0.017745108    75902.388    
     78000   0.83947996     0.0023323615  -0.00062768559  21.726727      20.480099      1.2466277      0.0054510099   76432.001    
     79000   1.0090614      0.0023323615  -0.00080262643  22.068192      20.569736      1.4984562      0.00023011166  77089.376    
     80000   1.1217643      0.0023323615  -0.0038177864   22.367902      20.702082      1.66582        0.032902439    76323.235    
     81000   1.0240158      0.0023323615   0.00023547123  22.031597      20.510933      1.5206635      0.0068767308   75728.822    
     82000   1.003236       0.0023323615  -0.0022802982   21.894199      20.404393      1.4898055      0.019136282    74934.747    
     83000   1.0554159      0.0023323615   0.004011718    22.104562      20.537269      1.5672927      0.0080869707   74695.63     
     84000   0.83527346     0.0023323615  -0.0034122221   21.874648      20.634267      1.2403811      0.0030083664   75809.114    
     85000   1.036002       0.0023323615   0.0013573923   21.962923      20.42446       1.5384629      0.015709144    76526.522    
     86000   0.9432002      0.0023323615  -0.0032183248   21.913588      20.512936      1.4006523      0.013730309    76540.258    
     87000   0.95566008     0.0023323615  -0.00049614223  21.91653       20.497375      1.4191552      0.0035862035   75445.472    
     88000   0.93373351     0.0023323615  -0.00097093893  21.870485      20.483891      1.3865943      0.0018212145   75343.086    
     89000   0.9684944      0.0023323615  -0.00047342045  21.973429      20.535215      1.4382142      0.00087524744  75749.622    
     90000   0.98293324     0.0023323615  -0.0032204602   22.050919      20.591263      1.4596559      0.015353933    77062.536    
     91000   1.0832827      0.0023323615   0.0048517083   22.11977       20.511095      1.6086749      0.0052867789   78004.69     
     92000   0.85899662     0.0023323615  -0.0013049519   21.765697      20.490087      1.27561        0.0024124001   76926.468    
     93000   0.96176266     0.0023323615  -4.4223672e-05  21.874222      20.446004      1.4282176      0.0045653365   77542.372    
     94000   0.96019503     0.0023323615   0.00024459347  21.944954      20.519064      1.4258896      3.8053462e-05  76943.307    
     95000   0.94702149     0.0023323615  -0.0033658915   21.86315       20.456823      1.4063269      0              77501.068    
     96000   0.91119348     0.0023323615  -0.0013197298   21.825018      20.471896      1.3531223      0.00043282989  75849.267    
     97000   1.0016687      0.0023323615  -0.0019514304   22.013024      20.525546      1.487478       0.0048369955   74543.838    
     98000   1.02143        0.0023323615  -0.0057874974   22.177965      20.661142      1.5168235      0              74764.617    
     99000   1.032786       0.0023323615   0.0018228259   21.975336      20.441649      1.5336871      7.1595851e-05  77874.821    
    100000   1.0594928      0.0023323615   0.0036169719   22.011024      20.437677      1.5733468      0.00032948157  76055.02     
    100362   1.1904942      0.0023323615  -0.00089755607  22.316856      20.548972      1.7678839      0.00063845255  75765.535    
Loop time of 1.31542 on 1 procs for 100000 steps with 100 atoms

Performance: 32841190.333 tau/day, 76021.274 timesteps/s
99.2% CPU use with 1 MPI tasks x 1 OpenMP threads

MPI task timing breakdown:
Section |  min time  |  avg time  |  max time  |%varavg| %total
---------------------------------------------------------------
Pair    | 0.049627   | 0.049627   | 0.049627   |   0.0 |  3.77
Bond    | 0.12531    | 0.12531    | 0.12531    |   0.0 |  9.53
Neigh   | 0.80519    | 0.80519    | 0.80519    |   0.0 | 61.21
Comm    | 0.055572   | 0.055572   | 0.055572   |   0.0 |  4.22
Output  | 0.0011098  | 0.0011098  | 0.0011098  |   0.0 |  0.08
Modify  | 0.2453     | 0.2453     | 0.2453     |   0.0 | 18.65
Other   |            | 0.0333     |            |       |  2.53

Nlocal:            100 ave         100 max         100 min
Histogram: 1 0 0 0 0 0 0 0 0 0
Nghost:             60 ave          60 max          60 min
Histogram: 1 0 0 0 0 0 0 0 0 0
Neighs:             36 ave          36 max          36 min
Histogram: 1 0 0 0 0 0 0 0 0 0

Total # of neighbors = 36
Ave neighs/atom = 0.36
Ave special neighs/atom = 1.98
Neighbor list builds = 9821
Dangerous builds = 8265
unfix           nvtSoft
unfix           rampSoft
reset_timestep  0

write_data      ${outputfile_relaxed}
write_data      5_relaxed.data
System init for write_data ...
Generated 0 of 6 mixed pair_coeff terms from geometric mixing rule
WARNING: Communication cutoff 1.3 is shorter than a bond length based estimate of 1.7550000000000001. This may lead to errors. (src/comm.cpp:727)
WARNING: Not all mixed pair coeffs generated from mixing. Use write_data with 'pair ij' option to store all pair coeffs. (src/write_data.cpp:309)

###########################################################################
# Full LJ with Coulomb
######################################################################

# Cutoffs and parameters:
# - Values: Marcel Verkade's Bachelor Thesis
# - Mapping to atom groups: Patrick Onck's paper
# - 1: aliphatic, 2: aromatic, 3: anion, 4: cation
# pair_style	lj/cut/coul/cut <lj_cut_global> <coul_cut_global>
# pair_coeff	<type_1>  <type_2>  <eps>  <sigma>  <r_cut_lj>  <r_cut_coul>

# Problem: Onck's model is much more complex, and Marcel has no sigma reported
# Using sigma=1 randomly

variable		glob_ljeps equal 1.0
variable		glob_ljsig 	equal 1.0
variable		glob_coulcut equal 10.0
variable		att_ljcut equal 2.50
variable		rep_ljcut equal 1.12

pair_style		lj/cut/coul/cut 						${att_ljcut} 	${glob_coulcut}
pair_style		lj/cut/coul/cut 						2.5 	${glob_coulcut}
pair_style		lj/cut/coul/cut 						2.5 	10
pair_coeff		1 1 	${glob_ljeps} 	${glob_ljsig}	${att_ljcut} 	${glob_coulcut}
pair_coeff		1 1 	1 	${glob_ljsig}	${att_ljcut} 	${glob_coulcut}
pair_coeff		1 1 	1 	1	${att_ljcut} 	${glob_coulcut}
pair_coeff		1 1 	1 	1	2.5 	${glob_coulcut}
pair_coeff		1 1 	1 	1	2.5 	10
pair_coeff		1 2 	${glob_ljeps} 	${glob_ljsig}	${att_ljcut} 	${glob_coulcut}
pair_coeff		1 2 	1 	${glob_ljsig}	${att_ljcut} 	${glob_coulcut}
pair_coeff		1 2 	1 	1	${att_ljcut} 	${glob_coulcut}
pair_coeff		1 2 	1 	1	2.5 	${glob_coulcut}
pair_coeff		1 2 	1 	1	2.5 	10
pair_coeff		1 3 	${glob_ljeps} 	${glob_ljsig}	${rep_ljcut} 	${glob_coulcut}
pair_coeff		1 3 	1 	${glob_ljsig}	${rep_ljcut} 	${glob_coulcut}
pair_coeff		1 3 	1 	1	${rep_ljcut} 	${glob_coulcut}
pair_coeff		1 3 	1 	1	1.12 	${glob_coulcut}
pair_coeff		1 3 	1 	1	1.12 	10
pair_coeff		1 4 	${glob_ljeps} 	${glob_ljsig}	${rep_ljcut} 	${glob_coulcut}
pair_coeff		1 4 	1 	${glob_ljsig}	${rep_ljcut} 	${glob_coulcut}
pair_coeff		1 4 	1 	1	${rep_ljcut} 	${glob_coulcut}
pair_coeff		1 4 	1 	1	1.12 	${glob_coulcut}
pair_coeff		1 4 	1 	1	1.12 	10
pair_coeff		2 2 	${glob_ljeps} 	${glob_ljsig}	${att_ljcut} 	${glob_coulcut}
pair_coeff		2 2 	1 	${glob_ljsig}	${att_ljcut} 	${glob_coulcut}
pair_coeff		2 2 	1 	1	${att_ljcut} 	${glob_coulcut}
pair_coeff		2 2 	1 	1	2.5 	${glob_coulcut}
pair_coeff		2 2 	1 	1	2.5 	10
pair_coeff		2 3 	${glob_ljeps} 	${glob_ljsig}	${rep_ljcut} 	${glob_coulcut}
pair_coeff		2 3 	1 	${glob_ljsig}	${rep_ljcut} 	${glob_coulcut}
pair_coeff		2 3 	1 	1	${rep_ljcut} 	${glob_coulcut}
pair_coeff		2 3 	1 	1	1.12 	${glob_coulcut}
pair_coeff		2 3 	1 	1	1.12 	10
pair_coeff		2 4 	${glob_ljeps} 	${glob_ljsig}	${att_ljcut} 	${glob_coulcut}
pair_coeff		2 4 	1 	${glob_ljsig}	${att_ljcut} 	${glob_coulcut}
pair_coeff		2 4 	1 	1	${att_ljcut} 	${glob_coulcut}
pair_coeff		2 4 	1 	1	2.5 	${glob_coulcut}
pair_coeff		2 4 	1 	1	2.5 	10
pair_coeff		3 3 	${glob_ljeps} 	${glob_ljsig}	${rep_ljcut} 	${glob_coulcut}
pair_coeff		3 3 	1 	${glob_ljsig}	${rep_ljcut} 	${glob_coulcut}
pair_coeff		3 3 	1 	1	${rep_ljcut} 	${glob_coulcut}
pair_coeff		3 3 	1 	1	1.12 	${glob_coulcut}
pair_coeff		3 3 	1 	1	1.12 	10
pair_coeff		3 4 	${glob_ljeps} 	${glob_ljsig}	${att_ljcut} 	${glob_coulcut}
pair_coeff		3 4 	1 	${glob_ljsig}	${att_ljcut} 	${glob_coulcut}
pair_coeff		3 4 	1 	1	${att_ljcut} 	${glob_coulcut}
pair_coeff		3 4 	1 	1	2.5 	${glob_coulcut}
pair_coeff		3 4 	1 	1	2.5 	10
pair_coeff		4 4 	${glob_ljeps} 	${glob_ljsig}	${rep_ljcut} 	${glob_coulcut}
pair_coeff		4 4 	1 	${glob_ljsig}	${rep_ljcut} 	${glob_coulcut}
pair_coeff		4 4 	1 	1	${rep_ljcut} 	${glob_coulcut}
pair_coeff		4 4 	1 	1	1.12 	${glob_coulcut}
pair_coeff		4 4 	1 	1	1.12 	10


fix             noDriftRot 	all momentum 10 linear 1 1 1 angular
fix             nvt1 		all nvt temp ${Temp} ${Temp} 0.5
fix             nvt1 		all nvt temp 1 ${Temp} 0.5
fix             nvt1 		all nvt temp 1 1 0.5

# dump          assemble 	all custom 1000 				${outputfile_selfasb} id type xu yu zu vx vy vz
dump            lindump 	all custom ${subsample_rate} 	${outputfile_trajlin} id type xu yu zu vx vy vz
dump            lindump 	all custom 1000 	${outputfile_trajlin} id type xu yu zu vx vy vz
dump            lindump 	all custom 1000 	6_b_trajlin.data id type xu yu zu vx vy vz

run             ${runtime}
run             1000000
Generated 0 of 6 mixed pair_coeff terms from geometric mixing rule
Neighbor list info ...
  update every 1 steps, delay 10 steps, check yes
  max neighbors/atom: 2000, page size: 100000
  master list distance cutoff = 10.3
  ghost atom cutoff = 10.3
  binsize = 5.15, bins = 7 7 7
  1 neighbor lists, perpetual/occasional/extra = 1 0 0
  (1) pair lj/cut/coul/cut, perpetual
      attributes: half, newton on
      pair build: half/bin/newton
      stencil: half/bin/3d
      bin: standard
Per MPI rank memory allocation (min/avg/max) = 7.712 | 7.712 | 7.712 Mbytes
   Step          Temp         Density         Press          TotEng         PotEng         KinEng         E_pair         S/CPU     
         0   1.1904942      0.0023323615  -0.0015177831   21.99334       20.225457      1.7678839     -0.32287742     0            
      1000   1.1128863      0.0023323615  -0.0007723685   21.358827      19.706191      1.6526361     -0.72305524     33197.401    
      2000   0.97487585     0.0023323615   0.0028699825   21.389442      19.941752      1.4476906     -0.59140614     29990.632    
      3000   1.1210132      0.0023323615  -0.00030839735  21.476771      19.812066      1.6647047     -0.63495692     25332.345    
      4000   1.0961376      0.0023323615  -0.00019319446  20.98005       19.352285      1.6277644     -1.1780319      20504.833    
      5000   1.079873       0.0023323615  -0.00067403301  20.388665      18.785053      1.6036115     -1.7283541      18070.948    
      6000   1.0757561      0.0023323615   0.0032901757   20.435972      18.838474      1.5974978     -1.5963287      18321.612    
      7000   1.0388043      0.0023323615  -0.00078438601  20.352481      18.809856      1.5426244     -1.6452971      18448.615    
      8000   1.1299945      0.0023323615   0.0018333107   20.566766      18.888724      1.6780418     -1.6814373      18290.887    
      9000   0.97231445     0.0023323615  -0.0039316466   20.531267      19.08738       1.443887      -1.5930554      18280.225    
     10000   0.9408669      0.0023323615   0.0047748636   20.317164      18.919976      1.3971873     -1.6471147      18245.209    
     11000   1.042988       0.0023323615  -0.0020653008   20.471401      18.922564      1.5488371     -1.543829       18328.313    
     12000   1.0646427      0.0023323615   0.0024752463   20.64245       19.061456      1.5809944     -1.5812146      18333.902    
     13000   1.0213122      0.0023323615   0.00048233915  20.409955      18.893307      1.5166487     -1.7172962      18452.664    
     14000   0.97642407     0.0023323615   0.0022103156   20.261247      18.811257      1.4499897     -1.6509003      18269.437    
     15000   0.91154737     0.0023323615   0.0026783331   20.305346      18.951698      1.3536478     -1.5784301      18389.24     
     16000   1.0669268      0.0023323615  -0.0007789497   20.912498      19.328112      1.5843863     -1.284683       18444.941    
     17000   0.96138479     0.0023323615  -0.001770743    20.20403       18.776374      1.4276564     -1.676348       18228.645    
     18000   0.88977048     0.0023323615   0.00047957121  20.203109      18.8818        1.3213092     -1.5454121      18114.755    
     19000   0.9430801      0.0023323615  -0.0017273783   20.257643      18.857169      1.4004739     -1.6848099      18116.175    
     20000   1.1609519      0.0023323615   0.00062352969  20.322021      18.598008      1.7240135     -1.8861087      18115.941    
     21000   0.84129143     0.0023323615  -0.00024371193  20.56918       19.319862      1.2493178     -1.3982732      18164.557    
     22000   1.1147135      0.0023323615   0.00019997265  20.455311      18.799961      1.6553495     -1.6606586      18166.752    
     23000   0.94260758     0.0023323615   0.0011290115   19.977569      18.577796      1.3997723     -1.7999814      18162.895    
     24000   0.88941663     0.0023323615   0.0048617746   20.276027      18.955243      1.3207837     -1.4749224      18378.902    
     25000   0.96521715     0.0023323615  -0.0029981507   20.498842      19.065495      1.4333475     -1.4493093      10312.266    
     26000   0.948828       0.0023323615  -0.0011443368   20.389338      18.980328      1.4090096     -1.5316517      18027.588    
     27000   1.0181533      0.0023323615  -0.00085514914  20.38797       18.876012      1.5119576     -1.6127038      18183.128    
     28000   0.96111846     0.0023323615   0.00011621033  20.203         18.775739      1.4272609     -1.6612797      18066.15     
     29000   1.0018889      0.0023323615  -0.0034246817   20.237359      18.749554      1.487805      -1.6134166      18126.397    
     30000   0.98021516     0.0023323615  -0.0032306295   19.895216      18.439597      1.4556195     -1.9774345      18140.82     
     31000   0.96104534     0.0023323615  -0.00015538865  20.25639       18.829238      1.4271523     -1.6359669      18069.905    
     32000   1.1649303      0.0023323615  -0.0015713032   20.547636      18.817715      1.7299215     -1.7226888      18077.049    
     33000   1.0524022      0.0023323615  -0.0010528035   20.639809      19.076991      1.5628173     -1.4620351      18074.532    
     34000   1.0553659      0.0023323615  -0.0033274699   20.343472      18.776254      1.5672184     -1.6920287      18263.276    
     35000   1.1736925      0.0023323615  -0.0009506965   20.742539      18.999606      1.7429334     -1.7115354      18277.975    
     36000   0.91674953     0.0023323615  -0.00034818667  20.064609      18.703236      1.3613731     -1.8017065      18214.98     
     37000   0.90318234     0.0023323615  -0.0029203057   19.777381      18.436155      1.3412258     -1.9401607      18109.765    
     38000   1.0562552      0.0023323615  -0.00049933438  20.520896      18.952357      1.568539      -1.5765295      18166.362    
     39000   1.0217109      0.0023323615   0.0034804644   20.16291       18.645669      1.5172406     -1.8672814      18224.278    
     40000   0.95618542     0.0023323615  -0.0029196118   20.304657      18.884722      1.4199353     -1.6716875      18260.904    
     41000   0.98910305     0.0023323615   0.0040443048   20.247731      18.778913      1.468818      -1.5737999      18258.115    
     42000   1.0400649      0.0023323615  -0.0013427825   20.459053      18.914556      1.5444963     -1.6401557      18130.994    
     43000   0.8531951      0.0023323615   0.0017462843   20.032203      18.765209      1.2669947     -1.7272968      18068.659    
     44000   1.0206963      0.0023323615   0.00064993415  20.376143      18.860409      1.5157341     -1.6814124      18136.235    
     45000   1.0526999      0.0023323615   0.0019191013   20.231356      18.668096      1.5632594     -1.9488003      18157.922    
     46000   0.96139396     0.0023323615   0.0032714009   20.239735      18.812065      1.42767       -1.6509902      18326.52     
     47000   0.96419491     0.0023323615   0.0029923231   20.346335      18.914506      1.4318294     -1.6365034      18343.177    
     48000   1.0156958      0.0023323615  -1.9523483e-06  20.206595      18.698286      1.5083082     -1.871933       18141.694    
     49000   1.012997       0.0023323615   0.0012337947   20.303621      18.799321      1.5043005     -1.7476663      18090.345    
     50000   0.88605725     0.0023323615  -0.0026768691   20.147893      18.832098      1.315795      -1.7811374      18162.055    
     51000   1.0282188      0.0023323615  -0.00067123916  20.417321      18.890416      1.5269049     -1.6937845      18103.965    
     52000   0.9420365      0.0023323615   0.0013362617   20.432447      19.033522      1.3989242     -1.6578257      18130.671    
     53000   0.99393492     0.0023323615  -0.0063530657   20.584031      19.108037      1.4759933     -1.4336334      18205.103    
     54000   0.97158802     0.0023323615   0.0041369772   20.200936      18.758128      1.4428082     -1.6182683      18395.768    
     55000   0.93682152     0.0023323615  -0.001311606    20.387476      18.996296      1.39118       -1.5901918      18305.788    
     56000   0.90813778     0.0023323615   0.00013380595  20.203874      18.85529       1.3485846     -1.5616822      18233.317    
     57000   1.0637936      0.0023323615  -0.00030510376  20.617496      19.037762      1.5797335     -1.4452414      18224.678    
     58000   0.98754861     0.0023323615   0.00062735323  20.546941      19.080431      1.4665097     -1.350066       18202.303    
     59000   1.0422216      0.0023323615  -0.0016919578   20.272315      18.724616      1.5476991     -1.7033106      18332.578    
     60000   0.85312274     0.0023323615  -0.0025434622   20.309579      19.042692      1.2668873     -1.4938762      18187.909    
     61000   0.87108536     0.0023323615   0.0011278152   20.121022      18.82746       1.2935618     -1.7161265      18229.298    
     62000   1.0028457      0.0023323615  -0.0036089816   20.461061      18.971835      1.4892258     -1.7267412      18077.966    
     63000   1.0067566      0.0023323615  -0.0022730529   20.357904      18.862871      1.4950335     -1.610762       18143.052    
     64000   0.91131779     0.0023323615   0.0039066427   20.215743      18.862436      1.3533069     -1.6711414      18333.579    
     65000   1.0760082      0.0023323615   0.0013208385   20.437739      18.839867      1.5978722     -1.599197       18212.238    
     66000   1.0771949      0.0023323615   0.0068093337   20.372932      18.773298      1.5996345     -1.6661112      18410.561    
     67000   0.97428231     0.0023323615  -0.0011267915   20.514354      19.067545      1.4468092     -1.4291799      18298.754    
     68000   1.081945       0.0023323615   0.0050705417   20.574824      18.968136      1.6066884     -1.5487477      18415.239    
     69000   0.98185619     0.0023323615   0.0023810685   20.498049      19.039993      1.4580564     -1.5669015      18500.51     
     70000   1.0146743      0.0023323615  -0.00082043066  20.579071      19.07228       1.5067914     -1.4873953      18379.22     
     71000   1.0320563      0.0023323615   0.0033819618   20.447647      18.915044      1.5326036     -1.5686395      18311.225    
     72000   1.1022129      0.0023323615  -0.0024682623   20.389042      18.752256      1.6367861     -1.8089792      18109.795    
     73000   0.98141173     0.0023323615   0.001048789    20.007466      18.550069      1.4573964     -2.0059386      18079.957    
     74000   1.0263239      0.0023323615   0.0049975043   20.684531      19.16044       1.524091      -1.5601816      18299.261    
     75000   0.86252503     0.0023323615  -0.00061303408  19.918081      18.637232      1.2808497     -1.8939552      18221.214    
     76000   0.96533081     0.0023323615  -0.001641242    20.163488      18.729972      1.4335162     -1.7426055      18075.154    
     77000   1.0137038      0.0023323615   0.0027191375   20.384331      18.878981      1.5053502     -1.6769719      18031.483    
     78000   0.94025715     0.0023323615   0.0021883159   20.241428      18.845146      1.3962819     -1.6177751      18138.483    
     79000   1.001146       0.0023323615   0.0014939966   20.218622      18.73192       1.4867017     -1.6750339      18343.548    
     80000   1.0745593      0.0023323615   0.0048746971   20.273856      18.678136      1.5957206     -1.7548541      18281.955    
     81000   0.97581531     0.0023323615   0.00029106723  20.285928      18.836842      1.4490857     -1.5943208      18215.591    
     82000   1.0231418      0.0023323615   0.0017977024   20.250938      18.731573      1.5193656     -1.6620786      18263.718    
     83000   1.0832276      0.0023323615   0.00039745837  20.047289      18.438696      1.608593      -1.8969917      18202.29     
     84000   1.0020903      0.0023323615  -0.0011792331   19.964877      18.476773      1.4881041     -1.9900291      18301.71     
     85000   1.0918705      0.0023323615  -0.0016801716   20.242332      18.620904      1.6214277     -1.8854535      18241.978    
     86000   1.1010253      0.0023323615   0.0022363988   20.401622      18.7666        1.6350226     -1.7399716      18057.839    
     87000   0.92539396     0.0023323615  -0.0006560644   20.249773      18.875563      1.37421       -1.5264949      18273.625    
     88000   0.97923829     0.0023323615  -0.00085326201  20.153812      18.699643      1.4541689     -1.7763555      18347.024    
     89000   0.97317056     0.0023323615  -0.00065069511  20.337181      18.892023      1.4451583     -1.7054959      18294.226    
     90000   1.1224939      0.0023323615   0.00075823801  20.604042      18.937139      1.6669034     -1.6991696      18338.456    
     91000   0.95682304     0.0023323615   0.0025158901   20.12514       18.704258      1.4208822     -1.7780035      18372.481    
     92000   0.91334023     0.0023323615   0.0034464608   20.234709      18.878398      1.3563102     -1.5969586      18310.372    
     93000   0.96574252     0.0023323615   0.0011950166   20.371346      18.937218      1.4341276     -1.5783691      18210.29     
     94000   0.89101415     0.0023323615   0.0022796794   20.161699      18.838543      1.323156      -1.6869386      18127.309    
     95000   0.98541876     0.0023323615  -0.0030120595   20.06031       18.596963      1.4633469     -1.8985815      18330.515    
     96000   0.89103843     0.0023323615  -0.00045613723  20.045757      18.722565      1.3231921     -1.638477       18201.819    
     97000   1.0320379      0.0023323615   0.0019292974   20.528992      18.996415      1.5325763     -1.5130491      18173.344    
     98000   1.0200544      0.0023323615   0.00017660584  20.475124      18.960343      1.5147808     -1.5582078      18362.281    
     99000   1.1362656      0.0023323615  -0.00029958151  20.631816      18.944462      1.6873543     -1.6904558      18078.713    
    100000   1.1634051      0.0023323615   0.0018274344   20.694979      18.967323      1.7276565     -1.579831       18085.041    
    101000   1.0703915      0.0023323615  -0.00046472711  20.323574      18.734042      1.5895313     -1.7188187      18104.126    
    102000   1.1156321      0.0023323615  -0.0036403938   20.51588       18.859166      1.6567137     -1.6445298      18080.199    
    103000   0.88713197     0.0023323615   0.0026659498   20.160393      18.843002      1.317391      -1.792719       18141.776    
    104000   0.93693442     0.0023323615   0.0025570073   20.198961      18.807614      1.3913476     -1.7326101      18136.684    
    105000   0.99013722     0.0023323615   0.006315032    20.394174      18.92382       1.4703538     -1.7325935      18229.607    
    106000   1.0221329      0.0023323615  -0.0053699668   20.302113      18.784246      1.5178674     -1.7188782      18156.164    
    107000   0.97653892     0.0023323615  -0.00059474366  20.456735      19.006574      1.4501603     -1.6244909      18165.932    
    108000   0.97315924     0.0023323615   0.003339139    20.260254      18.815112      1.4451415     -1.6715096      18261.703    
    109000   1.1418243      0.0023323615  -0.0011187341   20.55619       18.86058       1.6956091     -1.6998508      18366.339    
    110000   0.88042232     0.0023323615   0.0029184352   20.183708      18.876281      1.3074271     -1.5778781      18229.481    
    111000   1.0214259      0.0023323615  -0.0049116073   20.471429      18.954611      1.5168174     -1.5677909      18269.05     
    112000   1.0479014      0.0023323615  -0.003021445    20.390439      18.834305      1.5561336     -1.6968094      18245.355    
    113000   0.89622389     0.0023323615  -0.0018967604   20.332854      19.001962      1.3308925     -1.4774268      18208.42     
    114000   1.0625649      0.0023323615   0.0019499849   20.447574      18.869665      1.5779089     -1.6881877      18311.202    
    115000   0.95911712     0.0023323615  -0.001440205    20.593224      19.168935      1.4242889     -1.3571825      18295.581    
    116000   0.98993438     0.0023323615  -0.0030403763   20.409316      18.939264      1.4700526     -1.5320557      18359.474    
    117000   1.0915947      0.0023323615   0.0019599994   20.564024      18.943006      1.6210181     -1.6790403      18139.574    
    118000   1.147059       0.0023323615  -0.0015514567   20.505354      18.801971      1.7033826     -1.6704866      18310.587    
    119000   1.0089183      0.0023323615  -0.00075972213  20.343217      18.844974      1.4982436     -1.596121       18473.179    
    120000   1.0453009      0.0023323615  -0.00035729714  20.405598      18.853326      1.5522719     -1.6726912      18237.821    
    121000   0.88348037     0.0023323615  -0.0012702316   20.085626      18.773658      1.3119683     -1.7549903      18173.169    
    122000   0.91452866     0.0023323615  -0.00070277744  20.593575      19.2355        1.3580751     -1.3726942      18208.314    
    123000   0.98057758     0.0023323615   0.0016127715   20.222961      18.766803      1.4561577     -1.7322887      18291.326    
    124000   0.97888603     0.0023323615   0.0032610754   20.046228      18.592582      1.4536458     -1.8920851      18233.13     
    125000   1.2054863      0.0023323615   0.0026901364   20.636834      18.846687      1.7901471     -1.5798637      18253.233    
    126000   1.0809807      0.0023323615  -0.00050774567  20.390068      18.784812      1.6052563     -1.7532211      18322.395    
    127000   0.91684696     0.0023323615  -0.0011643341   20.163586      18.802068      1.3615177     -1.6974324      18239.888    
    128000   0.96336125     0.0023323615  -0.0011150491   20.278212      18.847621      1.4305915     -1.6984119      18189.294    
    129000   1.0656513      0.0023323615   0.00074698559  20.178065      18.595573      1.5824922     -1.9000915      18199.343    
    130000   0.95351535     0.0023323615   0.001337374    20.425268      19.009298      1.4159703     -1.5882047      18232.128    
    131000   1.2043005      0.0023323615   0.0012607035   20.771669      18.983283      1.7883862     -1.4013689      18240.238    
    132000   0.89345434     0.0023323615  -0.00080367785  20.516427      19.189648      1.3267797     -1.3980764      18387.858    
    133000   1.0166673      0.0023323615  -0.00017883358  20.532933      19.023182      1.5097509     -1.5851648      18219.521    
    134000   0.90703119     0.0023323615  -0.0038432434   20.14981       18.802869      1.3469413     -1.7315584      18188.999    
    135000   1.0848073      0.0023323615  -0.004053548    20.26354       18.652602      1.6109388     -1.8525232      18222.562    
    136000   0.90355171     0.0023323615   0.0028177076   20.22552       18.883746      1.3417743     -1.7640769      18285.435    
    137000   1.0233824      0.0023323615   0.00056337809  20.550403      19.03068       1.5197228     -1.5240456      18210.287    
    138000   0.90416349     0.0023323615   0.00018926723  20.188515      18.845832      1.3426828     -1.6083158      18325.17     
    139000   1.136687       0.0023323615   0.00094054365  20.572643      18.884663      1.6879802     -1.6241903      18270.203    
    140000   0.87816039     0.0023323615  -2.044089e-05   20.35388       19.049812      1.3040682     -1.5740815      18149.047    
    141000   0.92657038     0.0023323615   6.4290544e-05  20.09146       18.715503      1.375957      -1.7577127      18298.841    
    142000   0.93746791     0.0023323615  -0.00052084605  20.22542       18.83328       1.3921398     -1.6131616      18286.903    
    143000   0.99998202     0.0023323615  -0.0012473096   20.375648      18.890675      1.4849733     -1.6409805      18315.355    
    144000   1.0422665      0.0023323615  -0.00021195147  20.293205      18.745439      1.5477658     -1.7419658      18360.186    
    145000   0.96841856     0.0023323615   0.0021332962   20.58764       19.149538      1.4381016     -1.438381       18378.209    
    146000   0.99634138     0.0023323615   0.0012383958   20.4476        18.968033      1.479567      -1.5152948      18422.91     
    147000   1.0607684      0.0023323615  -0.00083617686  20.578274      19.003033      1.5752411     -1.5173788      18211.699    
    148000   1.0084038      0.0023323615   0.00048957696  20.554694      19.057214      1.4974796     -1.3926852      18260.948    
    149000   1.0218448      0.0023323615  -0.0024297226   20.073647      18.556207      1.5174396     -1.8958069      18338.284    
    150000   0.92338331     0.0023323615   0.0047171782   20.090966      18.719742      1.3712242     -1.7971586      18172.527    
    151000   1.0895117      0.0023323615   0.0013109136   20.253734      18.635809      1.6179249     -1.812364       18224.511    
    152000   0.86316936     0.0023323615   0.00040219863  20.134931      18.853124      1.2818065     -1.7226718      18058.031    
    153000   1.0580079      0.0023323615  -0.0052630167   20.301349      18.730208      1.5711418     -1.745063       18244.512    
    154000   1.1592159      0.0023323615  -0.0027993341   20.432005      18.71057       1.7214356     -1.8021293      18299.596    
    155000   1.1373888      0.0023323615   0.0020898047   20.409869      18.720846      1.6890224     -1.7143919      18201.935    
    156000   1.087071       0.0023323615  -0.0039680827   20.172621      18.55832       1.6143004     -1.8278565      18085.765    
    157000   0.78847004     0.0023323615  -0.0010586467   20.052824      18.881946      1.170878      -1.702306       18128.689    
    158000   1.0690454      0.0023323615  -0.00027977949  20.606971      19.019439      1.5875325     -1.512983       18135.751    
    159000   0.99486925     0.0023323615   0.0023215979   20.494879      19.017498      1.4773808     -1.6500599      18129.897    
    160000   0.97490623     0.0023323615  -0.0027964706   20.637353      19.189617      1.4477358     -1.4020875      18274.408    
    161000   1.0491233      0.0023323615   0.001058579    20.373836      18.815888      1.5579481     -1.5838318      18170.734    
    162000   0.91473703     0.0023323615  -0.001657164    20.297016      18.938631      1.3583845     -1.6388366      18158.278    
    163000   0.94372435     0.0023323615   0.002254492    20.104135      18.702705      1.4014307     -1.9003996      18140.105    
    164000   0.88105482     0.0023323615   0.00073385819  20.079054      18.770687      1.3083664     -1.8386262      18023.46     
    165000   1.0476759      0.0023323615   0.0017036912   20.28187       18.726071      1.5557988     -1.8035173      17960.921    
    166000   0.986789       0.0023323615  -0.0017938047   20.406758      18.941377      1.4653817     -1.6343818      18158.754    
    167000   1.0479731      0.0023323615   0.0013845493   20.734118      19.177878      1.5562401     -1.5146998      18058.528    
    168000   0.91495657     0.0023323615   0.0029221282   20.406818      19.048107      1.3587105     -1.5401207      18328.35     
    169000   0.8250832      0.0023323615   0.0017932121   20.117374      18.892126      1.2252485     -1.6106694      18292.328    
    170000   1.0046205      0.0023323615  -0.000530679    20.20937       18.717508      1.4918615     -1.7088351      18281.715    
    171000   0.98800953     0.0023323615   0.0023860095   20.40751       18.940316      1.4671941     -1.5892275      18146.189    
    172000   1.0603138      0.0023323615  -0.0012435608   20.453281      18.878715      1.574566      -1.6996885      18151.245    
    173000   1.0207101      0.0023323615  -9.6596638e-05  20.394663      18.878909      1.5157545     -1.7145503      18165.215    
    174000   0.98369426     0.0023323615   0.0004359843   20.472127      19.011341      1.460786      -1.5558569      18278.926    
    175000   0.87044134     0.0023323615  -0.00242801     19.888743      18.596137      1.2926054     -1.8095869      18291.98     
    176000   1.1050443      0.0023323615  -0.0035221308   20.273372      18.632381      1.6409908     -1.8395326      18177.899    
    177000   0.93237137     0.0023323615  -0.00034588765  20.14831       18.763739      1.3845715     -1.7293196      18011.846    
    178000   1.0703479      0.0023323615  -0.0067073981   20.567244      18.977778      1.5894667     -1.6290451      18178.461    
    179000   1.0871838      0.0023323615   0.0023706987   20.457592      18.843125      1.6144679     -1.6489645      18144.349    
    180000   1.1097097      0.0023323615  -0.0017468416   20.26556       18.617641      1.6479189     -1.99706        18073.841    
    181000   1.0955542      0.0023323615   0.0021096621   20.520982      18.894084      1.626898      -1.6526579      18155.54     
    182000   1.0956914      0.0023323615   0.0043941388   20.501349      18.874247      1.6271018     -1.7064412      18239.901    
    183000   0.97764217     0.0023323615  -0.0010776843   20.261794      18.809996      1.4517986     -1.6790243      18290.19     
    184000   1.1383562      0.0023323615   0.00065323472  20.406728      18.716269      1.690459      -1.724507       18172.511    
    185000   1.0137497      0.0023323615  -0.0041908973   20.139976      18.634558      1.5054183     -1.9384121      18072.176    
    186000   0.92074198     0.0023323615  -0.0022909501   20.156807      18.789505      1.3673018     -1.7984212      18109.887    
    187000   0.99819346     0.0023323615  -0.0035225101   20.409378      18.927061      1.4823173     -1.7214601      18127.375    
    188000   1.0498433      0.0023323615  -0.0018704374   20.297989      18.738972      1.5590173     -1.8971718      18090.807    
    189000   0.99881056     0.0023323615  -0.0010472007   20.000519      18.517285      1.4832337     -1.8914999      18057.113    
    190000   1.0153882      0.0023323615   0.00033699253  19.868182      18.360331      1.5078515     -2.0595493      18011.804    
    191000   0.95768449     0.0023323615   0.0044677543   20.204252      18.782091      1.4221615     -1.7076156      18039.728    
    192000   0.88596509     0.0023323615  -0.0058515962   20.245416      18.929758      1.3156582     -1.6049971      17974.661    
    193000   0.91244883     0.0023323615   0.00028039778  20.400168      19.045182      1.3549865     -1.5223539      18201.298    
    194000   1.0402712      0.0023323615   0.00086207724  20.582583      19.037781      1.5448028     -1.4977437      18228.988    
    195000   1.0399468      0.0023323615  -0.0001076992   20.158666      18.614345      1.544321      -1.9777614      18139.056    
    196000   0.90636109     0.0023323615   0.0012163418   20.417838      19.071892      1.3459462     -1.431037       18033.024    
    197000   1.0045437      0.0023323615   0.0035860561   20.695591      19.203843      1.4917474     -1.4067622      18185.205    
    198000   0.95556758     0.0023323615  -0.0048734531   19.859591      18.440573      1.4190179     -2.0062507      18064.045    
    199000   1.0279442      0.0023323615  -0.001622796    20.258111      18.731614      1.5264971     -1.8747335      18090.656    
    200000   1.0242965      0.0023323615  -0.00051197643  20.368787      18.847706      1.5210803     -1.7203935      18073.337    
    201000   0.95378943     0.0023323615  -0.0024086873   20.237893      18.821516      1.4163773     -1.6767432      18065.415    
    202000   1.0322024      0.0023323615   0.001363856    20.41849       18.885669      1.5328205     -1.7461986      18262.1      
    203000   1.0012179      0.0023323615  -0.00096245452  20.323126      18.836317      1.4868086     -1.6472251      18623.275    
    204000   1.1480047      0.0023323615   0.00073225319  20.60243       18.897643      1.7047869     -1.6110356      18379.068    
    205000   0.95909253     0.0023323615  -0.00052099044  20.434676      19.010423      1.4242524     -1.5972979      18365.095    
    206000   0.82157875     0.0023323615  -0.0047239575   20.111613      18.891569      1.2200444     -1.6720344      18255.921    
    207000   0.99522792     0.0023323615  -0.0014469066   20.291196      18.813282      1.4779135     -1.7413232      18313.49     
    208000   1.1476323      0.0023323615   0.00064879746  20.570596      18.866362      1.704234      -1.6158961      18382.158    
    209000   1.0740565      0.0023323615   0.0010238314   20.358151      18.763177      1.5949739     -1.6336453      18412.249    
    210000   1.0253998      0.0023323615   0.0029371201   20.325748      18.803029      1.5227187     -1.7249015      18398.48     
    211000   1.1163061      0.0023323615   0.0041983333   20.576678      18.918963      1.6577145     -1.6086038      11217.047    
    212000   0.92172396     0.0023323615   0.002064165    20.511076      19.142316      1.3687601     -1.5081534      18166.987    
    213000   0.9014009      0.0023323615  -0.00030169044  20.360826      19.022245      1.3385803     -1.4204697      18348.573    
    214000   1.0230375      0.0023323615  -0.0037752054   20.588963      19.069753      1.5192106     -1.5827031      18343.643    
    215000   0.95304103     0.0023323615   0.00082514301  20.292293      18.877027      1.4152659     -1.6776258      18286.46     
    216000   1.0432701      0.0023323615   0.00046885105  20.283325      18.734069      1.5492561     -1.7126646      18335.118    
    217000   0.99438209     0.0023323615   0.00084973236  20.222417      18.74576       1.4766574     -1.5919584      18327.189    
    218000   1.0043314      0.0023323615  -0.00028645406  20.510542      19.01911       1.4914321     -1.5283086      18196.954    
    219000   0.90457841     0.0023323615   0.002010243    20.0614        18.718101      1.3432989     -1.7588139      18239.648    
    220000   0.90088538     0.0023323615   0.0019387507   19.965136      18.627321      1.3378148     -1.8279464      18214.933    
    221000   1.0154382      0.0023323615   0.0010843945   20.3142        18.806274      1.5079257     -1.7958187      18167.232    
    222000   0.95955141     0.0023323615  -0.001052373    20.399242      18.974308      1.4249338     -1.5857095      18294.317    
    223000   0.88735926     0.0023323615   0.0024759734   20.150748      18.83302       1.3177285     -1.6011516      18307.944    
    224000   0.80272336     0.0023323615  -0.0019826742   20.128591      18.936547      1.1920442     -1.5429163      18185.533    
    225000   1.089879       0.0023323615  -0.0001718286   20.47573       18.857259      1.6184703     -1.6539978      18139.017    
    226000   0.89326159     0.0023323615  -0.0012400777   20.103248      18.776755      1.3264935     -1.6316097      18135.085    
    227000   0.95141954     0.0023323615  -0.00053913504  19.982621      18.569763      1.412858      -1.8457283      18145.721    
    228000   1.1239224      0.0023323615   0.0035309283   20.751537      19.082512      1.6690247     -1.4222843      18227.903    
    229000   0.9410063      0.0023323615   0.0031638297   20.297931      18.900537      1.3973944     -1.713184       18340.95     
    230000   0.82853583     0.0023323615   0.0048930629   20.042117      18.811741      1.2303757     -1.6637044      18284.122    
    231000   1.0274649      0.0023323615   0.00069320738  20.417162      18.891377      1.5257854     -1.6734632      18084.327    
    232000   0.96546856     0.0023323615  -0.0019775709   20.103092      18.669372      1.4337208     -1.752251       17994.688    
    233000   1.0714338      0.0023323615   0.0010823693   20.44985       18.858771      1.5910792     -1.6171178      18011.648    
    234000   1.0365224      0.0023323615   0.00045938172  20.39644       18.857204      1.5392358     -1.5138553      18095.874    
    235000   1.0674784      0.0023323615  -0.0035851993   20.303134      18.717928      1.5852054     -1.7608301      18071.586    
    236000   0.94268223     0.0023323615   0.0025852972   20.291472      18.891589      1.3998831     -1.6322283      18160.65     
    237000   0.97164329     0.0023323615   0.001431768    20.340163      18.897273      1.4428903     -1.6111281      18126.466    
    238000   1.0888482      0.0023323615  -0.0034356186   20.504348      18.887408      1.6169396     -1.7452368      18137.804    
    239000   0.98491796     0.0023323615   0.0026543874   20.258361      18.795758      1.4626032     -1.7834097      18110.64     
    240000   0.99766966     0.0023323615  -0.0041200699   20.171622      18.690082      1.4815394     -1.8486977      18115.699    
    241000   1.0324773      0.0023323615  -0.00039436252  20.235216      18.701987      1.5332287     -1.8436718      18302.442    
    242000   0.92654561     0.0023323615   5.454852e-05   20.277179      18.901258      1.3759202     -1.5810599      18142.68     
    243000   0.91643053     0.0023323615  -4.878461e-05   20.323307      18.962408      1.3608993     -1.5460821      18045.191    
    244000   0.95642014     0.0023323615   0.0001380417   20.397527      18.977243      1.4202839     -1.627583       18146.041    
    245000   0.85884029     0.0023323615  -0.0039744754   20.017344      18.741966      1.2753778     -1.6527216      18179.2      
    246000   0.98956423     0.0023323615   0.0022315105   20.18385       18.714347      1.4695029     -1.8013301      18002.74     
    247000   1.0528116      0.0023323615  -0.001880642    20.35145       18.788025      1.5634253     -1.8794455      17987.79     
    248000   1.013651       0.0023323615   0.0005959413   20.26352       18.758248      1.5052718     -1.6961015      18016.232    
    249000   0.80793865     0.0023323615  -0.002717181    19.712524      18.512735      1.1997889     -1.89356        18092.801    
    250000   0.93695032     0.0023323615  -0.0037597779   20.265932      18.87456       1.3913712     -1.6578009      18248.485    
    251000   0.95853693     0.0023323615   0.00060654007  20.184775      18.761348      1.4234273     -1.7582         18194.271    
    252000   1.0726273      0.0023323615   0.0032050092   20.599611      19.006759      1.5928516     -1.5646116      18124.129    
    253000   0.91463363     0.0023323615   0.0019212062   20.273028      18.914797      1.3582309     -1.6758271      18240.848    
    254000   0.92139351     0.0023323615  -0.0013773683   20.195501      18.827231      1.3682694     -1.6865382      18144.309    
    255000   1.1234262      0.0023323615   0.0037506522   20.899438      19.23115       1.6682879     -1.3870207      18154.447    
    256000   1.1668111      0.0023323615   0.0015135111   20.401669      18.668955      1.7327144     -1.7087856      18211.47     
    257000   0.9032085      0.0023323615   0.0012265178   20.490929      19.149664      1.3412646     -1.4772534      18315.899    
    258000   0.8900388      0.0023323615   0.0030855186   20.419395      19.097687      1.3217076     -1.4471052      18383.455    
    259000   1.0872431      0.0023323615   0.0022693266   20.409769      18.795212      1.6145561     -1.6867408      18290.733    
    260000   1.1037214      0.0023323615   0.00084577829  20.520936      18.88191       1.6390263     -1.728077       18252.132    
    261000   1.0170651      0.0023323615   0.00051485271  20.455812      18.94547       1.5103416     -1.5469873      18266.609    
    262000   0.99287905     0.0023323615  -0.0043799627   20.524674      19.050249      1.4744254     -1.3728859      18421.594    
    263000   0.97482437     0.0023323615  -0.00092533343  20.490358      19.042744      1.4476142     -1.4711944      18431.034    
    264000   0.97733474     0.0023323615  -0.001590428    20.398089      18.946747      1.4513421     -1.5182109      18302.167    
    265000   0.91921207     0.0023323615  -0.0012509935   20.159283      18.794253      1.3650299     -1.7184575      18241.218    
    266000   1.0447987      0.0023323615   0.0012995388   20.553829      19.002303      1.5515261     -1.6745311      18220.14     
    267000   1.0480537      0.0023323615   0.00155068     20.418136      18.861776      1.5563598     -1.7431541      18008.564    
    268000   1.1007342      0.0023323615   0.0004878243   20.475951      18.841361      1.6345902     -1.5213317      18154.579    
    269000   1.127065       0.0023323615  -0.0054682627   20.706749      19.033058      1.6736915     -1.5263213      18205.929    
    270000   1.0653523      0.0023323615   0.0017828188   20.355897      18.773849      1.5820482     -1.652472       18112.313    
    271000   1.1310255      0.0023323615  -0.0045574115   20.374197      18.694624      1.6795729     -1.8430414      18001.86     
    272000   0.99743772     0.0023323615  -0.00028359294  20.242279      18.761084      1.481195      -1.7608973      18090.174    
    273000   1.0726569      0.0023323615  -0.00099344522  20.400464      18.807568      1.5928956     -1.6166962      18099.766    
    274000   1.03224        0.0023323615   0.00040203181  20.562594      19.029718      1.5328763     -1.4955687      18337.192    
    275000   1.0594347      0.0023323615  -0.0021909685   20.399823      18.826562      1.5732606     -1.6597617      18241.721    
    276000   0.81197887     0.0023323615  -0.0039353203   19.988645      18.782856      1.2057886     -1.8539684      18146.691    
    277000   1.0491243      0.0023323615  -0.0027853549   20.637391      19.079441      1.5579496     -1.4777134      18233.227    
    278000   1.0090674      0.0023323615  -0.0031046563   20.232614      18.734149      1.4984651     -1.6998318      18204.345    
    279000   1.050694       0.0023323615   0.00035774825  20.317282      18.757002      1.5602805     -1.7065626      17998.906    
    280000   0.8482385      0.0023323615   0.0013329024   20.14632       18.886686      1.2596342     -1.6376284      18094.926    
    281000   1.0695857      0.0023323615  -0.00052614574  20.733703      19.145369      1.5883348     -1.420773       18202.928    
    282000   0.98229511     0.0023323615  -0.0037500022   20.447887      18.989178      1.4587082     -1.4969564      18179.842    
    283000   1.0312598      0.0023323615  -0.000897899    20.438286      18.906865      1.5314209     -1.5664648      18206.47     
    284000   0.99371808     0.0023323615   0.00090631799  20.37572       18.900048      1.4756713     -1.4857579      18255.119    
    285000   0.99921688     0.0023323615   0.0011135382   20.312902      18.829065      1.4838371     -1.6115122      18093.48     
    286000   1.0360463      0.0023323615  -0.0031401644   20.307793      18.769264      1.5385288     -1.6753519      18117.504    
    287000   1.0514132      0.0023323615  -0.00028555255  20.51173       18.950381      1.5613486     -1.5115572      18169.067    
    288000   0.82419896     0.0023323615  -0.0013450943   20.124532      18.900596      1.2239355     -1.6168794      18127.711    
    289000   0.95177042     0.0023323615  -0.0023816987   20.298674      18.885295      1.4133791     -1.682529       18249.969    
    290000   1.0797225      0.0023323615  -0.0014084193   20.723756      19.120368      1.6033879     -1.3553815      18492.541    
    291000   0.95488283     0.0023323615   0.0019915438   20.344931      18.92693       1.418001      -1.5461685      18535.794    
    292000   0.88785482     0.0023323615  -0.0045762272   20.217782      18.899318      1.3184644     -1.5861205      18497.595    
    293000   1.0660487      0.0023323615  -0.00084744901  20.419057      18.835975      1.5830823     -1.7142891      18582.221    
    294000   1.1208519      0.0023323615  -0.0016524563   20.824691      19.160226      1.664465      -1.3055471      18428.686    
    295000   1.0988541      0.0023323615   0.00080567196  20.703649      19.07185       1.6317983     -1.3343756      18348.711    
    296000   0.9852345      0.0023323615  -0.00060674405  20.156782      18.693709      1.4630732     -1.8119505      18216.831    
    297000   1.0188293      0.0023323615   0.0034109995   20.344472      18.83151       1.5129615     -1.7128232      18319.106    
    298000   1.0587909      0.0023323615  -0.0027876124   20.762028      19.189724      1.5723044     -1.284381       18383.316    
    299000   1.0073205      0.0023323615   0.0027184531   20.29492       18.799049      1.4958709     -1.7036641      18376.967    
    300000   0.97641998     0.0023323615  -0.0040510153   20.307556      18.857572      1.4499837     -1.6887959      18123.859    
    301000   0.97026692     0.0023323615  -0.0019002132   20.064269      18.623422      1.4408464     -1.7906441      18233.514    
    302000   1.01835        0.0023323615   0.0046862952   20.482527      18.970277      1.5122498     -1.5047364      18234.313    
    303000   0.86573557     0.0023323615  -0.0011731999   20.581756      19.296139      1.2856173     -1.1845712      18372.19     
    304000   0.97677045     0.0023323615  -0.0049714137   20.51656       19.066056      1.4505041     -1.4670279      18263.327    
    305000   1.0223632      0.0023323615   0.0023652908   20.151028      18.632819      1.5182093     -1.8780994      18360.859    
    306000   0.99853018     0.0023323615  -1.4761297e-05  20.382974      18.900157      1.4828173     -1.6266639      18386.848    
    307000   1.0811494      0.0023323615   0.00061953122  20.362168      18.756661      1.6055068     -1.6658388      18357.84     
    308000   0.90388461     0.0023323615  -0.00080385665  20.198208      18.855939      1.3422686     -1.7467173      18319.325    
    309000   1.1282226      0.0023323615  -0.00081954506  20.542865      18.867454      1.6754106     -1.5431258      18359.2      
    310000   0.88598313     0.0023323615   0.00058841059  20.209938      18.894253      1.315685      -1.6410269      18333.225    
    311000   0.97609428     0.0023323615   0.00091163885  20.223734      18.774234      1.4495        -1.8160576      18486.393    
    312000   0.87941201     0.0023323615   0.0011973068   19.901087      18.59516       1.3059268     -1.8478601      18436.733    
    313000   0.91204544     0.0023323615  -0.0007280207   20.239168      18.88478       1.3543875     -1.7426156      18379.163    
    314000   1.0014436      0.0023323615  -0.0039200357   20.466762      18.979618      1.4871437     -1.5967618      18332.386    
    315000   1.1342651      0.0023323615   0.0024127712   20.666002      18.981618      1.6843836     -1.6189441      18278.748    
    316000   1.1113197      0.0023323615  -0.0031028362   20.568433      18.918123      1.6503098     -1.5641195      18225.293    
    317000   0.96735551     0.0023323615   0.0016246189   20.350198      18.913675      1.4365229     -1.6068302      18208.377    
    318000   1.0313411      0.0023323615   0.0027787245   20.494414      18.962873      1.5315416     -1.485489       18192.835    
    319000   0.9222592      0.0023323615   0.0016701946   20.134556      18.765001      1.3695549     -1.8281009      18289.121    
    320000   0.80993682     0.0023323615  -0.0019947645   20.197436      18.99468       1.2027562     -1.5321686      18270.507    
    321000   1.0161256      0.0023323615  -0.0019312939   20.198275      18.689328      1.5089465     -1.8341501      18252.609    
    322000   0.89871633     0.0023323615   0.0024629187   20.248346      18.913752      1.3345938     -1.6056538      18357.772    
    323000   1.0658848      0.0023323615   1.2267305e-05  20.475443      18.892604      1.582839      -1.6424415      18368.404    
    324000   0.99147035     0.0023323615   0.0011068209   20.163748      18.691415      1.4723335     -1.769122       18353.998    
    325000   1.083198       0.0023323615   0.001375012    20.179816      18.571267      1.6085491     -1.8166116      18311.165    
    326000   1.057524       0.0023323615  -0.0014831711   20.485163      18.91474       1.5704231     -1.6099742      18299.801    
    327000   1.1323698      0.0023323615  -0.0011154776   20.599156      18.917587      1.6815692     -1.5623207      18308.062    
    328000   1.1676632      0.0023323615   0.0052118768   20.67835       18.94437       1.7339798     -1.6154631      18321.702    
    329000   0.99933754     0.0023323615   0.00046514797  20.274374      18.790358      1.4840163     -1.654353       18237.315    
    330000   0.98652848     0.0023323615  -8.3972872e-05  20.379807      18.914812      1.4649948     -1.5366411      18334.531    
    331000   1.0010411      0.0023323615  -0.0017124537   20.358356      18.87181       1.4865461     -1.4934641      18161.434    
    332000   0.97085172     0.0023323615   0.0042652677   20.395618      18.953903      1.4417148     -1.553464       18198.743    
    333000   0.95380956     0.0023323615   9.2602358e-05  20.325471      18.909064      1.4164072     -1.6317432      18149.66     
    334000   0.94995078     0.0023323615   0.0021776328   20.314645      18.903968      1.4106769     -1.6720164      18164.207    
    335000   1.0368578      0.0023323615   0.0031046821   20.630129      19.090395      1.5397339     -1.5823129      18178.286    
    336000   0.98880256     0.0023323615  -0.0013167579   20.598062      19.12969       1.4683718     -1.3736159      18049.149    
    337000   0.93857734     0.0023323615  -0.0022247272   20.530064      19.136277      1.3937873     -1.4522481      18052.76     
    338000   1.0231793      0.0023323615  -6.550746e-05   20.640813      19.121392      1.5194212     -1.1927599      18447.276    
    339000   1.0349828      0.0023323615  -0.0014963044   20.396161      18.859212      1.5369495     -1.6242044      18333.878    
    340000   0.95646753     0.0023323615   0.00062561555  20.545464      19.12511       1.4203543     -1.4156303      18118.648    
    341000   0.9862859      0.0023323615   0.002015695    20.356832      18.892197      1.4646346     -1.6817632      18233.886    
    342000   1.0529355      0.0023323615   0.0055261147   20.518478      18.954868      1.5636093     -1.6327401      18288.709    
    343000   1.009592       0.0023323615   0.0017039076   20.445465      18.94622       1.4992441     -1.6728626      18260.233    
    344000   0.99742946     0.0023323615  -0.00073478313  20.078595      18.597412      1.4811828     -1.8642991      18247.467    
    345000   0.76881145     0.0023323615  -0.0053819255   20.203903      19.062218      1.141685      -1.5713495      18266.351    
    346000   1.1158763      0.0023323615  -0.00050075566  20.69982       19.042744      1.6570763     -1.5608957      18243.335    
    347000   1.0684887      0.0023323615  -0.00068463065  20.268186      18.68148       1.5867057     -1.773491       18214.893    
    348000   1.0465372      0.0023323615   0.0080672022   20.496955      18.942847      1.5541078     -1.5709892      18234.733    
    349000   1.1249159      0.0023323615   0.003379503    20.524766      18.854266      1.6705001     -1.7251087      18256.105    
    350000   1.0465592      0.0023323615  -0.0056632171   20.317171      18.76303       1.5541404     -1.7370883      18163.985    
    351000   0.94820656     0.0023323615  -0.0034934974   20.127452      18.719365      1.4080867     -1.7781737      18243.535    
    352000   1.0561784      0.0023323615   0.0032201466   20.344479      18.776054      1.568425      -1.6776047      18150.175    
    353000   1.0628172      0.0023323615  -0.003198211    20.415593      18.837309      1.5782835     -1.7236635      18268.608    
    354000   1.0169722      0.0023323615   0.0037354917   20.327317      18.817113      1.5102036     -1.6753005      18214.727    
    355000   0.86796878     0.0023323615  -0.00015591711  20.298279      19.009345      1.2889336     -1.5114075      18138.766    
    356000   0.98797867     0.0023323615   0.0052814604   20.309688      18.84254       1.4671483     -1.7238455      18229.038    
    357000   1.0631489      0.0023323615   0.00016610261  20.421234      18.842458      1.5787762     -1.611355       18152.776    
    358000   0.89650867     0.0023323615   0.0042949379   20.039053      18.707738      1.3313154     -1.7947553      18241.321    
    359000   1.0120591      0.0023323615   0.0013145085   20.360742      18.857834      1.5029077     -1.6256545      18213.989    
    360000   0.95550581     0.0023323615   0.00064502499  20.406716      18.98779       1.4189261     -1.5086109      18278.849    
    361000   1.0976046      0.0023323615   0.0014532107   20.535066      18.905123      1.6299428     -1.6800811      18168.168    
    362000   1.1607093      0.0023323615   0.0024548947   20.828301      19.104648      1.7236533     -1.4985287      18372.271    
    363000   1.0279713      0.0023323615  -0.0013152832   20.476846      18.950308      1.5265374     -1.6505694      18196.782    
    364000   1.0469199      0.0023323615   0.0016935317   20.272322      18.717646      1.554676      -1.6820634      18182.495    
    365000   0.98437056     0.0023323615  -0.0013766234   20.361173      18.899383      1.4617903     -1.6473146      18237.171    
    366000   0.99353313     0.0023323615  -0.00025875241  20.21313       18.737733      1.4753967     -1.7447407      18191.608    
    367000   0.94107982     0.0023323615  -0.0057167888   20.236823      18.839319      1.3975035     -1.6997406      18021.316    
    368000   0.96946623     0.0023323615  -0.00023921227  20.51261       19.072952      1.4396573     -1.3701144      18074.398    
    369000   1.1503851      0.0023323615   0.0027518957   20.400631      18.692309      1.7083219     -1.8290429      18095.769    
    370000   1.0805214      0.0023323615   0.0020364826   20.032886      18.428311      1.6045742     -2.0898256      18169.768    
    371000   1.0199783      0.0023323615  -0.0024549853   20.264524      18.749856      1.5146678     -1.7480678      18194.645    
    372000   0.99974146     0.0023323615  -0.0036913868   20.358773      18.874156      1.4846161     -1.6021861      18182.349    
    373000   0.94874358     0.0023323615   0.0018735757   20.258468      18.849584      1.4088842     -1.6239951      18170.427    
    374000   1.0200465      0.0023323615  -0.0033158912   20.371407      18.856638      1.5147691     -1.5925358      18050.341    
    375000   0.95052465     0.0023323615  -0.0014750065   20.145055      18.733525      1.4115291     -1.6504951      18158.866    
    376000   1.0934856      0.0023323615   0.0011261793   20.597263      18.973436      1.6238261     -1.7001461      18194.387    
    377000   0.89558053     0.0023323615   0.0055470359   20.123351      18.793414      1.3299371     -1.719749       18208.845    
    378000   1.0628064      0.0023323615  -0.001812217    20.395596      18.817329      1.5782675     -1.7241999      18222.152    
    379000   1.0144079      0.0023323615  -0.0048182992   20.34886       18.842465      1.5063957     -1.8488097      18082.315    
    380000   0.91896771     0.0023323615  -0.0009676713   20.204656      18.839989      1.3646671     -1.6904367      18118.621    
    381000   1.0383947      0.0023323615  -0.0042120802   20.365299      18.823282      1.5420162     -1.6492132      18176.598    
    382000   0.89410401     0.0023323615   0.0023652331   20.241819      18.914074      1.3277444     -1.6326223      18282.073    
    383000   1.0561441      0.0023323615   0.00077130358  20.503626      18.935252      1.568374      -1.5619963      18168.346    
    384000   1.0539174      0.0023323615  -0.00031399537  20.365484      18.800416      1.5650674     -1.7295054      18369.611    
    385000   1.0777064      0.0023323615  -0.0014552671   20.657898      19.057504      1.600394      -1.4858196      18521.063    
    386000   1.0697549      0.0023323615  -0.0023363937   20.741179      19.152593      1.588586      -1.4174948      18450.723    
    387000   1.0236519      0.0023323615   0.0033326261   20.456501      18.936378      1.5201231     -1.583281       18504.32     
    388000   0.91780259     0.0023323615   0.00049401511  20.369139      19.006202      1.3629369     -1.5463311      18389.003    
    389000   0.93430958     0.0023323615  -0.0024128908   20.640628      19.253178      1.3874497     -1.3656416      18414.61     
    390000   0.95705263     0.0023323615   0.00042581364  20.406163      18.98494       1.4212232     -1.6545551      18380.808    
    391000   0.99559341     0.0023323615  -0.0038058247   20.450391      18.971935      1.4784562     -1.493469       18337.354    
    392000   1.115332       0.0023323615  -0.007228919    20.539012      18.882744      1.656268      -1.6209875      18318.03     
    393000   1.0321349      0.0023323615   0.0014581515   20.65763       19.124909      1.5327203     -1.5652517      18195.203    
    394000   0.91975218     0.0023323615  -0.0025569816   20.322443      18.956611      1.365832      -1.5346658      18192.888    
    395000   0.97553955     0.0023323615  -0.0012990452   20.359341      18.910665      1.4486762     -1.6272196      18206.969    
    396000   0.79010548     0.0023323615  -0.00065327886  20.104411      18.931104      1.1733066     -1.5119859      18161.44     
    397000   1.0493475      0.0023323615   0.0011087209   20.461329      18.903048      1.558281      -1.600863       18244.542    
    398000   0.92121951     0.0023323615  -0.0017131523   20.213634      18.845623      1.368011      -1.5960507      18252.352    
    399000   0.98873093     0.0023323615   8.8551346e-05  20.326219      18.857953      1.4682654     -1.6253315      18195.816    
    400000   1.1843758      0.0023323615   0.0039004864   20.646514      18.887716      1.7587981     -1.578473       18189.38     
    401000   0.96088777     0.0023323615  -0.003222079    20.304465      18.877547      1.4269183     -1.6168773      18339.022    
    402000   0.98085317     0.0023323615  -0.0007316368   20.316744      18.860177      1.456567      -1.6598249      18158.681    
    403000   1.0558261      0.0023323615   0.0032221318   20.293538      18.725636      1.5679017     -1.8592024      18133.428    
    404000   1.0306591      0.0023323615   0.0025842771   20.358192      18.827663      1.5305288     -1.6586852      18173.507    
    405000   0.90447172     0.0023323615  -0.0011125443   19.979486      18.636346      1.3431405     -1.7796909      18203.346    
    406000   0.90150622     0.0023323615  -0.00063750767  19.88196       18.543223      1.3387367     -1.9472921      18103.134    
    407000   1.1016948      0.0023323615   0.0029628096   20.275973      18.639956      1.6360168     -1.9471123      18066.226    
    408000   1.0113854      0.0023323615   0.00046070787  20.386499      18.884591      1.5019073     -1.7166704      18103.817    
    409000   1.010936       0.0023323615   0.0034676773   20.214096      18.712856      1.50124       -1.8440651      18128.57     
    410000   0.9534929      0.0023323615   0.0022581207   19.991626      18.575689      1.415937      -1.8177869      18088.702    
    411000   1.0311854      0.0023323615   0.0011826681   20.323859      18.792548      1.5313103     -1.6298216      18132.397    
    412000   0.93000254     0.0023323615  -0.0032072876   20.334078      18.953025      1.3810538     -1.5284083      18285.814    
    413000   1.076975       0.0023323615   0.0025007625   20.490143      18.890835      1.5993079     -1.4889734      18423.832    
    414000   0.94526595     0.0023323615  -0.003239187    20.431293      19.027573      1.4037199     -1.6276577      18162.045    
    415000   1.0477054      0.0023323615   0.0014688802   20.105267      18.549424      1.5558426     -1.9487361      18222.235    
    416000   1.0104015      0.0023323615   0.00057199535  20.115083      18.614637      1.5004463     -1.7912269      18266.051    
    417000   0.97228235     0.0023323615  -0.00050866734  20.28403       18.840191      1.4438393     -1.5969053      18255.473    
    418000   1.0886334      0.0023323615   0.00031576529  20.586102      18.969481      1.6166206     -1.5468665      18202.304    
    419000   1.0503914      0.0023323615  -0.002068411    20.372622      18.812791      1.5598313     -1.6555826      18158.787    
    420000   1.0189304      0.0023323615   0.0036819687   20.559429      19.046317      1.5131117     -1.4910062      18174.632    
    421000   1.0349664      0.0023323615   0.0044262372   20.293979      18.757054      1.5369251     -1.6074011      18380.063    
    422000   0.91094402     0.0023323615  -0.00040387814  20.20338       18.850628      1.3527519     -1.7134105      18380.622    
    423000   1.0653776      0.0023323615   0.0012989217   20.165522      18.583436      1.5820858     -1.957142       18216.555    
    424000   0.99941318     0.0023323615  -0.0011204012   20.462615      18.978486      1.4841286     -1.590422       18123.073    
    425000   1.0246757      0.0023323615   0.00011286889  20.306428      18.784785      1.5216435     -1.7885197      18236.808    
    426000   1.0211432      0.0023323615   0.0023493148   20.418896      18.902498      1.5163977     -1.5597989      18296.373    
    427000   1.001646       0.0023323615  -0.00068858648  20.261333      18.773889      1.4874443     -1.7025191      18144.154    
    428000   1.0093687      0.0023323615   0.0025451087   20.395121      18.896209      1.4989125     -1.7183796      18065.215    
    429000   0.83840136     0.0023323615   0.00054797475  20.222513      18.977487      1.245026      -1.4474054      18226.535    
    430000   1.234133       0.0023323615   0.0011344032   20.606271      18.773583      1.8326875     -1.7807798      18179.491    
    431000   1.0835829      0.0023323615   0.00095941197  20.41652       18.807399      1.6091206     -1.6872654      18119.23     
    432000   1.0738245      0.0023323615   0.0060406768   20.399185      18.804555      1.5946293     -1.8442105      18148.796    
    433000   0.966434       0.0023323615  -0.0023943233   20.269588      18.834433      1.4351545     -1.6938567      18119.27     
    434000   1.0662809      0.0023323615  -0.0024119586   20.169607      18.58618       1.5834271     -1.8586744      18158.999    
    435000   0.97450019     0.0023323615   0.00062328804  20.117967      18.670834      1.4471328     -1.8703434      18086.958    
    436000   1.1125929      0.0023323615  -0.00056925925  20.350999      18.698799      1.6522005     -1.7942003      18162.108    
    437000   0.98944317     0.0023323615  -0.0022043315   20.099992      18.630669      1.4693231     -1.8484779      18189.151    
    438000   1.0196764      0.0023323615   0.0035731436   20.369558      18.855339      1.5142195     -1.5395631      18255.984    
    439000   0.92005378     0.0023323615  -0.0048803587   20.429815      19.063535      1.3662799     -1.5472575      18089.436    
    440000   0.94367792     0.0023323615   0.0032438609   20.01706       18.615699      1.4013617     -1.9075617      18158.88     
    441000   1.1281424      0.0023323615   0.00093620786  20.549298      18.874006      1.6752915     -1.49554        18217.689    
    442000   1.020884       0.0023323615  -0.00057774016  20.53783       19.021817      1.5160128     -1.5642096      18226.971    
    443000   0.94350767     0.0023323615  -0.003175407    20.425395      19.024286      1.4011089     -1.4706619      18393.856    
    444000   0.90443042     0.0023323615   0.00045504321  20.444429      19.10135       1.3430792     -1.3303815      18737.837    
    445000   0.9159564      0.0023323615  -0.0035691263   19.987131      18.626936      1.3601953     -1.8578543      18325.147    
    446000   0.89242594     0.0023323615  -0.0076101202   20.430675      19.105422      1.3252525     -1.4021252      18286.35     
    447000   1.0367447      0.0023323615   0.00085235839  20.575904      19.036338      1.5395658     -1.4540411      18362.169    
    448000   1.1573945      0.0023323615   0.00027543763  20.699566      18.980835      1.7187308     -1.6671509      18455.585    
    449000   0.94440077     0.0023323615  -0.0034762886   20.308221      18.905786      1.4024351     -1.5285589      18214.813    
    450000   0.93945969     0.0023323615   0.00059515899  20.223003      18.827905      1.3950976     -1.5935578      18175.135    
    451000   1.0529558      0.0023323615  -0.001891047    20.495544      18.931904      1.5636393     -1.5269783      18244.852    
    452000   0.8793301      0.0023323615   0.004133796    20.309503      19.003698      1.3058052     -1.3898932      18276.482    
    453000   0.84743679     0.0023323615  -0.0022660709   20.197664      18.939221      1.2584436     -1.6169009      18220.346    
    454000   1.0354501      0.0023323615   0.0023905212   20.713264      19.175621      1.5376435     -1.4202868      18338.745    
    455000   1.0640652      0.0023323615  -0.0016378325   20.447613      18.867477      1.5801368     -1.79502        18279.224    
    456000   1.0098889      0.0023323615   0.0016143774   20.385322      18.885637      1.499685      -1.5773794      18170.963    
    457000   0.88103284     0.0023323615  -0.0022197529   20.186751      18.878417      1.3083338     -1.5785101      18229.408    
    458000   1.0732476      0.0023323615  -0.0002662433   20.5903        18.996528      1.5937727     -1.6018826      18169.596    
    459000   0.98500901     0.0023323615   0.00067286408  20.226211      18.763473      1.4627384     -1.7899022      18268.986    
    460000   1.084671       0.0023323615  -0.00083084625  20.337361      18.726624      1.6107364     -1.7226119      18160.267    
    461000   0.96905455     0.0023323615  -0.0015389238   20.066543      18.627497      1.439046      -1.7367075      18198.756    
    462000   1.0292891      0.0023323615   0.0013312174   20.363749      18.835255      1.5284943     -1.7620752      18251.604    
    463000   0.97790301     0.0023323615  -0.0013404129   20.448658      18.996472      1.452186      -1.5046493      18156.399    
    464000   0.88709022     0.0023323615  -0.0046650609   20.322048      19.004719      1.317329      -1.5403548      18190.421    
    465000   1.0422061      0.0023323615   0.00070488116  20.729403      19.181727      1.5476761     -1.3338935      18436.076    
    466000   0.94388081     0.0023323615   0.0010336171   20.166348      18.764685      1.401663      -1.7855629      18244.715    
    467000   1.0541058      0.0023323615   0.002634972    20.116286      18.550938      1.5653472     -1.8530062      18031.793    
    468000   1.0196695      0.0023323615   0.00011212039  20.202869      18.68866       1.5142092     -1.786096       18162.362    
    469000   0.84404502     0.0023323615  -0.0042779705   20.259257      19.00585       1.2534069     -1.6106148      18277.098    
    470000   0.96811824     0.0023323615  -0.0014041382   20.34582       18.908164      1.4376556     -1.6252522      18264.436    
    471000   1.0237893      0.0023323615  -0.0017250509   20.355627      18.8353        1.520327      -1.5992019      18246.996    
    472000   1.0895959      0.0023323615  -0.0018038288   20.603738      18.985688      1.61805       -1.6491758      18126.92     
    473000   1.1057414      0.0023323615  -0.0011540772   20.840433      19.198407      1.642026      -1.3896228      18245.766    
    474000   1.0515956      0.0023323615  -0.0014927872   20.330628      18.769008      1.5616195     -1.6404018      18334.175    
    475000   0.99286354     0.0023323615   0.0012209422   20.3704        18.895997      1.4744024     -1.5436086      18166.766    
    476000   0.88920156     0.0023323615  -0.00089136707  20.479509      19.159045      1.3204643     -1.3907311      18279.12     
    477000   0.98167134     0.0023323615  -0.002615694    20.696166      19.238384      1.4577819     -1.4599343      18624.071    
    478000   1.0280505      0.0023323615  -0.00046328833  20.544399      19.017744      1.526655      -1.5389149      18413.713    
    479000   0.8576158      0.0023323615   0.001269322    19.950121      18.676562      1.2735595     -1.7493372      18442.292    
    480000   0.92166283     0.0023323615  -0.0023488716   20.189615      18.820945      1.3686693     -1.7658657      18317.062    
    481000   0.85320612     0.0023323615  -0.0048707828   20.261778      18.994767      1.2670111     -1.661623       18219.564    
    482000   0.9121712      0.0023323615   0.0073047525   20.00156       18.646986      1.3545742     -1.8571441      18340.72     
    483000   1.0209401      0.0023323615   0.00031274184  20.38986       18.873764      1.516096      -1.6913592      18314.175    
    484000   1.0422064      0.0023323615   0.00562526     19.870848      18.323172      1.5476765     -2.0472316      18231.821    
    485000   0.99981047     0.0023323615   0.0058704025   20.232232      18.747513      1.4847186     -1.7989883      18195.425    
    486000   1.1006576      0.0023323615  -0.0013294006   20.355693      18.721216      1.6344766     -1.7496045      18316.639    
    487000   1.0688082      0.0023323615   0.004574324    20.450331      18.863151      1.5871802     -1.7381989      18368.958    
    488000   1.1690151      0.0023323615  -0.00086973226  20.60627       18.870283      1.7359875     -1.6920551      18308.491    
    489000   1.0548663      0.0023323615  -0.00016289494  20.552383      18.985907      1.5664765     -1.6765931      18362.473    
    490000   0.85162054     0.0023323615   0.0018515079   19.905325      18.640668      1.2646565     -1.886312       18135.346    
    491000   0.88013342     0.0023323615  -0.00094898528  20.154596      18.847598      1.3069981     -1.732264       18221.294    
    492000   0.929068       0.0023323615   0.00083793871  20.060031      18.680365      1.379666      -1.6794891      18250.003    
    493000   1.1036027      0.0023323615   0.00055930703  20.421907      18.783057      1.63885       -1.7286638      18280.861    
    494000   0.98196147     0.0023323615  -0.0011039411   20.232071      18.773858      1.4582128     -1.775924       18219.701    
    495000   1.1286166      0.0023323615   0.0032904643   20.30993       18.633934      1.6759957     -1.9125867      18126.114    
    496000   0.99773119     0.0023323615   0.0003386435   20.101543      18.619912      1.4816308     -1.8654448      18212.653    
    497000   0.87798884     0.0023323615  -0.00085665804  20.399614      19.0958        1.3038134     -1.5633728      18054.02     
    498000   0.96254059     0.0023323615   0.0016301651   20.01493       18.585558      1.4293728     -1.8506684      18152.697    
    499000   1.0588219      0.0023323615   0.0060900576   20.634623      19.062273      1.5723506     -1.4897305      18196.284    
    500000   0.92335475     0.0023323615   0.0004721103   19.942646      18.571464      1.3711818     -2.016362       18117.908    
    501000   1.0351022      0.0023323615  -0.0020414738   20.452757      18.91563       1.5371267     -1.7700597      18194.291    
    502000   1.0128062      0.0023323615  -0.0032876188   20.405719      18.901702      1.5040172     -1.6309749      18421.676    
    503000   0.98774656     0.0023323615   0.0019837674   20.127659      18.660855      1.4668036     -1.8213123      18367.917    
    504000   0.98448243     0.0023323615  -0.00079225623  20.155627      18.69367       1.4619564     -1.7491787      18282.689    
    505000   0.96976891     0.0023323615  -0.002639567    20.355436      18.915329      1.4401068     -1.5548583      18452.998    
    506000   1.0987199      0.0023323615   0.0014561763   20.339814      18.708215      1.631599      -1.7873036      18230.769    
    507000   1.0441327      0.0023323615   0.00098701897  20.245502      18.694965      1.550537      -1.8951333      18314.226    
    508000   0.91182377     0.0023323615  -0.0017206011   20.444018      19.08996       1.3540583     -1.4619736      18299.388    
    509000   1.0128752      0.0023323615   0.00031478528  20.509821      19.005702      1.5041197     -1.5276962      18249.479    
    510000   1.0895421      0.0023323615   0.0012518401   20.484538      18.866568      1.61797       -1.6490237      18259.605    
    511000   1.0213725      0.0023323615  -0.00021692466  20.436472      18.919734      1.5167382     -1.6800244      18166.58     
    512000   0.92401872     0.0023323615   0.0031555679   20.177517      18.80535       1.3721678     -1.7064874      18156.178    
    513000   1.2635728      0.0023323615   0.0036823439   20.917535      19.041129      1.8764056     -1.6521003      18064.77     
    514000   0.99180979     0.0023323615  -0.0009082224   20.270041      18.797203      1.4728375     -1.7433402      18218.896    
    515000   0.92916846     0.0023323615  -0.0022585932   20.288219      18.908404      1.3798152     -1.7040381      18124.471    
    516000   0.92941307     0.0023323615  -0.0029372952   20.196244      18.816065      1.3801784     -1.8719068      18137.046    
    517000   0.94716641     0.0023323615   0.0045660615   19.97596       18.569418      1.4065421     -1.9846552      18096.579    
    518000   0.97833754     0.0023323615   0.00044398022  19.981791      18.52896       1.4528312     -2.0305658      18137.767    
    519000   0.96376187     0.0023323615   0.0019258053   20.204553      18.773366      1.4311864     -1.647561       18209.407    
    520000   0.88785509     0.0023323615  -0.0023872045   20.154253      18.835788      1.3184648     -1.6806973      18266.034    
    521000   0.90128321     0.0023323615  -0.0026447133   20.036267      18.697862      1.3384056     -1.8423083      18224.97     
    522000   0.94465484     0.0023323615   0.0019170184   20.055021      18.652208      1.4028124     -1.806028       18184.738    
    523000   0.99569319     0.0023323615   0.0021459378   20.069884      18.591279      1.4786044     -1.9655405      18215.139    
    524000   1.0551514      0.0023323615   0.00022611796  20.212689      18.645789      1.5668998     -1.8228869      18202.569    
    525000   0.98217408     0.0023323615   0.00073056686  20.403814      18.945285      1.4585285     -1.5879746      18160.446    
    526000   1.1329052      0.0023323615   0.004173009    20.618026      18.935662      1.6823642     -1.5365235      18354.336    
    527000   0.94544625     0.0023323615   0.0027129814   20.110684      18.706696      1.4039877     -1.7959743      18422.298    
    528000   0.84913671     0.0023323615  -0.00024572347  20.203107      18.942139      1.260968      -1.6208342      18163.387    
    529000   1.0777757      0.0023323615   0.0016132376   20.296163      18.695666      1.6004969     -1.802384       18168.879    
    530000   0.87926068     0.0023323615  -0.0019383159   20.050762      18.74506       1.3057021     -1.7585167      18149.637    
    531000   1.0708132      0.0023323615   0.00079744718  20.26744       18.677282      1.5901576     -1.8411757      18042.37     
    532000   1.0270533      0.0023323615  -0.0035688295   20.127037      18.601862      1.5251742     -1.8796183      18034.304    
    533000   1.0671133      0.0023323615   0.0022553561   20.200982      18.616319      1.5846633     -1.8448254      18102.176    
    534000   0.92806118     0.0023323615  -0.0030236151   20.224454      18.846284      1.3781708     -1.7076906      18106.677    
    535000   1.2061951      0.0023323615  -0.0022506819   20.72059       18.92939       1.7911997     -1.589302       18139.122    
    536000   1.0958255      0.0023323615  -0.0020641647   20.399128      18.771827      1.6273009     -1.666918       18222.445    
    537000   1.00644        0.0023323615   0.0044342222   20.123299      18.628735      1.4945634     -1.7589993      18251.585    
    538000   1.0476727      0.0023323615  -0.0016107408   20.185429      18.629635      1.5557939     -1.8874091      18098.26     
    539000   1.0029         0.0023323615   0.00074700187  20.527504      19.038198      1.4893064     -1.5286335      18114.426    
    540000   1.0543437      0.0023323615  -0.00020212347  20.317861      18.752161      1.5657003     -1.7511457      18101.41     
    541000   1.041137       0.0023323615  -0.0023671381   20.232393      18.686304      1.5460885     -1.7364446      17992.819    
    542000   1.0563724      0.0023323615  -0.0023314483   20.49684       18.928127      1.5687129     -1.4882037      18195.166    
    543000   0.91839927     0.0023323615   0.0063841451   20.181061      18.817238      1.3638229     -1.7291999      18158.473    
    544000   1.0367382      0.0023323615  -0.00020904607  20.429746      18.890189      1.5395562     -1.6868587      18208.27     
    545000   1.0303068      0.0023323615   0.00082337925  20.284854      18.754849      1.5300056     -1.6487835      18248.438    
    546000   0.83574624     0.0023323615  -0.00039456203  20.078239      18.837156      1.2410832     -1.6765546      18143.448    
    547000   1.0001538      0.0023323615  -0.0021610822   20.453436      18.968208      1.4852283     -1.6409955      18132.944    
    548000   1.0335037      0.0023323615   0.00020554484  20.379536      18.844783      1.534753      -1.7077538      18085.959    
    549000   1.0080607      0.0023323615   0.00021355805  20.387307      18.890337      1.4969701     -1.6281154      18078.185    
    550000   0.94437476     0.0023323615  -0.0022921389   20.370507      18.968111      1.4023965     -1.3934788      18339.096    
    551000   1.1239253      0.0023323615  -0.002829441    20.335365      18.666336      1.6690291     -1.7617871      18178.216    
    552000   1.0054795      0.0023323615  -0.0010284473   20.605492      19.112355      1.493137      -1.4573659      18331.676    
    553000   0.99003359     0.0023323615  -0.00094296987  20.198303      18.728103      1.4701999     -1.6629395      18308.159    
    554000   1.0584942      0.0023323615  -0.00044569221  20.619817      19.047954      1.5718639     -1.5858655      18203.901    
    555000   0.9720905      0.0023323615  -0.00035316529  20.212445      18.768891      1.4435544     -1.7308037      18286.578    
    556000   0.99953234     0.0023323615   0.0038879428   20.577527      19.093221      1.4843055     -1.4441675      18225.3      
    557000   1.0602125      0.0023323615   0.0057761053   20.366425      18.79201       1.5744155     -1.8334599      18299.66     
    558000   0.99392936     0.0023323615   0.00054272391  20.142258      18.666273      1.4759851     -1.760488       18175.625    
    559000   0.96172364     0.0023323615  -0.004277682    20.112367      18.684207      1.4281596     -1.7431301      18192.619    
    560000   1.0373319      0.0023323615  -0.00033991774  20.41627       18.875832      1.5404378     -1.6170351      18196.593    
    561000   0.91783315     0.0023323615   0.00081600576  20.312843      18.949861      1.3629822     -1.5138076      18137.487    
    562000   1.0819851      0.0023323615  -0.00020565244  20.464792      18.858045      1.6067478     -1.623548       18231.982    
    563000   0.78254685     0.0023323615   0.00070918443  19.903617      18.741535      1.1620821     -1.7175734      18301.68     
    564000   1.0091651      0.0023323615   0.00095747613  20.297899      18.799289      1.4986101     -1.5810895      18333.575    
    565000   0.95845333     0.0023323615  -0.0028030855   20.386925      18.963622      1.4233032     -1.5360276      18352.385    
    566000   1.0215516      0.0023323615  -0.0011907399   20.410078      18.893074      1.5170042     -1.450737       18299.056    
    567000   1.0890399      0.0023323615  -0.0012237592   20.59574       18.978516      1.6172242     -1.6388721      18297.083    
    568000   0.98564678     0.0023323615  -0.0031410731   20.313086      18.8494        1.4636855     -1.6983329      18354.282    
    569000   1.0984937      0.0023323615   0.0027938235   20.493776      18.862513      1.6312632     -1.7186257      18260.446    
    570000   1.0487464      0.0023323615  -0.0029240822   20.337422      18.780034      1.5573884     -1.7168437      18227.94     
    571000   1.0609336      0.0023323615   0.0037432651   20.306221      18.730734      1.5754865     -1.8506402      18209.5      
    572000   0.93842316     0.0023323615  -0.0033778827   20.036924      18.643365      1.3935584     -1.8986918      18202.838    
    573000   0.99980687     0.0023323615  -0.00058946723  20.125872      18.641159      1.4847132     -1.8117268      18306.134    
    574000   0.88060935     0.0023323615  -0.0016074118   19.873315      18.56561       1.3077049     -1.8134008      17913.822    
    575000   0.98599806     0.0023323615   0.00055138829  20.113549      18.649341      1.4642071     -1.8726059      17850.092    
    576000   1.0085459      0.0023323615   0.0010222291   20.347056      18.849365      1.4976906     -1.6478448      18023.799    
    577000   0.90581101     0.0023323615  -0.002206419    20.33083       18.985701      1.3451293     -1.5789072      18104.855    
    578000   0.87757673     0.0023323615   0.004318191    20.21443       18.911228      1.3032015     -1.6608226      18162.385    
    579000   0.88104209     0.0023323615  -0.0014070559   19.958308      18.649961      1.3083475     -1.838191       18077.422    
    580000   0.82761842     0.0023323615  -0.0034073008   20.11299       18.883976      1.2290134     -1.5798568      18023.783    
    581000   0.89367731     0.0023323615   0.0018637452   20.274098      18.946987      1.3271108     -1.5535496      18174.963    
    582000   0.92542556     0.0023323615  -0.0040849084   20.094001      18.719744      1.374257      -1.7389313      18205.524    
    583000   1.1265335      0.0023323615  -0.0025991516   20.344644      18.671741      1.6729023     -1.7921777      17956.459    
    584000   0.84643154     0.0023323615   0.0011961875   20.230136      18.973185      1.2569508     -1.5523154      18153.562    
    585000   1.0448548      0.0023323615   0.00053525187  20.302027      18.750417      1.5516094     -1.6840314      18106.838    
    586000   0.96819337     0.0023323615  -0.0026571531   20.196681      18.758914      1.4377671     -1.6924357      18069.823    
    587000   0.95007015     0.0023323615  -0.0010327684   20.046065      18.635211      1.4108542     -1.8699467      17931.941    
    588000   0.91817014     0.0023323615  -0.00078015651  20.185333      18.821851      1.3634827     -1.7255261      17877.139    
    589000   1.1110155      0.0023323615  -0.00017046975  20.650177      19.000319      1.6498581     -1.5107149      17965.453    
    590000   1.075981       0.0023323615  -0.0026476724   20.725691      19.12786       1.5978318     -1.4927321      18064.869    
    591000   0.97417857     0.0023323615  -0.00082336595  20.165147      18.718492      1.4466552     -1.8358441      17964.596    
    592000   0.99272169     0.0023323615   0.00086010003  20.280912      18.806721      1.4741917     -1.6879213      17940.799    
    593000   0.98244025     0.0023323615  -0.001844496    20.162994      18.70407       1.4589238     -1.77914        17882.302    
    594000   0.95489941     0.0023323615  -0.00047097853  20.652187      19.234162      1.4180256     -1.4466164      18093.594    
    595000   0.8942791      0.0023323615   0.0025158207   20.373141      19.045137      1.3280045     -1.6524866      18091.646    
    596000   0.98780436     0.0023323615   0.0033132009   20.132077      18.665188      1.4668895     -1.8552255      18142.897    
    597000   0.99003393     0.0023323615  -0.0019281504   20.543452      19.073251      1.4702004     -1.488093       17980.399    
    598000   0.97298804     0.0023323615  -0.0022351108   20.318935      18.874048      1.4448872     -1.6627435      18246.61     
    599000   1.0147772      0.0023323615  -0.0029731358   20.396693      18.889749      1.5069442     -1.6719923      18038.369    
    600000   0.91624081     0.0023323615  -0.0042640422   20.274537      18.91392       1.3606176     -1.6637824      18052.433    
    601000   1.0489726      0.0023323615   0.00027581873  20.287602      18.729878      1.5577243     -1.8361029      18187.296    
    602000   0.94781372     0.0023323615  -0.004167501    20.007608      18.600105      1.4075034     -1.9080672      18125.423    
    603000   0.95741015     0.0023323615   0.0033357518   20.073336      18.651582      1.4217541     -1.7933945      17967.649    
    604000   0.89827833     0.0023323615  -0.0050873548   20.217975      18.884032      1.3339433     -1.7648825      18050.553    
    605000   0.86213032     0.0023323615  -0.00033103838  20.037656      18.757393      1.2802635     -1.651078       17951.408    
    606000   0.91696962     0.0023323615   0.00354237     20.007209      18.645509      1.3616999     -1.7511823      17956.491    
    607000   0.98304732     0.0023323615   0.00047412966  20.178045      18.71822       1.4598253     -1.8194344      17794.628    
    608000   1.072613       0.0023323615   0.0013450095   20.306096      18.713265      1.5928302     -1.8864507      17976.791    
    609000   1.0599442      0.0023323615   0.004098792    20.023968      18.449951      1.5740171     -2.0451345      18049.12     
    610000   1.0420789      0.0023323615   0.0024211996   20.138253      18.590766      1.5474872     -1.9620037      17951.611    
    611000   0.90643858     0.0023323615   0.00070616335  20.299109      18.953048      1.3460613     -1.5543636      17882.578    
    612000   1.0320123      0.0023323615   0.0018125965   20.392576      18.860038      1.5325383     -1.6887608      18082.276    
    613000   1.0468696      0.0023323615  -0.00037117588  20.484889      18.930288      1.5546014     -1.6090326      18182.859    
    614000   1.1078779      0.0023323615  -0.00054591655  20.387689      18.74249       1.6451987     -1.8446565      18027.614    
    615000   0.94846032     0.0023323615   0.00042657014  20.022099      18.613635      1.4084636     -1.852852       17913.649    
    616000   1.2094566      0.0023323615  -0.00072217534  20.657044      18.861001      1.796043      -1.7252903      17864.108    
    617000   0.92351442     0.0023323615   0.0027969703   20.110409      18.73899       1.3714189     -1.6808021      17913.025    
    618000   1.0061607      0.0023323615   0.0050337544   20.492197      18.998049      1.4941486     -1.5254898      18062.551    
    619000   0.95265315     0.0023323615   0.0035000794   20.200433      18.785743      1.4146899     -1.7504744      18188.641    
    620000   0.9883369      0.0023323615   0.00016198307  20.390821      18.92314       1.4676803     -1.5149117      18009.275    
    621000   0.98836571     0.0023323615  -0.0056309221   20.507782      19.040058      1.4677231     -1.529123       17974.619    
    622000   0.96912536     0.0023323615  -0.0033253681   20.185364      18.746213      1.4391512     -1.7849811      18138.727    
    623000   0.92794128     0.0023323615  -0.0054728879   20.567588      19.189595      1.3779928     -1.5219103      17906.022    
    624000   1.099299       0.0023323615   0.0012757673   20.35427       18.721811      1.632459      -1.7248703      17974.561    
    625000   0.9543941      0.0023323615   0.0013256862   20.384013      18.966738      1.4172752     -1.6002694      18052.12     
    626000   0.94066116     0.0023323615  -7.2253472e-05  20.097912      18.70103       1.3968818     -1.7223415      17950.878    
    627000   0.93290508     0.0023323615  -0.0016867276   20.473712      19.088348      1.385364      -1.5743824      18018.349    
    628000   0.99723768     0.0023323615  -0.0019307594   20.408716      18.927818      1.480898      -1.5610948      17973.777    
    629000   0.93625754     0.0023323615  -0.00075490817  20.21657       18.826227      1.3903424     -1.6076134      18154.906    
    630000   0.94857879     0.0023323615  -0.00019015789  20.316182      18.907542      1.4086395     -1.5643575      17990.004    
    631000   1.072268       0.0023323615  -0.00043728306  20.501351      18.909033      1.592318      -1.5408462      18140.642    
    632000   0.95767567     0.0023323615   0.0036072434   20.151465      18.729317      1.4221484     -1.6789639      18111.234    
    633000   1.0467462      0.0023323615   0.0015828914   20.410238      18.85582       1.5544181     -1.7259405      18201.089    
    634000   1.0121957      0.0023323615  -0.00015386939  20.442876      18.939766      1.5031106     -1.6259735      18135.84     
    635000   0.93351083     0.0023323615  -0.0010179136   20.273902      18.887639      1.3862636     -1.5297755      17947.792    
    636000   1.0675714      0.0023323615  -0.0008527632   20.405515      18.820172      1.5853436     -1.7163966      17912.286    
    637000   1.0563504      0.0023323615   0.0026412366   20.522832      18.954151      1.5686804     -1.5707446      17935.015    
    638000   0.95475841     0.0023323615   0.0037332484   20.16849       18.750674      1.4178162     -1.7407672      18084.395    
    639000   0.86908366     0.0023323615   0.0019508553   20.149579      18.858989      1.2905892     -1.6686083      17918.929    
    640000   1.0482703      0.0023323615  -0.002018046    20.479064      18.922382      1.5566813     -1.5712581      17945.26     
    641000   1.1161058      0.0023323615  -0.0008003964   20.452797      18.79538       1.6574171     -1.6771065      17911.283    
    642000   1.0387377      0.0023323615   0.0027071706   20.480292      18.937766      1.5425256     -1.5523134      18042.112    
    643000   0.77837224     0.0023323615  -0.00039738166  19.968507      18.812624      1.1558828     -1.7666755      18024.349    
    644000   1.0094931      0.0023323615   0.0011868656   20.55488       19.055783      1.4990972     -1.643671       18109.565    
    645000   1.0145637      0.0023323615   0.00053028197  20.235027      18.7284        1.5066271     -1.8510965      17876.24     
    646000   1.0666306      0.0023323615  -0.0021750618   20.586328      19.002382      1.5839465     -1.579245       17943.708    
    647000   0.98252966     0.0023323615  -0.0003061156   20.098519      18.639463      1.4590565     -1.7561863      18090.938    
    648000   1.0084091      0.0023323615   0.0011451912   20.208576      18.711088      1.4974875     -1.7478706      18060.858    
    649000   1.0407896      0.0023323615  -0.004769208    20.587935      19.042362      1.5455725     -1.5276685      17953.855    
    650000   0.81833058     0.0023323615  -0.0045462445   19.978017      18.762796      1.2152209     -1.7741044      17976.098    
    651000   0.82929836     0.0023323615   0.00022237757  20.113554      18.882046      1.2315081     -1.6958357      18019.416    
    652000   0.9542386      0.0023323615   0.003999794    20.057279      18.640235      1.4170443     -1.8904219      18193.336    
    653000   0.90573542     0.0023323615  -0.0031127113   20.136855      18.791838      1.3450171     -1.7692894      18051.973    
    654000   1.0078738      0.0023323615   0.0014935949   20.013779      18.517086      1.4966926     -1.9947893      17999.942    
    655000   1.0117605      0.0023323615  -0.0032810744   20.494692      18.992228      1.5024643     -1.5771074      18050.328    
    656000   0.94143361     0.0023323615  -0.002015013    20.279741      18.881712      1.3980289     -1.5920734      18049.502    
    657000   1.0846554      0.0023323615  -0.0015717684   20.614104      19.00339       1.6107133     -1.4767669      18111.162    
    658000   0.95080819     0.0023323615  -0.0010131156   20.473383      19.061433      1.4119502     -1.4869207      18044.503    
    659000   0.81008185     0.0023323615  -0.0009460967   19.919958      18.716986      1.2029715     -1.7538068      18065.323    
    660000   0.8448273      0.0023323615  -0.0035457286   19.999272      18.744703      1.2545685     -1.7564849      17881.998    
    661000   1.0694483      0.0023323615   0.00043033026  20.345197      18.757067      1.5881307     -1.7388664      18056.437    
    662000   1.0242367      0.0023323615  -0.0038416113   20.056975      18.535984      1.5209915     -1.9818748      18046.806    
    663000   1.0606104      0.0023323615  -0.0028815261   20.14256       18.567554      1.5750064     -1.9817121      18082.2      
    664000   0.95901453     0.0023323615   0.00034190254  20.043516      18.61938       1.4241366     -1.8540385      18134.967    
    665000   0.90027136     0.0023323615   0.0010341002   20.188715      18.851812      1.336903      -1.7200805      18071.06     
    666000   1.0570992      0.0023323615   0.0015571789   20.473033      18.903241      1.5697923     -1.6409637      17916.864    
    667000   1.1190824      0.0023323615  -0.0028142962   20.570363      18.908526      1.6618374     -1.6504836      18086.355    
    668000   0.96498152     0.0023323615  -0.0032112675   20.22675       18.793752      1.4329976     -1.6303618      17962.679    
    669000   1.0516274      0.0023323615   0.00017689024  20.215784      18.654118      1.5616667     -1.8421665      17900.579    
    670000   0.88812289     0.0023323615   0.00034547991  20.147191      18.828328      1.3188625     -1.7124641      17728.725    
    671000   1.0982873      0.0023323615  -0.00013086588  20.710052      19.079096      1.6309566     -1.5526261      17890.906    
    672000   1.0369518      0.0023323615  -0.0034560504   20.178749      18.638876      1.5398735     -1.7641437      17916.639    
    673000   1.1480276      0.0023323615  -0.0032464527   20.254899      18.550078      1.704821      -1.8853195      17920.435    
    674000   0.99157339     0.0023323615   0.0024547595   20.153693      18.681206      1.4724865     -1.830048       18049.962    
    675000   1.0891341      0.0023323615   0.00065758817  20.62153       19.004165      1.6173641     -1.5823391      18053.508    
    676000   1.0005402      0.0023323615   0.001104347    20.223779      18.737977      1.4858021     -1.7624777      17975.234    
    677000   1.0803115      0.0023323615   0.00013232729  20.50914       18.904878      1.6042626     -1.6478349      17992.196    
    678000   1.1220772      0.0023323615  -0.00041381282  19.931756      18.265471      1.6662846     -2.1707874      17923.312    
    679000   0.95766635     0.0023323615  -0.00012321314  20.079089      18.656955      1.4221345     -1.8770536      17982.582    
    680000   1.0211482      0.0023323615   0.0006619933   20.414674      18.898269      1.5164051     -1.5644483      17895.98     
    681000   0.93710585     0.0023323615  -0.0017991652   20.159849      18.768247      1.3916022     -1.8380877      18021.853    
    682000   0.92749695     0.0023323615  -0.0027574476   20.163815      18.786482      1.377333      -1.72985        18018.912    
    683000   0.98309039     0.0023323615   0.0056142876   20.257549      18.79766       1.4598892     -1.6895717      18018.193    
    684000   1.0577277      0.0023323615   0.0014672016   20.538123      18.967397      1.5707256     -1.6140661      18195.292    
    685000   0.95283246     0.0023323615  -0.00026057779  20.143017      18.728061      1.4149562     -1.7117082      18127.381    
    686000   0.93290528     0.0023323615   0.00070329755  20.059732      18.674367      1.3853643     -1.8162081      17853.119    
    687000   0.93884555     0.0023323615  -0.0033343838   20.509235      19.11505       1.3941856     -1.4564042      17943.827    
    688000   1.0256069      0.0023323615   0.0025079118   20.565819      19.042793      1.5230262     -1.4345052      18099.536    
    689000   0.87613075     0.0023323615   0.0052187367   20.279065      18.978011      1.3010542     -1.5474533      18056.27     
    690000   0.96840862     0.0023323615  -0.00065306196  20.510101      19.072014      1.4380868     -1.5908028      18086.781    
    691000   1.1374839      0.0023323615   0.0025320043   20.807722      19.118559      1.6891636     -1.4330189      18133.995    
    692000   1.0763565      0.0023323615  -0.0038001999   20.648246      19.049857      1.5983894     -1.5333265      18147.324    
    693000   1.047143       0.0023323615  -0.00015327147  20.440303      18.885296      1.5550073     -1.6631603      17926.405    
    694000   0.91040906     0.0023323615   0.0029346435   20.174616      18.822658      1.3519575     -1.6277164      18079.875    
    695000   0.97354292     0.0023323615  -0.002019987    20.526166      19.080455      1.4457112     -1.3526974      18049.045    
    696000   1.1426163      0.0023323615  -0.00048220144  20.344701      18.647916      1.6967852     -1.8362617      18093.499    
    697000   0.99991233     0.0023323615  -0.0026473079   20.438626      18.953756      1.4848698     -1.6886914      18076.038    
    698000   0.8738978      0.0023323615   0.0033549995   20.211443      18.913705      1.2977382     -1.6795537      17933.233    
    699000   0.98673498     0.0023323615   0.0025900462   20.371492      18.906191      1.4653015     -1.6033712      17968.057    
    700000   0.97728291     0.0023323615   0.00076554353  20.226908      18.775643      1.4512651     -1.7188933      18156.062    
    701000   1.0391495      0.0023323615   0.0025501951   20.184343      18.641206      1.543137      -1.9197503      18116.077    
    702000   1.0845893      0.0023323615   0.00011147996  20.46903       18.858415      1.610615      -1.6771556      18106.897    
    703000   1.0470384      0.0023323615  -0.00032298738  20.352027      18.797175      1.5548521     -1.7334045      18126.476    
    704000   0.96679166     0.0023323615  -0.0017601668   20.378812      18.943127      1.4356856     -1.7134659      18209.699    
    705000   0.96928645     0.0023323615  -0.0024157251   20.083551      18.644161      1.4393904     -1.8592087      18183.982    
    706000   1.0417854      0.0023323615  -0.0011330146   20.365513      18.818462      1.5470513     -1.8828837      18045.491    
    707000   1.0043229      0.0023323615   0.00010313282  20.611538      19.120118      1.4914195     -1.3165371      18137.767    
    708000   1.0540281      0.0023323615  -0.0038550225   20.407196      18.841964      1.5652318     -1.6783758      18092.617    
    709000   0.87840794     0.0023323615   0.0023134684   19.826505      18.522069      1.3044358     -1.8828368      17953.242    
    710000   0.9098378      0.0023323615   0.0019941564   20.10458       18.753471      1.3511091     -1.8929621      17933.707    
    711000   1.0376948      0.0023323615   0.0023199548   20.358529      18.817552      1.5409767     -1.8105623      17956.743    
    712000   1.071301       0.0023323615   1.8714836e-05  20.401719      18.810837      1.5908819     -1.6796758      18015.767    
    713000   1.0882726      0.0023323615   6.9763274e-05  20.409748      18.793664      1.6160847     -1.669034       17909.708    
    714000   1.0125187      0.0023323615   0.0026797723   20.342078      18.838488      1.5035902     -1.6135192      17966.643    
    715000   1.0198956      0.0023323615   0.0007748526   20.324411      18.809867      1.5145449     -1.6061636      18151.522    
    716000   1.1008552      0.0023323615   0.0011037828   20.594844      18.960074      1.63477       -1.5169783      18161.021    
    717000   1.0763052      0.0023323615   0.0013615998   20.583526      18.985212      1.5983132     -1.611678       17991.626    
    718000   0.90088551     0.0023323615   0.001250797    20.153156      18.815341      1.337815      -1.7156473      18146.496    
    719000   1.1346277      0.0023323615  -0.0011369151   20.772098      19.087176      1.6849221     -1.4924897      18320.246    
    720000   1.020315       0.0023323615  -0.003381125    20.469714      18.954546      1.5151678     -1.5457387      18180.6      
    721000   1.0574134      0.0023323615   0.00059713584  20.380034      18.809775      1.5702589     -1.6757688      18081.683    
    722000   1.106615       0.0023323615   0.0023846956   20.591917      18.948593      1.6433233     -1.4979825      18085.72     
    723000   0.93637573     0.0023323615   0.0017923572   20.187126      18.796608      1.390518      -1.6738697      18192.125    
    724000   0.99610461     0.0023323615  -0.0024175403   20.176588      18.697373      1.4792153     -1.8056566      17996.92     
    725000   0.89944874     0.0023323615   0.00014715187  20.019273      18.683591      1.3356814     -1.8227762      18034.855    
    726000   1.0989025      0.0023323615   0.0018866049   20.309439      18.677569      1.6318702     -1.8677994      17935.679    
    727000   1.1292553      0.0023323615  -0.00044322363  20.378121      18.701177      1.6769441     -1.6932491      17969.328    
    728000   1.1069868      0.0023323615   0.0015066818   20.426758      18.782883      1.6438755     -1.9104465      17819.627    
    729000   0.86649548     0.0023323615   0.0023434584   19.850775      18.564029      1.2867458     -1.9228337      17805.433    
    730000   0.93958205     0.0023323615   0.00035848628  20.016799      18.62152       1.3952793     -1.8769543      17818.342    
    731000   0.96365283     0.0023323615   0.001683743    20.372711      18.941686      1.4310245     -1.5376434      17934.854    
    732000   1.0537804      0.0023323615  -0.00011698306  20.06477       18.499906      1.5648639     -2.0615892      17759.294    
    733000   0.85524403     0.0023323615   0.0017732148   19.966558      18.696521      1.2700374     -1.7693312      17768.592    
    734000   0.88246441     0.0023323615  -0.00034231175  20.179215      18.868755      1.3104596     -1.672185       17734.751    
    735000   1.0821594      0.0023323615  -0.0031666087   20.501586      18.89458       1.6070067     -1.5476815      17834.289    
    736000   0.98851082     0.0023323615  -0.0010080316   20.444939      18.977001      1.4679386     -1.513812       18068.669    
    737000   0.95598192     0.0023323615   4.9860622e-05  20.38913       18.969497      1.4196331     -1.6055894      18044.679    
    738000   1.0939843      0.0023323615  -0.0026113723   20.598625      18.974059      1.6245667     -1.6834226      17826.743    
    739000   0.94464003     0.0023323615  -0.00054970838  19.992304      18.589514      1.4027904     -1.808451       17875.702    
    740000   0.94190811     0.0023323615  -0.0025874739   20.202036      18.803302      1.3987335     -1.7670193      17888.869    
    741000   0.91557997     0.0023323615   0.0002093717   20.076388      18.716752      1.3596363     -1.7539428      17947.37     
    742000   1.0634524      0.0023323615   0.0027945768   20.410924      18.831697      1.5792268     -1.6342073      17845.474    
    743000   0.92613898     0.0023323615   0.00065847144  20.496829      19.121513      1.3753164     -1.4766535      17953.074    
    744000   1.0606469      0.0023323615   0.00025391476  20.307532      18.732471      1.5750607     -1.6618633      17915.707    
    745000   1.1021564      0.0023323615  -0.0014307871   20.274726      18.638024      1.6367023     -1.7661072      17936.005    
    746000   0.92865823     0.0023323615   0.0019938922   20.012365      18.633308      1.3790575     -1.9622922      18021.362    
    747000   0.96250263     0.0023323615  -0.0011771164   20.453456      19.024139      1.4293164     -1.5025948      18110.442    
    748000   0.88278226     0.0023323615   0.0046473925   20.153581      18.842649      1.3109317     -1.7276028      17947.102    
    749000   0.99757178     0.0023323615  -0.00061315051  20.5022        19.020806      1.4813941     -1.4096167      17991.625    
    750000   0.94626671     0.0023323615   0.001854538    20.010558      18.605352      1.4052061     -1.9597133      17907.687    
    751000   0.81263953     0.0023323615  -0.00093588671  20.114321      18.907551      1.2067697     -1.5880231      18007.404    
    752000   0.94503519     0.0023323615   0.00073813286  20.177649      18.774271      1.4033773     -1.749351       17922.922    
    753000   0.9102117      0.0023323615   0.00094192432  20.468966      19.117302      1.3516644     -1.6349269      17948.79     
    754000   1.1189186      0.0023323615   0.0019859182   20.307505      18.645911      1.6615941     -1.7738417      17980.557    
    755000   1.0171111      0.0023323615  -0.00052692661  20.413867      18.903457      1.5104099     -1.6951636      18014.353    
    756000   0.99493633     0.0023323615  -0.00019805917  20.192855      18.715374      1.4774805     -1.8190395      17852.397    
    757000   0.93602167     0.0023323615   0.00013708851  20.244348      18.854356      1.3899922     -1.6850436      17985.871    
    758000   0.8061734      0.0023323615  -0.00067418651  19.970962      18.773795      1.1971675     -1.8030955      18033.483    
    759000   0.88633426     0.0023323615   0.00046317473  20.435355      19.119149      1.3162064     -1.4216889      18135.975    
    760000   0.99029468     0.0023323615  -0.0013179286   20.380261      18.909674      1.4705876     -1.6248349      18503.418    
    761000   0.93861587     0.0023323615   0.0042024951   20.343346      18.949501      1.3938446     -1.5888011      18319.631    
    762000   0.95101104     0.0023323615  -0.002070281    20.243765      18.831514      1.4122514     -1.6370972      18187.352    
    763000   0.84862031     0.0023323615  -0.0024240027   20.396384      19.136183      1.2602012     -1.2893642      18513.945    
    764000   1.0184373      0.0023323615   0.00077316898  20.425172      18.912793      1.5123794     -1.6312528      18159.359    
    765000   1.1149251      0.0023323615  -0.00080029599  20.541196      18.885532      1.6556637     -1.4885593      18067.746    
    766000   1.2083633      0.0023323615  -0.0026899052   20.836191      19.041772      1.7944195     -1.4760152      18013.972    
    767000   1.0430771      0.0023323615  -0.0010209601   20.745465      19.196495      1.5489694     -1.3373939      18195.183    
    768000   1.0196302      0.0023323615  -0.00050259818  20.18652       18.672369      1.5141509     -1.9368571      18221.012    
    769000   0.96245259     0.0023323615   0.0015891025   20.177152      18.74791       1.4292421     -1.6939145      18034.627    
    770000   1.0871914      0.0023323615   0.00046828288  20.382235      18.767755      1.6144792     -1.6760224      18106.418    
    771000   0.98707962     0.0023323615  -0.0013106993   20.456318      18.990505      1.4658132     -1.6815364      18006.277    
    772000   0.89066706     0.0023323615  -0.0014538537   20.071227      18.748586      1.3226406     -1.681592       18100.34     
    773000   1.0413491      0.0023323615  -0.00064178269  20.207173      18.660769      1.5464034     -1.7848551      18130.351    
    774000   1.057227       0.0023323615   0.0013225086   20.515267      18.945285      1.5699821     -1.5636756      18126.644    
    775000   0.94903945     0.0023323615  -0.00018324141  20.249172      18.839849      1.4093236     -1.5799532      18061.05     
    776000   1.0511499      0.0023323615  -0.00121257     20.52417       18.963212      1.5609577     -1.5182073      18001.055    
    777000   0.89726629     0.0023323615  -0.002147735    20.330763      18.998322      1.3324404     -1.4760669      18081.536    
    778000   0.95603585     0.0023323615   0.0032523014   20.390671      18.970958      1.4197132     -1.5822064      18033.989    
    779000   0.95795398     0.0023323615   0.001097523    20.285852      18.863291      1.4225617     -1.694652       17882.508    
    780000   1.0158892      0.0023323615  -0.0018490306   20.269307      18.760712      1.5085954     -1.7367059      17996.595    
    781000   1.0309582      0.0023323615   0.0035177019   20.027285      18.496312      1.530973      -1.8615758      17880.621    
    782000   0.98985028     0.0023323615   1.8225805e-05  20.290338      18.82041       1.4699277     -1.730776       17913.571    
    783000   1.0533176      0.0023323615  -0.0018063337   20.545119      18.980942      1.5641766     -1.5346111      17908.49     
    784000   1.0336191      0.0023323615  -0.00047256186  20.345572      18.810648      1.5349244     -1.7749272      17826.686    
    785000   0.99608249     0.0023323615   0.0014053497   20.199277      18.720094      1.4791825     -1.7003424      17774.158    
    786000   0.99394203     0.0023323615  -0.0022585826   20.402023      18.926019      1.4760039     -1.6970589      17946.976    
    787000   0.94117055     0.0023323615  -0.0026649959   20.067875      18.670237      1.3976383     -1.883244       17842.476    
    788000   1.0354159      0.0023323615  -0.0033330154   20.461833      18.924241      1.5375926     -1.6363245      17892.297    
    789000   0.93472713     0.0023323615   0.0024068481   20.120426      18.732356      1.3880698     -1.7253837      17941.259    
    790000   1.0066986      0.0023323615  -0.0019230798   20.188274      18.693327      1.4949474     -1.7374597      17998.799    
    791000   1.1113927      0.0023323615  -0.0023973525   20.519996      18.869577      1.6504182     -1.6027486      17989.929    
    792000   1.0330884      0.0023323615   0.0018552641   20.353903      18.819766      1.5341362     -1.6030138      18131.745    
    793000   0.92202973     0.0023323615  -0.0023894792   20.508885      19.139671      1.3692141     -1.4052948      18162.719    
    794000   0.93597348     0.0023323615   0.0016863653   20.652976      19.263055      1.3899206     -1.3063579      18317.839    
    795000   1.1065996      0.0023323615   0.00042608654  20.372825      18.729525      1.6433003     -1.6311194      18106.76     
    796000   1.0067567      0.0023323615  -0.0038151385   20.335947      18.840914      1.4950337     -1.6086902      17982.906    
    797000   1.0204229      0.0023323615   0.0028702863   20.445293      18.929965      1.515328      -1.6101101      18080.969    
    798000   0.9514224      0.0023323615  -0.0013565501   20.299028      18.886166      1.4128623     -1.614146       17961.438    
    799000   0.90861786     0.0023323615   0.0025367643   20.287392      18.938094      1.3492975     -1.5209267      17921.429    
    800000   0.90445263     0.0023323615  -0.000611298    20.141437      18.798325      1.3431122     -1.5049238      17836.921    
    801000   1.0297109      0.0023323615   0.0023510709   20.169206      18.640085      1.5291208     -1.7677843      18045.335    
    802000   0.95820017     0.0023323615  -0.0036312075   20.056067      18.63314       1.4229273     -1.850005       18010.985    
    803000   1.0215445      0.0023323615   0.0031542053   20.255027      18.738033      1.5169937     -1.8534447      17990.147    
    804000   0.99648795     0.0023323615  -0.0037597622   20.374248      18.894463      1.4797846     -1.7630493      17973.768    
    805000   0.99271407     0.0023323615   0.001542089    20.016374      18.542194      1.4741804     -1.8742445      17884.639    
    806000   0.95281081     0.0023323615  -9.2653093e-05  20.204239      18.789315      1.4149241     -1.6321732      17837.941    
    807000   1.0033582      0.0023323615   0.0038856715   20.23933       18.749343      1.4899869     -1.7597275      17901.934    
    808000   1.1671681      0.0023323615  -0.0028645061   20.547313      18.814068      1.7332446     -1.7034918      18051.911    
    809000   0.84051631     0.0023323615  -0.0005023426   19.997811      18.749644      1.2481667     -1.8525715      17969.461    
    810000   1.1426661      0.0023323615  -0.0038430398   20.528505      18.831646      1.6968591     -1.7976927      17906.607    
    811000   1.0082376      0.0023323615   0.00061686969  20.377044      18.879811      1.4972329     -1.7319532      17986.166    
    812000   1.0728679      0.0023323615  -0.00048052295  20.326219      18.733011      1.5932088     -1.7845663      18036.563    
    813000   1.1160267      0.0023323615   4.7742514e-05  20.343177      18.685877      1.6572996     -1.8521177      18097.216    
    814000   1.0549394      0.0023323615   0.0041268042   20.56394       18.997355      1.566585      -1.6040092      18105.827    
    815000   1.0642048      0.0023323615   0.0015286779   20.348598      18.768254      1.5803441     -1.7581906      18030.431    
    816000   0.93440637     0.0023323615  -0.0013747465   20.137168      18.749575      1.3875935     -1.8311722      17895.608    
    817000   1.0094567      0.0023323615  -0.0043039911   20.231769      18.732726      1.4990432     -1.7791287      17868.137    
    818000   0.86511019     0.0023323615  -0.0034158712   20.110562      18.825873      1.2846886     -1.6598945      17950.569    
    819000   1.0676033      0.0023323615   6.7176952e-05  20.407867      18.822476      1.585391      -1.6287252      17888.466    
    820000   0.99537454     0.0023323615   0.0015548306   20.076479      18.598348      1.4781312     -1.8062773      17981.137    
    821000   1.1616171      0.0023323615   0.0036030318   20.479862      18.754861      1.7250013     -1.7929669      17905.538    
    822000   1.0800956      0.0023323615  -8.3753155e-05  20.598157      18.994215      1.6039419     -1.6166511      17997.841    
    823000   0.96334139     0.0023323615   0.00083453877  20.155387      18.724826      1.430562      -1.83935        17964.244    
    824000   1.0116627      0.0023323615   0.00022728884  20.089451      18.587132      1.5023192     -1.9178631      17985.92     
    825000   0.99847076     0.0023323615   0.0011402238   20.38028       18.897551      1.4827291     -1.6832353      18100.626    
    826000   0.93335113     0.0023323615   0.0027972913   20.10867       18.722643      1.3860264     -1.7171638      18273.384    
    827000   1.0017118      0.0023323615  -0.00029107117  20.341571      18.854029      1.487542      -1.711734       18263.918    
    828000   1.0873447      0.0023323615   2.7509269e-05  20.529911      18.915204      1.6147069     -1.6383663      18038.092    
    829000   1.0106258      0.0023323615   0.0034520991   20.174246      18.673467      1.5007793     -1.8495963      17892.159    
    830000   1.0814973      0.0023323615  -0.00082741044  20.66805       19.062026      1.6060235     -1.5359841      17969.467    
    831000   0.97180927     0.0023323615  -0.003976271    20.481766      19.038629      1.4431368     -1.5385558      18024.925    
    832000   1.0231556      0.0023323615  -0.0020331743   20.302614      18.783228      1.519386      -1.7447729      17963.345    
    833000   1.0372669      0.0023323615   0.0030877274   20.183531      18.64319       1.5403413     -1.9317923      18026.797    
    834000   1.0143547      0.0023323615   0.0028372934   20.68964       19.183323      1.5063168     -1.4585552      18077.17     
    835000   1.0634701      0.0023323615   0.00059302939  20.505413      18.92616       1.5792531     -1.4786064      18166.144    
    836000   1.0300681      0.0023323615   0.00078907089  20.536599      19.006948      1.5296511     -1.5084851      18403.267    
    837000   0.85055397     0.0023323615  -0.0030081618   20.258986      18.995914      1.2630726     -1.6304419      18199.031    
    838000   1.0662714      0.0023323615   0.00054659801  20.48231       18.898897      1.583413      -1.72371        18266.127    
    839000   0.93506005     0.0023323615  -0.005981019    20.317801      18.929237      1.3885642     -1.6050482      18331.195    
    840000   1.1132127      0.0023323615   0.0017520986   20.698215      19.045094      1.6531208     -1.5505802      18164.937    
    841000   1.0189102      0.0023323615  -0.0042297029   20.34506       18.831978      1.5130816     -1.7170521      18064.967    
    842000   0.8959631      0.0023323615   0.0020666531   20.277403      18.946898      1.3305052     -1.5434032      18041.841    
    843000   0.92114762     0.0023323615  -0.0051797311   20.394706      19.026802      1.3679042     -1.5520221      18132.999    
    844000   0.95910349     0.0023323615   0.0015558483   20.351004      18.926735      1.4242687     -1.5567508      18170.384    
    845000   1.0663711      0.0023323615   0.0019606218   20.599351      19.01579       1.583561      -1.5009183      18161.315    
    846000   0.86679467     0.0023323615  -0.0020128373   20.492069      19.204879      1.2871901     -1.4793079      18112.28     
    847000   0.9457918      0.0023323615  -0.0012661667   20.51493       19.11043       1.4045008     -1.5076922      18115.215    
    848000   1.0619075      0.0023323615  -0.0030597951   20.716046      19.139113      1.5769326     -1.3040486      17973.221    
    849000   0.82918369     0.0023323615   0.00079117324  20.184917      18.953579      1.2313378     -1.5230438      18180.392    
    850000   1.0869948      0.0023323615  -0.0041652835   20.675214      19.061026      1.6141872     -1.4561684      17970.324    
    851000   1.1259766      0.0023323615  -0.0032405757   20.6773        19.005224      1.6720753     -1.5060824      18191.933    
    852000   0.95350087     0.0023323615   0.00091469681  20.35259       18.936642      1.4159488     -1.5731535      18329.259    
    853000   0.95528882     0.0023323615  -0.0023919038   20.228679      18.810075      1.4186039     -1.781531       18198.232    
    854000   1.0762886      0.0023323615  -0.0013973917   20.692297      19.094008      1.5982886     -1.5042782      18191.293    
    855000   1.0459213      0.0023323615   0.0019054416   20.288476      18.735283      1.5531931     -1.7637906      18325.605    
    856000   1.0499583      0.0023323615   0.0021136953   20.421234      18.862046      1.559188      -1.6717681      18237.661    
    857000   1.0554073      0.0023323615   0.0019443272   20.527705      18.960426      1.5672798     -1.5620164      18353.202    
    858000   1.0314841      0.0023323615   0.0022500091   20.170273      18.638519      1.5317538     -1.8786185      18339.861    
    859000   1.0416513      0.0023323615  -0.0013842959   20.527585      18.980733      1.5468522     -1.4960472      18365.845    
    860000   1.0014299      0.0023323615  -0.0020682833   20.461289      18.974165      1.4871234     -1.5234656      18186.202    
    861000   1.0676909      0.0023323615  -0.0028552769   20.643376      19.057855      1.5855209     -1.531476       18077.085    
    862000   1.1229882      0.0023323615   0.0053123863   20.48855       18.820912      1.6676374     -1.6678558      18119.724    
    863000   0.94897792     0.0023323615  -0.0026363782   20.167556      18.758324      1.4092322     -1.6969982      18303.633    
    864000   0.99566224     0.0023323615   0.00016751744  20.40788       18.929322      1.4785584     -1.5215872      18191.687    
    865000   1.0691108      0.0023323615   0.0034211062   20.579178      18.991549      1.5876295     -1.5388117      18159.167    
    866000   1.0984172      0.0023323615  -0.0026751658   20.300124      18.668974      1.6311496     -1.7752567      18143.617    
    867000   0.84884067     0.0023323615  -0.0068106048   20.450804      19.190275      1.2605284     -1.5336174      17965.479    
    868000   1.0288409      0.0023323615   0.0021956055   20.326005      18.798176      1.5278288     -1.7234925      18016.996    
    869000   1.0195174      0.0023323615  -0.0038219874   20.42876       18.914777      1.5139834     -1.6628904      18089.79     
    870000   0.96758148     0.0023323615  -0.0035330471   20.661693      19.224834      1.4368585     -1.3403602      18353.779    
    871000   0.97423828     0.0023323615   0.0022988712   20.431462      18.984718      1.4467439     -1.4634562      18178.442    
    872000   0.98930083     0.0023323615  -0.0024884696   20.458108      18.988996      1.4691117     -1.5380455      18122.537    
    873000   0.78562321     0.0023323615   0.00083668135  20.169387      19.002737      1.1666505     -1.5863657      18108.041    
    874000   1.0042685      0.0023323615  -0.004466108    20.156623      18.665284      1.4913387     -1.8115545      18106.733    
    875000   1.0250567      0.0023323615  -0.0016535719   20.506573      18.984363      1.5222091     -1.5172784      18211.759    
    876000   1.0321177      0.0023323615   0.0021175446   20.371425      18.838731      1.5326948     -1.7293872      18039.079    
    877000   0.9823239      0.0023323615  -7.8911642e-05  20.102295      18.643544      1.458751      -1.7755601      17953.946    
    878000   0.99783784     0.0023323615  -0.00071599507  20.06564       18.58385       1.4817892     -1.8939039      17949.555    
    879000   0.99017034     0.0023323615   0.0014726483   20.096157      18.625754      1.470403      -1.9292263      17870.137    
    880000   0.93747338     0.0023323615  -0.0033457689   19.972308      18.58016       1.392148      -1.8725232      17890.088    
    881000   1.0008971      0.0023323615   0.0014214094   20.477438      18.991106      1.4863322     -1.6711615      17931.13     
    882000   0.94795193     0.0023323615   0.0035979736   20.398535      18.990827      1.4077086     -1.7895757      18033.382    
    883000   1.0042402      0.0023323615   0.0008697162   20.20798       18.716683      1.4912967     -1.7795615      18044.376    
    884000   0.97418864     0.0023323615  -0.0039698665   20.265463      18.818792      1.4466701     -1.7527617      17891.598    
    885000   0.87785591     0.0023323615   0.0029178307   19.948047      18.644431      1.303616      -1.8438425      17965.667    
    886000   1.0487865      0.0023323615   0.00042487169  20.284371      18.726923      1.557448      -1.6923947      17784.634    
    887000   0.90866472     0.0023323615   0.0023226057   20.429792      19.080425      1.3493671     -1.5225087      17919.334    
    888000   1.0178153      0.0023323615  -0.00036719046  20.599669      19.088213      1.5114557     -1.4886579      18134.13     
    889000   0.97037663     0.0023323615   0.0050374966   20.510103      19.069094      1.4410093     -1.5814575      17851.274    
    890000   0.96920536     0.0023323615  -0.00093066555  20.144777      18.705507      1.43927       -1.7557323      17930.417    
    891000   1.0509165      0.0023323615   0.00077584965  20.120914      18.560303      1.560611      -1.8940213      18032.311    
    892000   1.0194981      0.0023323615  -0.00018892134  20.528313      19.014359      1.5139547     -1.6672974      17881.136    
    893000   1.035003       0.0023323615  -0.0012188497   20.181231      18.644252      1.5369794     -1.8693815      17862.289    
    894000   1.0707852      0.0023323615  -0.00096714007  20.258973      18.668857      1.5901161     -1.7506599      18064.839    
    895000   1.0203681      0.0023323615   0.00086423692  20.285342      18.770095      1.5152466     -1.7526837      18089.774    
    896000   1.0460663      0.0023323615  -0.00090016013  20.412105      18.858696      1.5534084     -1.6943331      17973.599    
    897000   1.0500279      0.0023323615  -8.2900583e-05  20.324905      18.765614      1.5592914     -1.7479332      17845.159    
    898000   1.0494852      0.0023323615  -0.0019217637   20.586804      19.028318      1.5584855     -1.6024763      17839.874    
    899000   0.96962465     0.0023323615  -0.0034194492   20.567633      19.12774       1.4398926     -1.5771495      17875.76     
    900000   1.130164       0.0023323615   0.0011748023   20.689468      19.011175      1.6782935     -1.5875306      18014.495    
    901000   1.0483712      0.0023323615  -0.0012891957   20.523944      18.967112      1.5568312     -1.5396485      17977.549    
    902000   0.99939103     0.0023323615   0.0063894013   20.429934      18.945839      1.4840957     -1.6324675      18027.846    
    903000   0.98414212     0.0023323615  -0.00025392201  20.343949      18.882498      1.461451      -1.6529574      18093.316    
    904000   1.0421469      0.0023323615  -0.0037406641   20.334417      18.786829      1.5475882     -1.6794512      17860.435    
    905000   1.0859499      0.0023323615   0.0024656429   20.420001      18.807366      1.6126356     -1.8379599      17901.668    
    906000   0.89809865     0.0023323615   0.00056179261  20.169912      18.836235      1.3336765     -1.8533931      17956.132    
    907000   0.88903725     0.0023323615  -0.0031601171   20.013178      18.692958      1.3202203     -1.7518209      18013.718    
    908000   0.97076721     0.0023323615  -0.0014952971   20.359248      18.917659      1.4415893     -1.5602996      18049.727    
    909000   0.95572675     0.0023323615  -0.00075461389  20.07009       18.650836      1.4192542     -1.8568957      18007.521    
    910000   0.93432841     0.0023323615  -9.1670992e-05  20.133118      18.74564       1.3874777     -1.7820761      18033.712    
    911000   0.93265774     0.0023323615   0.0017583062   20.147123      18.762126      1.3849967     -1.8315647      17942.434    
    912000   1.023493       0.0023323615   0.0060016067   20.043104      18.523217      1.5198871     -1.9941771      18065.222    
    913000   0.87138681     0.0023323615  -0.002523891    20.018953      18.724944      1.2940094     -1.7949441      18022.924    
    914000   0.98163663     0.0023323615   0.00084457751  20.185688      18.727957      1.4577304     -1.8273245      17988.889    
    915000   1.0148695      0.0023323615   0.002623114    20.453458      18.946377      1.5070811     -1.6336859      17934.513    
    916000   0.92709361     0.0023323615  -0.003896416    20.289019      18.912285      1.376734      -1.6090863      17953.455    
    917000   0.84889187     0.0023323615  -0.0015350801   20.218011      18.957406      1.2606044     -1.6242969      17769.098    
    918000   1.0483946      0.0023323615   0.0024298303   20.231831      18.674965      1.556866      -1.7602112      18080.612    
    919000   1.0665804      0.0023323615   0.0016535514   20.666006      19.082135      1.5838719     -1.4116825      18006.182    
    920000   1.0208653      0.0023323615   0.0034259481   20.215885      18.6999        1.5159849     -1.6911689      18098.988    
    921000   1.1883364      0.0023323615   0.00062025939  20.675682      18.911003      1.7646795     -1.6628048      18067.949    
    922000   1.1009667      0.0023323615   0.0015512581   20.398506      18.76357       1.6349356     -1.6728203      18109.151    
    923000   0.99711166     0.0023323615  -0.0023890327   19.978755      18.498045      1.4807108     -1.977196       17932.492    
    924000   0.96969448     0.0023323615  -0.0021402761   20.318945      18.878948      1.4399963     -1.7006636      17933.513    
    925000   0.85381396     0.0023323615  -0.00041149044  20.013735      18.745821      1.2679137     -1.816541       17989.375    
    926000   0.94461734     0.0023323615   0.0016079623   20.030324      18.627567      1.4027568     -1.8567033      18006.602    
    927000   1.0927682      0.0023323615   0.0010429268   20.438553      18.815792      1.6227607     -1.5892         18320.458    
    928000   1.0093637      0.0023323615  -0.0011741293   20.372595      18.87369       1.4989051     -1.583146       18331.1      
    929000   0.86925552     0.0023323615  -0.003024302    20.152499      18.861655      1.2908445     -1.6821177      18171.197    
    930000   0.92213439     0.0023323615  -0.0032748168   20.306539      18.93717       1.3693696     -1.6799742      18025.01     
    931000   1.0952788      0.0023323615   0.0023637032   20.169038      18.542548      1.626489      -1.8148099      18091.43     
    932000   0.87590371     0.0023323615   0.0013504976   20.133151      18.832434      1.300717      -1.6748506      18014.635    
    933000   1.0302173      0.0023323615  -0.0023062999   20.41471       18.884837      1.5298727     -1.5557136      18120.464    
    934000   0.95011893     0.0023323615   0.0019210554   20.082836      18.67191       1.4109266     -1.8336242      18139.818    
    935000   0.95960995     0.0023323615   0.00018963128  20.134627      18.709606      1.4250208     -1.8434108      18020.054    
    936000   1.2592307      0.0023323615  -0.00082120657  20.846822      18.976865      1.8699576     -1.6170355      18141.512    
    937000   0.90735677     0.0023323615   0.0058493666   19.863616      18.516191      1.3474248     -1.8851522      17992.728    
    938000   0.79521728     0.0023323615   0.00022368614  19.881875      18.700978      1.1808977     -1.8311606      17939.518    
    939000   0.95866712     0.0023323615   0.0013113148   20.260126      18.836506      1.4236207     -1.6063184      18091.502    
    940000   0.97505461     0.0023323615  -0.0034928171   20.662987      19.215031      1.4479561     -1.3326444      18046.884    
    941000   1.074481       0.0023323615  -3.7078928e-05  19.969542      18.373937      1.5956043     -1.9648504      18116.422    
    942000   0.96097891     0.0023323615  -0.00073192532  20.389525      18.962472      1.4270537     -1.6774001      18196.546    
    943000   0.95326864     0.0023323615  -0.0017307959   20.495909      19.080305      1.4156039     -1.5128513      18389.477    
    944000   0.9868902      0.0023323615  -0.004818615    20.317681      18.852149      1.4655319     -1.7485666      18206.315    
    945000   0.98758269     0.0023323615   0.001734433    20.172389      18.705829      1.4665603     -1.7705779      18148.02     
    946000   0.95223311     0.0023323615   0.0059486337   20.618245      19.204179      1.4140662     -1.3565288      18280.727    
    947000   0.97765122     0.0023323615  -0.00041840065  20.332731      18.880919      1.4518121     -1.6394932      18143.376    
    948000   1.0214856      0.0023323615   0.0040014439   20.356693      18.839787      1.5169061     -1.6242785      18081.444    
    949000   0.91202403     0.0023323615  -0.0021040831   20.277804      18.923448      1.3543557     -1.5652284      18109.641    
    950000   0.85648374     0.0023323615  -0.006204243    20.039378      18.7675        1.2718784     -1.7926434      18032.207    
    951000   0.98606249     0.0023323615   0.00044480512  20.299277      18.834975      1.4643028     -1.6694359      18045.445    
    952000   0.93747386     0.0023323615   0.0017656651   20.12843       18.736282      1.3921487     -1.7396228      18070.15     
    953000   1.028069       0.0023323615  -2.8358877e-05  20.28472       18.758037      1.5266825     -1.7438985      17863.296    
    954000   1.0085519      0.0023323615  -0.0023276858   20.504662      19.006963      1.4976995     -1.6985624      17703.81     
    955000   0.98228157     0.0023323615  -0.00022150226  20.053795      18.595106      1.4586881     -1.9091082      17900.297    
    956000   0.84327265     0.0023323615  -7.4619768e-05  20.09599       18.84373       1.2522599     -1.5946848      17744.717    
    957000   0.92951658     0.0023323615  -0.0031476929   20.198006      18.817673      1.3803321     -1.6174947      17908.744    
    958000   1.1831514      0.0023323615  -0.0021725693   20.707352      18.950372      1.7569798     -1.6063097      17935.041    
    959000   1.1410647      0.0023323615  -0.00089423616  20.497386      18.802905      1.6944811     -1.7830596      18009.617    
    960000   0.99272878     0.0023323615   0.0048266648   20.425974      18.951772      1.4742022     -1.7552441      17939.186    
    961000   0.92905732     0.0023323615  -0.0026594727   20.083098      18.703448      1.3796501     -1.7262036      17890.992    
    962000   0.98413622     0.0023323615  -0.0025566036   20.220937      18.759494      1.4614423     -1.7600199      17930.35     
    963000   0.93258607     0.0023323615  -0.0027036808   19.972682      18.587791      1.3848903     -1.9265498      17924.322    
    964000   1.0450332      0.0023323615   0.00095527546  20.404154      18.85228       1.5518742     -1.6466622      17929.039    
    965000   1.0990318      0.0023323615   0.00045736211  20.270053      18.637991      1.6320622     -1.8482912      18144.889    
    966000   0.97963348     0.0023323615   0.00025543317  20.151455      18.6967        1.4547557     -1.890894       17991.678    
    967000   0.81839799     0.0023323615  -0.0012048739   20.13463       18.919309      1.215321      -1.528597       18067.511    
    968000   1.0098036      0.0023323615   0.001322564    20.49525       18.995692      1.4995584     -1.5204849      18052.192    
    969000   1.0180819      0.0023323615  -0.0028372455   20.310253      18.798402      1.5118516     -1.7607292      18022.862    
    970000   0.94454412     0.0023323615  -0.00087204378  20.181987      18.779339      1.402648      -1.6890471      18169.649    
    971000   0.9100268      0.0023323615  -0.001003961    20.328138      18.976748      1.3513898     -1.7059141      18094.798    
    972000   1.068632       0.0023323615  -0.0025850878   20.548565      18.961647      1.5869186     -1.58673        18428.118    
    973000   0.94816151     0.0023323615  -0.00076596024  20.312301      18.904281      1.4080198     -1.6381345      18353.174    
    974000   0.95818663     0.0023323615   0.0024729529   20.375402      18.952495      1.4229071     -1.5369401      18471.668    
    975000   0.85478077     0.0023323615   0.00097338244  20.154421      18.885071      1.2693494     -1.728637       18400.956    
    976000   0.995077       0.0023323615   0.0027104288   20.134478      18.656789      1.4776893     -1.8314369      18173.153    
    977000   1.070326       0.0023323615   0.0003265733   20.366351      18.776916      1.5894341     -1.7869077      18364.041    
    978000   0.9540907      0.0023323615  -0.00030932389  20.244553      18.827729      1.4168247     -1.5905029      18333.882    
    979000   0.99971368     0.0023323615   0.0020900533   20.352391      18.867817      1.4845748     -1.5494559      18323.142    
    980000   0.93623432     0.0023323615   0.00084055928  19.984846      18.594538      1.390308      -1.8454914      18469.166    
    981000   0.89259145     0.0023323615   0.0015764235   20.003502      18.678003      1.3254983     -1.8107092      18512.056    
    982000   1.1863631      0.0023323615   0.0020432807   20.796508      19.034758      1.7617492     -1.5265974      18480.896    
    983000   0.99485915     0.0023323615   0.0086060376   20.217878      18.740512      1.4773658     -1.7738198      18446.887    
    984000   0.98834999     0.0023323615  -0.00068322143  20.166885      18.699185      1.4676997     -1.792763       18487.862    
    985000   1.0449473      0.0023323615  -0.002028468    20.367712      18.815966      1.5517467     -1.6614649      18376.27     
    986000   1.0372719      0.0023323615  -0.0043154436   20.291264      18.750916      1.5403488     -1.8774506      18252.439    
    987000   0.83451169     0.0023323615  -0.0013875722   20.030291      18.791041      1.2392499     -1.6711299      18274.679    
    988000   1.1994595      0.0023323615   0.0013504091   20.448704      18.667507      1.7811974     -1.8963459      18380.622    
    989000   1.1372295      0.0023323615  -0.0042702369   20.502052      18.813267      1.6887858     -1.750791       18371.643    
    990000   0.95542324     0.0023323615   0.0030355374   20.060067      18.641263      1.4188035     -1.7949572      18606.469    
    991000   1.1361095      0.0023323615   0.0012740399   20.496334      18.809211      1.6871226     -1.7482716      18501.374    
    992000   0.90677398     0.0023323615  -4.2720922e-05  20.164882      18.818323      1.3465594     -1.7278027      18584.19     
    993000   0.98627721     0.0023323615   0.0021598712   20.216789      18.752167      1.4646217     -1.8359546      18321.363    
    994000   0.90953266     0.0023323615   0.0035551243   20.476544      19.125888      1.350656      -1.3853281      18292.144    
    995000   1.0437487      0.0023323615   0.0006261221   20.567629      19.017663      1.5499669     -1.5107032      18359.521    
    996000   0.95402859     0.0023323615   0.0026659239   20.30845       18.891717      1.4167325     -1.6510502      18309.875    
    997000   0.98283593     0.0023323615  -0.0038772576   20.31043       18.850919      1.4595114     -1.649341       18419.235    
    998000   0.97977956     0.0023323615   0.0021588635   20.368836      18.913864      1.4549726     -1.5347826      18354.582    
    999000   0.98698505     0.0023323615   0.0020334763   20.339258      18.873585      1.4656728     -1.6054211      18333.299    
   1000000   0.96677102     0.0023323615  -0.0015964354   20.274451      18.838796      1.435655      -1.6019372      18169.934    
Loop time of 55.1004 on 1 procs for 1000000 steps with 100 atoms

Performance: 7840232.213 tau/day, 18148.686 timesteps/s
99.3% CPU use with 1 MPI tasks x 1 OpenMP threads

MPI task timing breakdown:
Section |  min time  |  avg time  |  max time  |%varavg| %total
---------------------------------------------------------------
Pair    | 46.061     | 46.061     | 46.061     |   0.0 | 83.59
Bond    | 1.2777     | 1.2777     | 1.2777     |   0.0 |  2.32
Neigh   | 3.7939     | 3.7939     | 3.7939     |   0.0 |  6.89
Comm    | 1.3743     | 1.3743     | 1.3743     |   0.0 |  2.49
Output  | 0.29068    | 0.29068    | 0.29068    |   0.0 |  0.53
Modify  | 1.9495     | 1.9495     | 1.9495     |   0.0 |  3.54
Other   |            | 0.3538     |            |       |  0.64

Nlocal:            100 ave         100 max         100 min
Histogram: 1 0 0 0 0 0 0 0 0 0
Nghost:            344 ave         344 max         344 min
Histogram: 1 0 0 0 0 0 0 0 0 0
Neighs:           4851 ave        4851 max        4851 min
Histogram: 1 0 0 0 0 0 0 0 0 0

Total # of neighbors = 4851
Ave neighs/atom = 48.51
Ave special neighs/atom = 1.98
Neighbor list builds = 97817
Dangerous builds = 79385

write_data      ${outputfile_assembled} nofix nocoeff
write_data      7_assembled.data nofix nocoeff
System init for write_data ...
Generated 0 of 6 mixed pair_coeff terms from geometric mixing rule

Total wall time: 0:00:56
