LAMMPS (23 Jun 2022 - Update 1)
OMP_NUM_THREADS environment is not set. Defaulting to 1 thread. (src/comm.cpp:98)
  using 1 OpenMP thread(s) per MPI task


variable        runtime equal 1000000
variable		subsample_rate equal 1000

variable		outputfile_created string '3_created.data'
variable		outputfile_relaxed string '5_relaxed.data'
variable		outputfile_selfasb string '6_a_self_assemble.lammpstrj'
variable		outputfile_trajlin string '6_b_trajlin.data'
variable		outputfile_assembled string '7_assembled.data'

units           lj
atom_style      full
dimension       3
boundary        p p p
timestep        0.005

read_data       ${outputfile_created}
read_data       3_created.data
Reading data file ...
  orthogonal box = (0 0 0) to (35 35 35)
  1 by 1 by 1 MPI processor grid
  reading atoms ...
  100 atoms
  reading velocities ...
  100 velocities
  scanning bonds ...
  1 = max bonds/atom
  reading bonds ...
  99 bonds
Finding 1-2 1-3 1-4 neighbors ...
  special bond factors lj:    0        0        0       
  special bond factors coul:  0        0        0       
     2 = max # of 1-2 neighbors
     2 = max # of 1-3 neighbors
     4 = max # of 1-4 neighbors
     6 = max # of special neighbors
  special bonds CPU = 0.000 seconds
  read_data CPU = 0.006 seconds

bond_style      fene
bond_coeff      * 30.0 1.5 1.0 1.0
special_bonds   fene
Finding 1-2 1-3 1-4 neighbors ...
  special bond factors lj:    0        1        1       
  special bond factors coul:  0        1        1       
     2 = max # of 1-2 neighbors
     6 = max # of special neighbors
  special bonds CPU = 0.000 seconds

variable        Temp equal 1.0
variable        velSeed equal 926458

velocity        all create ${Temp} ${velSeed}
velocity        all create 1 ${velSeed}
velocity        all create 1 926458

### Output
thermo_style    custom step temp density press etotal pe ke epair spcpu
thermo          1000

###########################################################################
# Soft relaxation (to remove overlaps of particles)
######################################################################

pair_style      soft 1.0
pair_coeff      * * 0.0
variable        prefactor equal ramp(0,300)
fix             rampSoft all adapt 1 pair soft a * * v_prefactor

minimize        0.0 1.0e-8 1000 100000
WARNING: Using 'neigh_modify every 1 delay 0 check yes' setting during minimization (src/min.cpp:187)
Generated 0 of 6 mixed pair_coeff terms from geometric mixing rule
Neighbor list info ...
  update every 1 steps, delay 0 steps, check yes
  max neighbors/atom: 2000, page size: 100000
  master list distance cutoff = 1.3
  ghost atom cutoff = 1.3
  binsize = 0.65, bins = 54 54 54
  1 neighbor lists, perpetual/occasional/extra = 1 0 0
  (1) pair soft, perpetual
      attributes: half, newton on
      pair build: half/bin/newton
      stencil: half/bin/3d
      bin: standard
WARNING: Communication cutoff 1.3 is shorter than a bond length based estimate of 1.7550000000000001. This may lead to errors. (src/comm.cpp:727)
Per MPI rank memory allocation (min/avg/max) = 8.346 | 8.346 | 8.346 Mbytes
   Step          Temp         Density         Press          TotEng         PotEng         KinEng         E_pair         S/CPU     
         0   1              0.0023323615  -0.0039617958   21.524174      20.039174      1.485          0              0            
       362   1              0.0023323615   0.0023090379   21.485548      20.000548      1.485          0              65558.463    
Loop time of 0.00552603 on 1 procs for 362 steps with 100 atoms

93.6% CPU use with 1 MPI tasks x 1 OpenMP threads

Minimization stats:
  Stopping criterion = force tolerance
  Energy initial, next-to-last, final = 
      20.0391741078675   20.0005480767337   20.0005480767337
  Force two-norm initial, final = 11.878422 7.9509778e-09
  Force max component initial, final = 6.6117807 1.3572772e-09
  Final line search alpha, max atom move = 1 1.3572772e-09
  Iterations, force evaluations = 362 738

MPI task timing breakdown:
Section |  min time  |  avg time  |  max time  |%varavg| %total
---------------------------------------------------------------
Pair    | 0.00021678 | 0.00021678 | 0.00021678 |   0.0 |  3.92
Bond    | 0.0023467  | 0.0023467  | 0.0023467  |   0.0 | 42.47
Neigh   | 0.0017925  | 0.0017925  | 0.0017925  |   0.0 | 32.44
Comm    | 0.00018801 | 0.00018801 | 0.00018801 |   0.0 |  3.40
Output  | 0          | 0          | 0          |   0.0 |  0.00
Modify  | 0          | 0          | 0          |   0.0 |  0.00
Other   |            | 0.0009821  |            |       | 17.77

Nlocal:            100 ave         100 max         100 min
Histogram: 1 0 0 0 0 0 0 0 0 0
Nghost:             20 ave          20 max          20 min
Histogram: 1 0 0 0 0 0 0 0 0 0
Neighs:              0 ave           0 max           0 min
Histogram: 1 0 0 0 0 0 0 0 0 0

Total # of neighbors = 0
Ave neighs/atom = 0
Ave special neighs/atom = 1.98
Neighbor list builds = 17
Dangerous builds = 0

fix             nvtSoft all nvt temp ${Temp} ${Temp} 0.5
fix             nvtSoft all nvt temp 1 ${Temp} 0.5
fix             nvtSoft all nvt temp 1 1 0.5
run             100000
Generated 0 of 6 mixed pair_coeff terms from geometric mixing rule
WARNING: Communication cutoff 1.3 is shorter than a bond length based estimate of 1.7550000000000001. This may lead to errors. (src/comm.cpp:727)
Per MPI rank memory allocation (min/avg/max) = 7.221 | 7.221 | 7.221 Mbytes
   Step          Temp         Density         Press          TotEng         PotEng         KinEng         E_pair         S/CPU     
       362   1              0.0023323615   0.0023090379   21.485548      20.000548      1.485          0              0            
      1000   0.90989032     0.0023323615  -0.0021940042   21.776974      20.425787      1.3511871      0.00036425437  77951.274    
      2000   0.86546688     0.0023323615   0.0034714157   21.677128      20.39191       1.2852183      0.0025814786   73817.234    
      3000   0.98199538     0.0023323615   0.0028144228   21.866132      20.407869      1.4582631      0.0011756043   74177.048    
      4000   1.004495       0.0023323615  -0.0014058211   21.945624      20.453949      1.4916751      0.011986179    74123.501    
      5000   1.1222705      0.0023323615   0.0044495116   21.986385      20.319813      1.6665718      0.0050317639   74639.332    
      6000   1.0538243      0.0023323615   0.0023957538   21.985713      20.420784      1.564929       0.012100514    75538.714    
      7000   1.0210598      0.0023323615  -0.00038820026  21.904665      20.388391      1.5162738      0              76830.597    
      8000   0.94819751     0.0023323615   0.0024943091   21.747889      20.339816      1.4080733      0              76932.161    
      9000   0.92364502     0.0023323615   0.0020053029   21.724166      20.352554      1.3716129      1.7780894e-05  76097.808    
     10000   0.86685188     0.0023323615   0.00078277366  21.644879      20.357604      1.287275       0.0098636418   76367.556    
     11000   1.0057103      0.0023323615   0.00010113276  21.8558        20.362321      1.4934798      0.020705341    75999.889    
     12000   0.97901664     0.0023323615  -0.0026996968   21.871206      20.417366      1.4538397      0.0052928539   75857.8      
     13000   0.97718436     0.0023323615  -6.1641422e-06  21.963706      20.512587      1.4511188      0.025022446    75619.296    
     14000   1.0530014      0.0023323615  -0.0009993112   21.947994      20.384287      1.5637071      0.0020860456   74913.207    
     15000   0.99094527     0.0023323615   0.0011068478   21.895146      20.423592      1.4715537      0.0015091113   76108.372    
     16000   0.91285091     0.0023323615  -0.00025424173  21.87524       20.519657      1.3555836      0.0047853639   75466.583    
     17000   0.82806978     0.0023323615  -0.00054698156  21.701984      20.472301      1.2296836      0              75920.575    
     18000   1.043278       0.0023323615  -6.6143919e-05  22.003299      20.454031      1.5492679      0.0034319132   76750.43     
     19000   1.0879249      0.0023323615  -0.0017804642   21.998985      20.383416      1.6155685      0.015376175    75277.788    
     20000   1.1144506      0.0023323615   0.0025198298   22.190904      20.535944      1.6549592      0              76362.593    
     21000   1.0427751      0.0023323615   0.0011345349   22.099492      20.550971      1.548521       0.00040047813  76292.665    
     22000   1.0586695      0.0023323615   0.0017882747   22.05673       20.484606      1.5721242      0              76101.005    
     23000   1.0058426      0.0023323615  -0.0055245362   21.954628      20.460951      1.4936763      0.0027619031   75370.162    
     24000   0.98273442     0.0023323615   0.0015147357   21.862067      20.402707      1.4593606      0              75692.182    
     25000   0.95835343     0.0023323615   0.0017808774   21.937761      20.514606      1.4231548      0.00020839942  75526.659    
     26000   0.93993778     0.0023323615  -0.0021777292   21.884849      20.489042      1.3958076      0.0088889834   75606.003    
     27000   0.9308188      0.0023323615  -0.00011239942  21.842252      20.459986      1.3822659      0.021612409    75224.858    
     28000   1.0149581      0.0023323615   0.0041996387   21.906846      20.399633      1.5072129      0.0064059022   75941.781    
     29000   0.92841138     0.0023323615  -2.5398808e-05  21.987185      20.608494      1.3786909      0.0046112484   75827.193    
     30000   1.021043       0.0023323615   0.001589158    22.097958      20.581709      1.5162489      0.016799508    73338.747    
     31000   1.0465985      0.0023323615  -0.0021744286   22.037917      20.483718      1.5541987      0.0057879149   75925.601    
     32000   0.98907108     0.0023323615  -0.0015558606   22.044089      20.575318      1.4687705      0.009448173    75713.427    
     33000   1.0918536      0.0023323615  -0.0025643847   22.039275      20.417873      1.6214025      0              74604.568    
     34000   0.99801543     0.0023323615   0.0016279766   21.932339      20.450286      1.4820529      0.017384617    77422.44     
     35000   1.0352271      0.0023323615  -0.0052971711   22.076004      20.538692      1.5373122      0.00010473809  75778.553    
     36000   1.1141579      0.0023323615  -0.00093279925  22.222491      20.567966      1.6545245      0.00033678641  76804.172    
     37000   1.0369415      0.0023323615   0.00013065175  22.217841      20.677983      1.5398581      0.013788831    75965.705    
     38000   1.0515596      0.0023323615   0.0021717558   22.070766      20.5092        1.561566       0.0067894678   76448.8      
     39000   1.0238495      0.0023323615   0.00026414509  22.040141      20.519725      1.5204165      0.00044464649  75694.537    
     40000   1.0749111      0.0023323615  -0.0026849368   22.039327      20.443084      1.596243       0.012651334    73959.94     
     41000   0.99070886     0.0023323615  -0.0030385564   22.03241       20.561207      1.4712027      0.00092855646  77260.151    
     42000   0.95315224     0.0023323615   0.0019788197   21.965263      20.549832      1.4154311      0.020233689    75595.412    
     43000   1.0644183      0.0023323615  -0.0011168725   22.287172      20.706511      1.5806611      0.039694129    75485.473    
     44000   1.0253747      0.0023323615  -0.006676522    22.066233      20.543552      1.5226814      0              68787.689    
     45000   0.94179556     0.0023323615  -0.0047206018   21.970644      20.572077      1.3985664      0.019869988    74732.099    
     46000   1.0083495      0.0023323615  -0.0017646918   21.972114      20.474715      1.497399       0.00026040605  75427.461    
     47000   0.98767959     0.0023323615  -0.00080218158  22.091674      20.62497       1.4667042      0.024266258    75276.655    
     48000   1.1473449      0.0023323615  -0.0025885687   22.080512      20.376705      1.7038072      0.00065962995  75689.713    
     49000   1.0679312      0.0023323615   0.0017688272   21.970482      20.384604      1.5858779      0.014142422    76832.019    
     50000   0.9581935      0.0023323615   0.0014398836   21.955202      20.532284      1.4229173      0.0055011948   76183.134    
     51000   1.0215759      0.0023323615  -0.00093292688  21.934681      20.41764       1.5170402      0              76163.597    
     52000   0.98079591     0.0023323615   0.0040701936   21.977374      20.520892      1.4564819      0.0020862422   76864.618    
     53000   1.0090927      0.0023323615   0.0013324753   22.095438      20.596935      1.4985027      0              76006.37     
     54000   0.97519627     0.0023323615   0.0013260734   22.070151      20.621984      1.4481665      0.026885444    76971.433    
     55000   1.1805087      0.0023323615  -0.001586238    22.424088      20.671033      1.7530554      0.024690954    76649.991    
     56000   0.98387121     0.0023323615   0.0037155145   22.104425      20.643376      1.4610487      0.01435493     76289.871    
     57000   1.0723812      0.0023323615  -0.0037916262   22.122726      20.53024       1.592486       0.013635549    76555.516    
     58000   1.0152349      0.0023323615   0.00021908047  22.082827      20.575203      1.5076238      0.00077375639  76561.629    
     59000   1.1424502      0.0023323615  -0.0052108657   22.30072       20.604182      1.6965385      0.013308184    77378.742    
     60000   1.0359703      0.0023323615  -0.00097887545  22.188218      20.649802      1.538416       0.00011346294  75642.851    
     61000   1.1646839      0.0023323615  -0.002085017    22.239945      20.51039       1.7295556      0.012918477    77949.559    
     62000   1.101836       0.0023323615   0.0010338878   22.171386      20.53516       1.6362265      0.001396566    76686.981    
     63000   0.96616435     0.0023323615   0.00097550571  21.903821      20.469067      1.4347541      0.013027663    77998.472    
     64000   1.0068907      0.0023323615  -0.0020278726   22.061652      20.566419      1.4952327      0.013750276    76388.364    
     65000   0.98723233     0.0023323615   0.0022441476   22.031073      20.565033      1.46604        0.0066686189   77073.542    
     66000   1.0273881      0.0023323615  -0.0003515278   22.183579      20.657908      1.5256713      0              75197.372    
     67000   0.96528212     0.0023323615  -0.00014822656  21.9396        20.506156      1.4334439      0.010365557    77149.618    
     68000   1.069702       0.0023323615   9.4754668e-05  22.081119      20.492611      1.5885075      0.00049153926  74367.777    
     69000   1.1229502      0.0023323615   0.0011504079   22.200329      20.532748      1.6675811      0.0068454249   77046.648    
     70000   1.0062775      0.0023323615  -0.00085311964  22.094021      20.599699      1.4943221      0.013222355    75361.625    
     71000   1.0906935      0.0023323615   0.00015260357  22.145362      20.525682      1.6196798      0.018338513    76097.35     
     72000   1.010401       0.0023323615  -6.0487182e-06  22.154105      20.653659      1.5004455      0.0013793953   74845.011    
     73000   1.1177599      0.0023323615  -0.0034084797   22.254435      20.594562      1.6598735      0.00011231735  77689.097    
     74000   0.9768019      0.0023323615   0.00016143893  22.07312       20.622569      1.4505508      0.0084515956   75912.95     
     75000   1.1360996      0.0023323615   0.002159116    22.161595      20.474487      1.6871079      0.0089909162   76640.638    
     76000   0.97379329     0.0023323615  -0.00068458621  21.988928      20.542845      1.446083       0              75840.851    
     77000   0.94876793     0.0023323615  -0.0016073976   21.923496      20.514575      1.4089204      0.017745108    75979.297    
     78000   0.83947996     0.0023323615  -0.00062768559  21.726727      20.480099      1.2466277      0.0054510099   76422.171    
     79000   1.0090614      0.0023323615  -0.00080262643  22.068192      20.569736      1.4984562      0.00023011166  77215.623    
     80000   1.1217643      0.0023323615  -0.0038177864   22.367902      20.702082      1.66582        0.032902439    76454.189    
     81000   1.0240158      0.0023323615   0.00023547123  22.031597      20.510933      1.5206635      0.0068767308   75947.958    
     82000   1.003236       0.0023323615  -0.0022802982   21.894199      20.404393      1.4898055      0.019136282    75010.601    
     83000   1.0554159      0.0023323615   0.004011718    22.104562      20.537269      1.5672927      0.0080869707   74841.308    
     84000   0.83527346     0.0023323615  -0.0034122221   21.874648      20.634267      1.2403811      0.0030083664   76066.319    
     85000   1.036002       0.0023323615   0.0013573923   21.962923      20.42446       1.5384629      0.015709144    76750.548    
     86000   0.9432002      0.0023323615  -0.0032183248   21.913588      20.512936      1.4006523      0.013730309    76671.723    
     87000   0.95566008     0.0023323615  -0.00049614223  21.91653       20.497375      1.4191552      0.0035862035   75664.52     
     88000   0.93373351     0.0023323615  -0.00097093893  21.870485      20.483891      1.3865943      0.0018212145   75420.964    
     89000   0.9684944      0.0023323615  -0.00047342045  21.973429      20.535215      1.4382142      0.00087524744  75620.331    
     90000   0.98293324     0.0023323615  -0.0032204602   22.050919      20.591263      1.4596559      0.015353933    77041.65     
     91000   1.0832827      0.0023323615   0.0048517083   22.11977       20.511095      1.6086749      0.0052867789   77927.229    
     92000   0.85899662     0.0023323615  -0.0013049519   21.765697      20.490087      1.27561        0.0024124001   76741.931    
     93000   0.96176266     0.0023323615  -4.4223672e-05  21.874222      20.446004      1.4282176      0.0045653365   77587.458    
     94000   0.96019503     0.0023323615   0.00024459347  21.944954      20.519064      1.4258896      3.8053462e-05  76823.856    
     95000   0.94702149     0.0023323615  -0.0033658915   21.86315       20.456823      1.4063269      0              77491.747    
     96000   0.91119348     0.0023323615  -0.0013197298   21.825018      20.471896      1.3531223      0.00043282989  76304.447    
     97000   1.0016687      0.0023323615  -0.0019514304   22.013024      20.525546      1.487478       0.0048369955   75790.407    
     98000   1.02143        0.0023323615  -0.0057874974   22.177965      20.661142      1.5168235      0              74790.612    
     99000   1.032786       0.0023323615   0.0018228259   21.975336      20.441649      1.5336871      7.1595851e-05  77708.633    
    100000   1.0594928      0.0023323615   0.0036169719   22.011024      20.437677      1.5733468      0.00032948157  76066.787    
    100362   1.1904942      0.0023323615  -0.00089755607  22.316856      20.548972      1.7678839      0.00063845255  75572.204    
Loop time of 1.31647 on 1 procs for 100000 steps with 100 atoms

Performance: 32815124.907 tau/day, 75960.937 timesteps/s
99.3% CPU use with 1 MPI tasks x 1 OpenMP threads

MPI task timing breakdown:
Section |  min time  |  avg time  |  max time  |%varavg| %total
---------------------------------------------------------------
Pair    | 0.050778   | 0.050778   | 0.050778   |   0.0 |  3.86
Bond    | 0.12642    | 0.12642    | 0.12642    |   0.0 |  9.60
Neigh   | 0.80306    | 0.80306    | 0.80306    |   0.0 | 61.00
Comm    | 0.055698   | 0.055698   | 0.055698   |   0.0 |  4.23
Output  | 0.0011316  | 0.0011316  | 0.0011316  |   0.0 |  0.09
Modify  | 0.24623    | 0.24623    | 0.24623    |   0.0 | 18.70
Other   |            | 0.03314    |            |       |  2.52

Nlocal:            100 ave         100 max         100 min
Histogram: 1 0 0 0 0 0 0 0 0 0
Nghost:             60 ave          60 max          60 min
Histogram: 1 0 0 0 0 0 0 0 0 0
Neighs:             36 ave          36 max          36 min
Histogram: 1 0 0 0 0 0 0 0 0 0

Total # of neighbors = 36
Ave neighs/atom = 0.36
Ave special neighs/atom = 1.98
Neighbor list builds = 9821
Dangerous builds = 8265
unfix           nvtSoft
unfix           rampSoft
reset_timestep  0

write_data      ${outputfile_relaxed}
write_data      5_relaxed.data
System init for write_data ...
Generated 0 of 6 mixed pair_coeff terms from geometric mixing rule
WARNING: Communication cutoff 1.3 is shorter than a bond length based estimate of 1.7550000000000001. This may lead to errors. (src/comm.cpp:727)
WARNING: Not all mixed pair coeffs generated from mixing. Use write_data with 'pair ij' option to store all pair coeffs. (src/write_data.cpp:309)

###########################################################################
# Full LJ with Coulomb
######################################################################

# Cutoffs and parameters:
# - Values: Marcel Verkade's Bachelor Thesis
# - Mapping to atom groups: Patrick Onck's paper
# - 1: aliphatic, 2: aromatic, 3: anion, 4: cation
# pair_style	lj/cut/coul/cut <lj_cut_global> <coul_cut_global>
# pair_coeff	<type_1>  <type_2>  <eps>  <sigma>  <r_cut_lj>  <r_cut_coul>

# Problem: Onck's model is much more complex, and Marcel has no sigma reported
# Using sigma=1 randomly

variable		glob_ljeps equal 1.0
variable		glob_ljsig 	equal 1.0
variable		glob_coulcut equal 10.0
variable		att_ljcut equal 2.50
variable		rep_ljcut equal 1.12

pair_style		lj/cut/coul/cut 						${att_ljcut} 	${glob_coulcut}
pair_style		lj/cut/coul/cut 						2.5 	${glob_coulcut}
pair_style		lj/cut/coul/cut 						2.5 	10
pair_coeff		1 1 	${glob_ljeps} 	${glob_ljsig}	${att_ljcut} 	${glob_coulcut}
pair_coeff		1 1 	1 	${glob_ljsig}	${att_ljcut} 	${glob_coulcut}
pair_coeff		1 1 	1 	1	${att_ljcut} 	${glob_coulcut}
pair_coeff		1 1 	1 	1	2.5 	${glob_coulcut}
pair_coeff		1 1 	1 	1	2.5 	10
pair_coeff		1 2 	${glob_ljeps} 	${glob_ljsig}	${att_ljcut} 	${glob_coulcut}
pair_coeff		1 2 	1 	${glob_ljsig}	${att_ljcut} 	${glob_coulcut}
pair_coeff		1 2 	1 	1	${att_ljcut} 	${glob_coulcut}
pair_coeff		1 2 	1 	1	2.5 	${glob_coulcut}
pair_coeff		1 2 	1 	1	2.5 	10
pair_coeff		1 3 	${glob_ljeps} 	${glob_ljsig}	${rep_ljcut} 	${glob_coulcut}
pair_coeff		1 3 	1 	${glob_ljsig}	${rep_ljcut} 	${glob_coulcut}
pair_coeff		1 3 	1 	1	${rep_ljcut} 	${glob_coulcut}
pair_coeff		1 3 	1 	1	1.12 	${glob_coulcut}
pair_coeff		1 3 	1 	1	1.12 	10
pair_coeff		1 4 	${glob_ljeps} 	${glob_ljsig}	${rep_ljcut} 	${glob_coulcut}
pair_coeff		1 4 	1 	${glob_ljsig}	${rep_ljcut} 	${glob_coulcut}
pair_coeff		1 4 	1 	1	${rep_ljcut} 	${glob_coulcut}
pair_coeff		1 4 	1 	1	1.12 	${glob_coulcut}
pair_coeff		1 4 	1 	1	1.12 	10
pair_coeff		2 2 	${glob_ljeps} 	${glob_ljsig}	${att_ljcut} 	${glob_coulcut}
pair_coeff		2 2 	1 	${glob_ljsig}	${att_ljcut} 	${glob_coulcut}
pair_coeff		2 2 	1 	1	${att_ljcut} 	${glob_coulcut}
pair_coeff		2 2 	1 	1	2.5 	${glob_coulcut}
pair_coeff		2 2 	1 	1	2.5 	10
pair_coeff		2 3 	${glob_ljeps} 	${glob_ljsig}	${rep_ljcut} 	${glob_coulcut}
pair_coeff		2 3 	1 	${glob_ljsig}	${rep_ljcut} 	${glob_coulcut}
pair_coeff		2 3 	1 	1	${rep_ljcut} 	${glob_coulcut}
pair_coeff		2 3 	1 	1	1.12 	${glob_coulcut}
pair_coeff		2 3 	1 	1	1.12 	10
pair_coeff		2 4 	${glob_ljeps} 	${glob_ljsig}	${att_ljcut} 	${glob_coulcut}
pair_coeff		2 4 	1 	${glob_ljsig}	${att_ljcut} 	${glob_coulcut}
pair_coeff		2 4 	1 	1	${att_ljcut} 	${glob_coulcut}
pair_coeff		2 4 	1 	1	2.5 	${glob_coulcut}
pair_coeff		2 4 	1 	1	2.5 	10
pair_coeff		3 3 	${glob_ljeps} 	${glob_ljsig}	${rep_ljcut} 	${glob_coulcut}
pair_coeff		3 3 	1 	${glob_ljsig}	${rep_ljcut} 	${glob_coulcut}
pair_coeff		3 3 	1 	1	${rep_ljcut} 	${glob_coulcut}
pair_coeff		3 3 	1 	1	1.12 	${glob_coulcut}
pair_coeff		3 3 	1 	1	1.12 	10
pair_coeff		3 4 	${glob_ljeps} 	${glob_ljsig}	${att_ljcut} 	${glob_coulcut}
pair_coeff		3 4 	1 	${glob_ljsig}	${att_ljcut} 	${glob_coulcut}
pair_coeff		3 4 	1 	1	${att_ljcut} 	${glob_coulcut}
pair_coeff		3 4 	1 	1	2.5 	${glob_coulcut}
pair_coeff		3 4 	1 	1	2.5 	10
pair_coeff		4 4 	${glob_ljeps} 	${glob_ljsig}	${rep_ljcut} 	${glob_coulcut}
pair_coeff		4 4 	1 	${glob_ljsig}	${rep_ljcut} 	${glob_coulcut}
pair_coeff		4 4 	1 	1	${rep_ljcut} 	${glob_coulcut}
pair_coeff		4 4 	1 	1	1.12 	${glob_coulcut}
pair_coeff		4 4 	1 	1	1.12 	10


fix             noDriftRot 	all momentum 10 linear 1 1 1 angular
fix             nvt1 		all nvt temp ${Temp} ${Temp} 0.5
fix             nvt1 		all nvt temp 1 ${Temp} 0.5
fix             nvt1 		all nvt temp 1 1 0.5

# dump          assemble 	all custom 1000 				${outputfile_selfasb} id type xu yu zu vx vy vz
dump            lindump 	all custom ${subsample_rate} 	${outputfile_trajlin} id type xu yu zu vx vy vz
dump            lindump 	all custom 1000 	${outputfile_trajlin} id type xu yu zu vx vy vz
dump            lindump 	all custom 1000 	6_b_trajlin.data id type xu yu zu vx vy vz

run             ${runtime}
run             1000000
Generated 0 of 6 mixed pair_coeff terms from geometric mixing rule
Neighbor list info ...
  update every 1 steps, delay 10 steps, check yes
  max neighbors/atom: 2000, page size: 100000
  master list distance cutoff = 10.3
  ghost atom cutoff = 10.3
  binsize = 5.15, bins = 7 7 7
  1 neighbor lists, perpetual/occasional/extra = 1 0 0
  (1) pair lj/cut/coul/cut, perpetual
      attributes: half, newton on
      pair build: half/bin/newton
      stencil: half/bin/3d
      bin: standard
Per MPI rank memory allocation (min/avg/max) = 7.712 | 7.712 | 7.712 Mbytes
   Step          Temp         Density         Press          TotEng         PotEng         KinEng         E_pair         S/CPU     
         0   1.1904942      0.0023323615  -0.0014536595   21.957583      20.189699      1.7678839     -0.35863446     0            
      1000   1.0611168      0.0023323615   0.00049706655  21.422573      19.846814      1.5757584     -0.69821539     33476.568    
      2000   0.93636955     0.0023323615   0.00012226343  21.145718      19.75521       1.3905088     -0.72687305     31318.292    
      3000   0.99382873     0.0023323615   0.0057436248   20.784544      19.308709      1.4758357     -1.1506627      28117.325    
      4000   1.0349969      0.0023323615   0.00088068645  21.062754      19.525784      1.5369705     -0.99868772     22929.236    
      5000   1.0548881      0.0023323615   0.0018249792   20.474911      18.908402      1.5665088     -1.5790943      18972.301    
      6000   1.1245242      0.0023323615   0.0040682081   20.535757      18.865838      1.6699185     -1.6809504      18347.325    
      7000   0.8265219      0.0023323615  -0.0027933874   20.523038      19.295653      1.227385      -1.3479471      18282.511    
      8000   0.99226351     0.0023323615  -0.0030204164   20.569824      19.096313      1.4735113     -1.4455248      18486.348    
      9000   1.0402738      0.0023323615  -0.0024885183   20.514972      18.970166      1.5448066     -1.5497937      18386.344    
     10000   0.94872124     0.0023323615   0.0044790489   20.33411       18.925259      1.408851      -1.533544       18290.344    
     11000   1.0375298      0.0023323615   0.0038176377   20.133987      18.593255      1.5407317     -1.8451145      18444.504    
     12000   1.0844694      0.0023323615   0.0021515945   20.394078      18.783641      1.610437      -1.6988506      18301.945    
     13000   1.0110355      0.0023323615  -0.0026195724   20.251896      18.750508      1.5013878     -1.6985724      18301.103    
     14000   0.95734631     0.0023323615  -0.0030077359   20.441484      19.019824      1.4216593     -1.6157106      18262.875    
     15000   1.0885877      0.0023323615  -0.0027217951   20.335621      18.719068      1.6165527     -1.7593721      18225.692    
     16000   0.98395249     0.0023323615  -0.001250262    20.28962       18.82845       1.4611695     -1.6602613      18149.179    
     17000   0.85648132     0.0023323615   0.00091645     20.076504      18.804629      1.2718748     -1.7141769      18298.868    
     18000   0.93264539     0.0023323615   0.0021345155   20.367021      18.982043      1.3849784     -1.616559       18224.807    
     19000   1.0592237      0.0023323615   0.0040577958   20.461384      18.888436      1.5729473     -1.56401        18144.269    
     20000   0.89575605     0.0023323615  -0.00093679993  20.192416      18.862219      1.3301977     -1.5262917      18100.557    
     21000   0.89494849     0.0023323615   0.001238452    20.494335      19.165337      1.3289985     -1.4782358      18170.814    
     22000   1.1346545      0.0023323615   0.00090458119  20.676006      18.991044      1.6849619     -1.6377178      18263.634    
     23000   0.90438109     0.0023323615  -0.00053346202  19.889463      18.546457      1.3430059     -1.8853726      18239.744    
     24000   0.96893029     0.0023323615   0.0017561183   20.173222      18.73436       1.4388615     -1.7532435      18147.07     
     25000   1.0617586      0.0023323615   6.3742161e-05  20.275528      18.698816      1.5767116     -1.6580525      18182.909    
     26000   0.97182444     0.0023323615   0.0011069219   20.15007       18.706911      1.4431593     -1.7993454      18092.338    
     27000   1.0059624      0.0023323615   0.00049759036  20.253873      18.760018      1.4938542     -1.674527       18130.905    
     28000   0.99057333     0.0023323615   0.0032217592   20.116976      18.645974      1.4710014     -1.7213926      18349.149    
     29000   0.91027595     0.0023323615  -0.0010887678   20.237736      18.885977      1.3517598     -1.7535235      18267.846    
     30000   0.98739223     0.0023323615  -0.0013622781   20.538882      19.072604      1.4662775     -1.530976       18201.477    
     31000   0.992093       0.0023323615  -0.0021880466   20.070257      18.596999      1.4732581     -1.9818371      18209.696    
     32000   1.133509       0.0023323615   0.0047924329   20.57689       18.89363       1.6832609     -1.6253819      18254.982    
     33000   1.0099336      0.0023323615   0.0031243913   20.32589       18.826138      1.4997514     -1.79346        18359.504    
     34000   0.96748901     0.0023323615  -0.0023290378   20.274852      18.838131      1.4367212     -1.6584225      18188.78     
     35000   1.0037998      0.0023323615  -0.0047575576   20.403693      18.91305       1.4906427     -1.6511143      18189.168    
     36000   0.97825366     0.0023323615  -0.0014918664   20.328108      18.875401      1.4527067     -1.5909622      18351.606    
     37000   0.93131009     0.0023323615  -0.002072293    20.429992      19.046996      1.3829955     -1.4398521      18380.909    
     38000   0.93967544     0.0023323615  -0.0012124336   20.3417        18.946282      1.395418      -1.4556056      18269.444    
     39000   0.99384411     0.0023323615   0.0081366502   20.124106      18.648248      1.4758585     -1.7292309      18295.685    
     40000   1.0772012      0.0023323615  -0.0046022755   20.635985      19.036341      1.5996438     -1.4759104      18358.255    
     41000   0.97841783     0.0023323615  -0.00030554379  20.325606      18.872656      1.4529505     -1.5307172      18339.167    
     42000   1.0243151      0.0023323615  -0.00097665992  20.312119      18.791011      1.5211079     -1.7323742      18224.365    
     43000   0.98072561     0.0023323615  -0.0024051485   19.985069      18.528692      1.4563775     -1.9761261      18184.389    
     44000   0.96978618     0.0023323615  -0.0016094635   20.01382       18.573688      1.4401325     -1.8482733      18133.642    
     45000   0.96562352     0.0023323615   0.0026268223   20.441693      19.007742      1.4339509     -1.6591715      18115.708    
     46000   1.0840442      0.0023323615   0.00092042771  20.444517      18.834711      1.6098056     -1.6911226      18101.072    
     47000   0.92530856     0.0023323615  -0.0023661314   20.31565       18.941567      1.3740832     -1.5924939      18190.394    
     48000   0.82337246     0.0023323615  -0.00056242703  19.808887      18.586179      1.2227081     -1.901705       18253.007    
     49000   0.81829768     0.0023323615   0.00055209997  20.156549      18.941377      1.2151721     -1.5203047      18225.926    
     50000   0.85216903     0.0023323615  -0.0034014069   20.194326      18.928855      1.265471      -1.7046681      18147.618    
     51000   1.0050943      0.0023323615   0.00099748807  20.070336      18.577771      1.4925651     -1.9506255      18183.373    
     52000   1.1681921      0.0023323615  -0.0014091107   20.512679      18.777914      1.7347653     -1.7376024      18245.192    
     53000   0.97619941     0.0023323615  -0.0050206768   20.401401      18.951745      1.4496561     -1.6015281      18161.328    
     54000   0.92587409     0.0023323615  -0.0036028298   20.294769      18.919845      1.374923      -1.7077457      18143.979    
     55000   1.0202506      0.0023323615   0.0018144388   20.378705      18.863633      1.5150721     -1.582087       18191.81     
     56000   1.0920918      0.0023323615   0.0014707368   20.428212      18.806455      1.6217563     -1.6792356      18176.131    
     57000   0.97642447     0.0023323615  -0.0026964836   20.676014      19.226023      1.4499903     -1.3923248      18371.69     
     58000   0.98779827     0.0023323615  -0.0016387494   20.338984      18.872103      1.4668804     -1.6865136      18268.364    
     59000   1.0105942      0.0023323615   9.1319332e-05  20.029306      18.528574      1.5007325     -1.9949124      18214.255    
     60000   0.85067195     0.0023323615  -0.0028483339   20.02469       18.761442      1.2632478     -1.7561589      18227.221    
     61000   0.96990284     0.0023323615   0.0002734412   20.06343       18.623124      1.4403057     -1.8850955      18169.749    
     62000   0.87902482     0.0023323615   7.20193e-05    19.949048      18.643696      1.3053519     -1.8746961      18003.789    
     63000   1.0191852      0.0023323615   0.00061798093  20.269366      18.755876      1.5134901     -1.8056072      18163.575    
     64000   1.0076223      0.0023323615   8.9725532e-05  20.233681      18.737362      1.4963191     -1.8155005      18203.147    
     65000   0.88869877     0.0023323615  -0.0014639922   20.230577      18.910859      1.3197177     -1.6863506      18346.195    
     66000   1.0347861      0.0023323615   0.0013063689   20.45533       18.918672      1.5366573     -1.5759247      18130.944    
     67000   1.0044766      0.0023323615   0.0011156606   20.213029      18.721381      1.4916478     -1.7067754      18221.43     
     68000   0.96096515     0.0023323615  -0.0013860557   20.544835      19.117801      1.4270332     -1.4969906      18175.516    
     69000   0.85264812     0.0023323615  -0.0055712444   20.159899      18.893716      1.2661825     -1.5710599      18231.159    
     70000   0.97924085     0.0023323615   0.0011931726   20.505317      19.051144      1.4541727     -1.4567225      18287.925    
     71000   0.89062723     0.0023323615  -0.0013893595   20.320994      18.998412      1.3225814     -1.5536468      18126.68     
     72000   0.9401944      0.0023323615   0.00064719176  20.314774      18.918586      1.3961887     -1.5801159      18107.738    
     73000   1.014351       0.0023323615   0.00012395785  19.977364      18.471053      1.5063112     -1.8821997      18190.438    
     74000   0.94389546     0.0023323615  -0.00074460706  20.245198      18.843513      1.4016848     -1.7209107      18266.595    
     75000   1.007933       0.0023323615   0.001038211    20.457319      18.960538      1.4967805     -1.5584153      18302.032    
     76000   0.89451867     0.0023323615  -0.0028119911   19.933582      18.605222      1.3283602     -1.9025187      18172.676    
     77000   0.8547594      0.0023323615   0.002525891    19.996432      18.727114      1.2693177     -1.620647       18129.522    
     78000   0.93833152     0.0023323615  -0.0029611395   20.126853      18.733431      1.3934223     -1.865749       18249.182    
     79000   1.0097221      0.0023323615  -0.0017358753   20.397987      18.89855       1.4994374     -1.6902562      18217.144    
     80000   0.9300908      0.0023323615  -0.003193017    20.206666      18.825481      1.3811848     -1.6978936      18214.531    
     81000   1.1619232      0.0023323615  -0.0041557623   20.543527      18.818071      1.725456      -1.599605       18117.984    
     82000   1.0766894      0.0023323615  -0.00027774907  20.364879      18.765996      1.5988838     -1.774477       18262.474    
     83000   1.0932599      0.0023323615  -0.0018670058   20.382412      18.758921      1.623491      -1.6411721      18233.111    
     84000   1.0053732      0.0023323615   0.00034266277  20.340189      18.847209      1.4929792     -1.7284816      18409.217    
     85000   1.0642071      0.0023323615  -0.00024588539  20.411002      18.830655      1.5803476     -1.7211858      18379.596    
     86000   1.0391844      0.0023323615  -0.0030208369   20.568634      19.025445      1.5431889     -1.6535457      18196.805    
     87000   1.009067       0.0023323615   0.0016113874   20.773434      19.274969      1.4984645     -1.3582361      18204.352    
     88000   0.92274774     0.0023323615  -0.0032568249   20.312163      18.941883      1.3702804     -1.493451       18211.646    
     89000   1.0473509      0.0023323615  -0.003968649    20.55457       18.999254      1.5553161     -1.6035331      18271.791    
     90000   0.8813012      0.0023323615   0.0044667384   20.304632      18.9959        1.3087323     -1.7337139      18238.945    
     91000   0.94014714     0.0023323615  -0.0021806892   20.208976      18.812857      1.3961185     -1.7561763      18354.258    
     92000   0.92360758     0.0023323615   0.0012090772   20.229881      18.858324      1.3715573     -1.724782       18333.815    
     93000   1.0331141      0.0023323615  -0.00071523894  20.296171      18.761996      1.5341745     -1.6342596      18413.054    
     94000   1.005169       0.0023323615   0.0020739482   20.233032      18.740355      1.492676      -1.7354797      18439.829    
     95000   1.0480822      0.0023323615  -0.00087924387  20.278844      18.722442      1.556402      -1.7278132      18205.159    
     96000   1.1552034      0.0023323615   0.0047007663   20.669729      18.954252      1.7154771     -1.5703631      18385.297    
     97000   1.0046576      0.0023323615  -0.0013946489   20.657686      19.165769      1.4919166     -1.3207955      18413.747    
     98000   0.97754913     0.0023323615  -0.0011619579   20.222144      18.770484      1.4516605     -1.7023052      18335.677    
     99000   1.1145498      0.0023323615   0.0013314917   20.645783      18.990676      1.6551065     -1.4475033      18302.623    
    100000   1.0925596      0.0023323615   0.0015516739   20.516694      18.894243      1.622451      -1.5234056      18302.062    
    101000   1.0775945      0.0023323615   0.00072615674  20.549319      18.949091      1.6002278     -1.5526109      18470.287    
    102000   0.984116       0.0023323615  -0.0048331109   20.236414      18.775002      1.4614123     -1.6808385      18280.539    
    103000   0.99534699     0.0023323615   0.0024641975   20.268856      18.790765      1.4780903     -1.6494851      18314.955    
    104000   1.0618645      0.0023323615  -0.0011285271   20.629285      19.052417      1.5768687     -1.4377788      18224.801    
    105000   1.1271172      0.0023323615   0.0025985751   20.772908      19.099139      1.673769      -1.479408       18322.809    
    106000   0.88982898     0.0023323615   0.00070067991  20.221454      18.900058      1.321396      -1.6484355      18342.962    
    107000   1.0234237      0.0023323615   0.00099400127  20.337849      18.818065      1.5197841     -1.6316153      18311.108    
    108000   0.97559643     0.0023323615  -0.0019692195   20.125011      18.676251      1.4487607     -1.721405       18243.965    
    109000   0.93170819     0.0023323615  -0.0012074574   20.00599       18.622404      1.3835867     -1.8804809      18127.974    
    110000   1.0633962      0.0023323615   0.0032034938   20.631617      19.052473      1.5791434     -1.4984721      18014.08     
    111000   0.88644888     0.0023323615   0.0010204679   20.06713       18.750753      1.3163766     -1.7192845      18165.086    
    112000   0.95159887     0.0023323615   0.00077369443  20.295378      18.882254      1.4131243     -1.5517855      18315.163    
    113000   0.92983975     0.0023323615   0.0039105507   20.165135      18.784322      1.380812      -1.7657187      18319.674    
    114000   0.9699734      0.0023323615  -0.0038100146   20.470588      19.030178      1.4404105     -1.4620446      18323.885    
    115000   0.97934133     0.0023323615   0.0015023052   20.207295      18.752973      1.4543219     -1.7324741      18264.783    
    116000   1.1660359      0.0023323615   0.0038846034   20.651584      18.920021      1.7315634     -1.546994       18240.648    
    117000   1.0045047      0.0023323615   0.00074344292  20.434242      18.942552      1.4916895     -1.591694       18273.949    
    118000   1.0836574      0.0023323615  -0.0066690725   20.607533      18.998302      1.6092312     -1.6211427      18198.474    
    119000   1.069817       0.0023323615   0.0012599358   20.515415      18.926737      1.5886782     -1.6027969      18313.235    
    120000   0.91572198     0.0023323615  -0.0015249192   20.227619      18.867772      1.3598471     -1.6175223      18276.767    
    121000   1.1307428      0.0023323615   0.00070089395  20.358179      18.679026      1.6791531     -1.8964798      18287.379    
    122000   0.91089905     0.0023323615   0.00047211002  19.991521      18.638836      1.3526851     -1.8797298      18337.738    
    123000   1.0288221      0.0023323615   0.0019140326   20.41544       18.88764       1.5278008     -1.7391957      18269.176    
    124000   1.0959264      0.0023323615   0.0020126666   20.398668      18.771217      1.6274508     -1.7294624      18339.719    
    125000   0.90774301     0.0023323615   0.0022037768   20.131073      18.783074      1.3479984     -1.6863782      18263.36     
    126000   1.1142413      0.0023323615   0.0033760592   20.529475      18.874826      1.6546483     -1.6413839      18340.616    
    127000   0.94472887     0.0023323615  -0.003974379    20.266416      18.863493      1.4029224     -1.6302421      18376.663    
    128000   1.0524583      0.0023323615  -0.0025217291   20.770332      19.207432      1.5629006     -1.4363656      18353.195    
    129000   1.0530154      0.0023323615   0.0023705535   20.524384      18.960656      1.5637278     -1.6388971      18412.168    
    130000   0.93862829     0.0023323615  -0.0025915553   20.106519      18.712656      1.393863      -1.7819114      18260.884    
    131000   1.043242       0.0023323615  -0.00032128444  20.337157      18.787942      1.5492144     -1.7307333      18381.928    
    132000   1.0081749      0.0023323615  -0.0017732511   20.388957      18.891818      1.4971397     -1.6503787      18277.386    
    133000   0.94237945     0.0023323615  -0.002122599    20.036275      18.636842      1.3994335     -1.8456478      18145.688    
    134000   0.97715646     0.0023323615  -0.00078096279  20.170013      18.718936      1.4510773     -1.8186383      18129.847    
    135000   1.0318934      0.0023323615   0.0021312929   20.307831      18.775469      1.5323617     -1.6992206      18124.85     
    136000   1.0678977      0.0023323615  -0.00027126583  20.432569      18.846741      1.585828      -1.7311368      18201.228    
    137000   1.0144299      0.0023323615   0.0014785146   20.315363      18.808935      1.5064284     -1.7033243      18235.542    
    138000   1.0358669      0.0023323615  -0.0025154236   20.292376      18.754114      1.5382623     -1.725861       18190.441    
    139000   1.0110768      0.0023323615   0.0031932387   20.243169      18.74172       1.501449      -1.6799753      18284.079    
    140000   1.0946852      0.0023323615  -0.0026979382   20.373866      18.748259      1.6256075     -1.7682748      18299.938    
    141000   1.0553538      0.0023323615   0.00063319994  20.542229      18.975029      1.5672003     -1.5142352      18267.09     
    142000   1.1911364      0.0023323615   0.0049908451   20.654948      18.886111      1.7688375     -1.655715       18284.682    
    143000   1.0236761      0.0023323615   0.0020069193   20.222201      18.702042      1.520159      -1.7798266      18231.691    
    144000   0.99976277     0.0023323615  -0.0003274694   20.418316      18.933668      1.4846477     -1.6483805      18278.966    
    145000   0.79093807     0.0023323615  -0.0027997572   20.222436      19.047893      1.174543      -1.4861376      18289.533    
    146000   0.9626279      0.0023323615  -0.00057803321  20.191384      18.761881      1.4295024     -1.7417975      18248.521    
    147000   1.0162599      0.0023323615  -0.0027830446   20.24619       18.737044      1.509146      -1.7780538      18295.363    
    148000   1.0313007      0.0023323615  -0.0074909847   20.468102      18.936621      1.5314816     -1.7413122      18150.047    
    149000   1.0299092      0.0023323615   0.0021241008   20.297647      18.768232      1.5294151     -1.7902749      18217.882    
    150000   1.1670062      0.0023323615   0.0014441393   20.454448      18.721444      1.7330043     -1.7859566      18160.323    
    151000   0.9925147      0.0023323615  -0.0017461988   20.162807      18.688922      1.4738843     -1.7892625      18264.647    
    152000   0.88925498     0.0023323615   0.00055293946  20.385623      19.06508       1.3205436     -1.5557094      18227.606    
    153000   1.089759       0.0023323615   0.0023129761   20.284735      18.666443      1.6182922     -1.856834       18300.673    
    154000   1.069829       0.0023323615   0.003379041    20.687768      19.099072      1.5886961     -1.4797391      18349.112    
    155000   0.99626734     0.0023323615  -0.0046634264   20.61312       19.133663      1.479457      -1.4347117      18424.815    
    156000   1.0993538      0.0023323615   0.00071070322  20.597985      18.965444      1.6325404     -1.5757419      18196.4      
    157000   0.85324522     0.0023323615  -7.6270118e-05  20.175784      18.908715      1.2670691     -1.6909606      18285.211    
    158000   0.99542599     0.0023323615   5.6694743e-05  20.579347      19.10114       1.4782076     -1.4850439      18320.001    
    159000   0.9618131      0.0023323615  -0.00069470319  20.423139      18.994846      1.4282925     -1.5092217      18326.102    
    160000   1.1071977      0.0023323615  -0.00018478171  20.669407      19.025218      1.6441886     -1.595756       18322.594    
    161000   1.0598673      0.0023323615   0.0015785738   20.274826      18.700923      1.5739029     -1.6870816      18325.47     
    162000   1.0490348      0.0023323615  -0.00066259609  20.469883      18.912066      1.5578167     -1.6097102      18427.713    
    163000   0.97234152     0.0023323615   0.0018238835   20.259992      18.816065      1.4439272     -1.6937775      18287.881    
    164000   0.98238969     0.0023323615   0.0026060716   20.297612      18.838763      1.4588487     -1.712704       18259.06     
    165000   0.85440451     0.0023323615   0.0011848836   19.945105      18.676315      1.2687907     -1.8430792      18129.92     
    166000   1.006192       0.0023323615  -0.00096382416  20.318285      18.82409       1.4941951     -1.6118474      18313.191    
    167000   0.93251643     0.0023323615  -0.0024533459   20.316666      18.931879      1.3847869     -1.7323874      18371.345    
    168000   0.89583522     0.0023323615   0.0013929379   19.999608      18.669293      1.3303153     -1.7490972      18198.696    
    169000   0.96392829     0.0023323615   0.0012641047   20.353316      18.921883      1.4314335     -1.6198802      18281.912    
    170000   0.98553122     0.0023323615  -0.0012605637   20.413004      18.94949       1.4635139     -1.4863689      18504.691    
    171000   0.9475956      0.0023323615  -0.00070747143  20.42855       19.02137       1.4071795     -1.5884539      18502.183    
    172000   0.97630671     0.0023323615   0.0052450223   20.094162      18.644347      1.4498155     -1.780275       18261.672    
    173000   0.94052747     0.0023323615  -0.0013583564   20.573443      19.176759      1.3966833     -1.4946547      18175.902    
    174000   0.99558672     0.0023323615   0.0017677741   20.465626      18.98718       1.4784463     -1.5130467      18237.585    
    175000   0.87831512     0.0023323615  -0.00040612717  20.359791      19.055493      1.304298      -1.4572164      18287.59     
    176000   1.0268458      0.0023323615  -0.0032943727   20.502642      18.977776      1.524866      -1.6404381      18235.732    
    177000   0.86832587     0.0023323615  -0.0020013045   20.355602      19.066138      1.2894639     -1.3034465      18321.84     
    178000   0.95563664     0.0023323615   0.00036060835  20.459976      19.040856      1.4191204     -1.4846728      18344.246    
    179000   1.1178905      0.0023323615  -0.00010421729  20.117247      18.457179      1.6600673     -1.9861131      18313.147    
    180000   0.99382754     0.0023323615   0.0011789238   19.972051      18.496217      1.4758339     -1.8572084      18171.7      
    181000   0.96213856     0.0023323615  -0.00013004196  20.447283      19.018507      1.4287758     -1.4229001      18174.46     
    182000   0.86039127     0.0023323615  -0.0011707507   20.281063      19.003382      1.277681      -1.5682851      18163.043    
    183000   0.94347217     0.0023323615  -0.0020684138   20.540367      19.139311      1.4010562     -1.4874091      18077.341    
    184000   0.98091924     0.0023323615  -0.0029615431   20.447907      18.991242      1.4566651     -1.5398475      18118.543    
    185000   0.99777916     0.0023323615  -0.00088808264  20.398471      18.916769      1.4817021     -1.6899914      18176.753    
    186000   1.0255751      0.0023323615   0.0010789339   20.413775      18.890796      1.522979      -1.6431303      18312.23     
    187000   0.97062067     0.0023323615   0.00036278018  20.288759      18.847388      1.4413717     -1.6997116      18165.092    
    188000   1.1884859      0.0023323615  -0.0039738202   20.752491      18.98759       1.7649015     -1.4994458      18207.796    
    189000   1.1688059      0.0023323615   0.0047492758   20.750276      19.0146        1.7356767     -1.4948515      18167.347    
    190000   0.93666331     0.0023323615   0.0011770409   20.36667       18.975725      1.390945      -1.6321826      18305.251    
    191000   0.94351462     0.0023323615   0.0058919137   20.186291      18.785172      1.4011192     -1.6709806      18309.516    
    192000   1.0788142      0.0023323615   0.0011075533   20.600465      18.998426      1.6020391     -1.4749988      18311.612    
    193000   1.1362931      0.0023323615  -0.0042213857   20.57939       18.891994      1.6873953     -1.6615342      18323.885    
    194000   0.9441795      0.0023323615   0.0029232299   20.263427      18.86132       1.4021066     -1.582191       18162.356    
    195000   1.0678029      0.0023323615  -0.0011858484   20.226704      18.641016      1.5856874     -1.8164974      18334.75     
    196000   1.1309164      0.0023323615  -0.0040929574   20.633613      18.954202      1.6794109     -1.6692877      18225.982    
    197000   0.99310089     0.0023323615  -0.0032251581   20.489427      19.014672      1.4747548     -1.4623578      18281.577    
    198000   0.82285491     0.0023323615   0.00074906419  20.112278      18.890339      1.2219395     -1.7226397      18168.674    
    199000   1.0523098      0.0023323615   0.0004769617   20.315738      18.753058      1.5626801     -1.7082902      18316.242    
    200000   1.1122984      0.0023323615   0.0013377967   20.556209      18.904446      1.6517631     -1.5211324      18254.809    
    201000   1.0614164      0.0023323615   0.00034798618  20.375699      18.799496      1.5762033     -1.6656335      18305.54     
    202000   1.0613777      0.0023323615   0.00095641473  20.614357      19.038211      1.5761459     -1.4174168      18428.06     
    203000   0.92986315     0.0023323615   0.0013066621   20.29345       18.912603      1.3808468     -1.5269552      18363.804    
    204000   0.99612376     0.0023323615   0.0038562252   20.468808      18.989564      1.4792438     -1.5002553      18200.468    
    205000   0.93389365     0.0023323615  -0.0014579917   20.086365      18.699533      1.3868321     -1.7439771      18304.939    
    206000   0.97085825     0.0023323615  -0.0015556106   20.490952      19.049228      1.4417245     -1.5688192      18270.4      
    207000   1.0208094      0.0023323615  -0.004062236    20.51741       19.001508      1.515902      -1.4978966      18321.4      
    208000   0.84356404     0.0023323615   0.0022610015   20.194128      18.941436      1.2526926     -1.6183927      18177.531    
    209000   0.94276485     0.0023323615  -0.00053940202  20.226177      18.826171      1.4000058     -1.8100805      18167.88     
    210000   0.90083972     0.0023323615   0.002769796    20.198036      18.860289      1.337747      -1.6679147      18228.495    
    211000   1.0733669      0.0023323615   0.0017928209   20.570789      18.976839      1.5939498     -1.5329331      18284.116    
    212000   1.1272088      0.0023323615  -0.00059423319  20.80689       19.132985      1.673905      -1.3311011      18222.349    
    213000   0.93789295     0.0023323615  -0.0019214185   20.227701      18.83493       1.392771      -1.7287504      18221.228    
    214000   0.8610516      0.0023323615   0.0026587883   20.134366      18.855704      1.2786616     -1.7993394      18173.705    
    215000   0.98249429     0.0023323615  -0.00074847413  20.218839      18.759835      1.459004      -1.6148817      18262.852    
    216000   1.2210604      0.0023323615  -0.0032752766   20.697111      18.883836      1.8132747     -1.6797922      18277.948    
    217000   0.92979281     0.0023323615  -0.005231806    20.332387      18.951645      1.3807423     -1.6251558      18200.75     
    218000   0.9388602      0.0023323615   0.0016918294   20.33824       18.944033      1.3942074     -1.626536       18349.774    
    219000   1.1083909      0.0023323615   0.0045670597   20.49486       18.8489        1.6459604     -1.6923686      18177.614    
    220000   1.0270842      0.0023323615  -0.0019964239   20.339775      18.814555      1.5252201     -1.7302818      18288.675    
    221000   0.9721115      0.0023323615  -0.0031318048   20.326125      18.882539      1.4435856     -1.6232843      18252.703    
    222000   0.95573569     0.0023323615  -0.0017080076   20.149276      18.730009      1.4192675     -1.8441646      18286.849    
    223000   0.95078561     0.0023323615  -0.0024679726   20.017025      18.605108      1.4119166     -1.8684883      18219.758    
    224000   1.0187756      0.0023323615  -0.0019391044   20.400277      18.887395      1.5128817     -1.622163       18409.845    
    225000   0.99476906     0.0023323615   0.0022368824   20.173839      18.696607      1.477232      -1.7073262      18192.706    
    226000   1.0395654      0.0023323615   0.0021397584   20.321007      18.777253      1.5437546     -1.6952086      18343.026    
    227000   1.046129       0.0023323615  -0.00067808163  20.303594      18.750092      1.5535016     -1.7769159      18207.593    
    228000   1.0097653      0.0023323615  -0.0030851708   20.764135      19.264634      1.4995014     -1.4591887      18244.645    
    229000   1.0704352      0.0023323615  -0.0019507112   20.453611      18.864015      1.5895963     -1.7086121      18125.413    
    230000   0.83380202     0.0023323615  -0.0078330344   20.483184      19.244988      1.238196      -1.4892628      18183.747    
    231000   0.85457149     0.0023323615   0.0062118882   19.838746      18.569708      1.2690387     -1.8476203      18171.628    
    232000   0.85892687     0.0023323615  -0.0017787737   20.215259      18.939752      1.2755064     -1.6055123      18232.131    
    233000   1.0698367      0.0023323615   0.006488167    20.397438      18.80873       1.5887076     -1.8466597      18114.242    
    234000   1.0379236      0.0023323615  -0.00046782178  20.305829      18.764512      1.5413166     -1.6942168      18088.574    
    235000   1.2202958      0.0023323615  -0.0023157897   20.816483      19.004344      1.8121393     -1.5235756      18212.351    
    236000   0.91213445     0.0023323615   0.0053746853   20.019048      18.664528      1.3545197     -1.8234267      18357.033    
    237000   1.0330952      0.0023323615   0.0017440034   20.373848      18.839702      1.5341463     -1.7266675      18364.876    
    238000   0.95621133     0.0023323615   0.00071667668  20.071514      18.65154       1.4199738     -1.864535       18331.444    
    239000   1.0050157      0.0023323615  -0.0009037863   20.29954       18.807092      1.4924484     -1.6850983      18395.92     
    240000   0.99249748     0.0023323615  -0.0032363263   20.53934       19.065481      1.4738588     -1.5934335      18249.549    
    241000   1.08147        0.0023323615   0.00033303443  20.199678      18.593695      1.605983      -1.8731454      18311.504    
    242000   1.0521585      0.0023323615   0.0019157581   20.291446      18.72899       1.5624553     -1.8203422      18233.877    
    243000   0.98490351     0.0023323615   0.0014342113   20.03294       18.570358      1.4625817     -1.8969148      18274.822    
    244000   1.0248369      0.0023323615   0.00040576827  20.399831      18.877948      1.5218828     -1.6469656      18346.428    
    245000   0.81890662     0.0023323615   0.0014973968   20.147534      18.931458      1.2160763     -1.7150372      18257.577    
    246000   0.95399146     0.0023323615   0.0033281529   20.194646      18.777969      1.4166773     -1.7356449      18210.158    
    247000   1.071128       0.0023323615   0.0046784986   20.44946       18.858835      1.590625      -1.737046       18265.623    
    248000   1.1281213      0.0023323615   0.0014688227   20.343379      18.668119      1.6752602     -1.6131779      18280.851    
    249000   1.0378311      0.0023323615   0.002137464    20.812933      19.271754      1.5411792     -1.3570478      18299.532    
    250000   1.1121599      0.0023323615  -0.00071011884  20.549887      18.898329      1.6515574     -1.6010658      18274.033    
    251000   0.86164622     0.0023323615  -0.0016759376   20.076989      18.797444      1.2795446     -1.644985       18193.521    
    252000   1.0292819      0.0023323615   0.0013135761   20.55381       19.025327      1.5284836     -1.5057107      18118.267    
    253000   1.0517697      0.0023323615  -0.00035971819  20.642827      19.080949      1.561878      -1.4364555      18398.26     
    254000   1.0328956      0.0023323615   0.00083593674  20.554667      19.020817      1.53385       -1.4802811      18176.465    
    255000   0.94631513     0.0023323615   0.0052015981   19.95711       18.551832      1.405278      -1.8920784      18288.424    
    256000   0.99124829     0.0023323615  -0.0004581212   20.490252      19.018249      1.4720037     -1.5991708      18387.997    
    257000   0.92355243     0.0023323615   0.00018413632  20.315992      18.944516      1.3714754     -1.6441468      18245.222    
    258000   0.9574365      0.0023323615  -0.0034576643   20.319247      18.897454      1.4217932     -1.5974046      18328.222    
    259000   1.1798492      0.0023323615  -0.0011079424   20.536404      18.784328      1.752076      -1.6752417      18386.777    
    260000   1.0187053      0.0023323615   9.25676e-06    20.639483      19.126705      1.5127774     -1.5350721      18274.525    
    261000   0.89968286     0.0023323615   0.00096438025  20.372699      19.03667       1.3360291     -1.5196267      18330.468    
    262000   1.0631744      0.0023323615  -0.0028660653   20.601913      19.0231        1.578814      -1.5151496      18392.951    
    263000   0.99204547     0.0023323615   0.0048200956   20.60767       19.134482      1.4731875     -1.3899454      18319.056    
    264000   0.93654909     0.0023323615  -0.0017213261   20.334412      18.943637      1.3907754     -1.5423637      18348.785    
    265000   1.0657785      0.0023323615  -0.00063432867  20.288155      18.705474      1.5826811     -1.7820028      18249.823    
    266000   1.1785328      0.0023323615   0.002425084    20.806408      19.056287      1.7501212     -1.38976        18290.907    
    267000   1.079489       0.0023323615   0.0014151055   20.473217      18.870176      1.6030411     -1.6623261      18228.422    
    268000   0.94025583     0.0023323615   0.0034567485   20.532297      19.136017      1.3962799     -1.4152459      18306.289    
    269000   1.0122086      0.0023323615  -0.0026449854   20.551724      19.048594      1.5031298     -1.3992419      18435.092    
    270000   0.92635311     0.0023323615   0.001124305    20.190971      18.815337      1.3756344     -1.8163135      18220.712    
    271000   0.84579036     0.0023323615   0.0040318157   20.18914       18.933141      1.2559987     -1.5725247      18218.993    
    272000   1.0949958      0.0023323615   0.0017368607   20.541106      18.915037      1.6260687     -1.7024018      18175.747    
    273000   1.0026162      0.0023323615   0.0052546172   20.45147       18.962585      1.4888851     -1.527009       18376.375    
    274000   1.0488953      0.0023323615  -0.0002834053   20.625261      19.067652      1.5576096     -1.4746173      18356.682    
    275000   1.0083376      0.0023323615   0.00083953585  20.328886      18.831505      1.4973814     -1.6853194      18353.543    
    276000   0.99683867     0.0023323615   0.00077136253  20.502836      19.022531      1.4803054     -1.5160643      18209.879    
    277000   0.96971827     0.0023323615   0.0011003881   20.273763      18.833731      1.4400316     -1.5936032      18136.472    
    278000   0.9859265      0.0023323615  -0.0011942072   20.298762      18.834661      1.4641009     -1.6303283      18161.348    
    279000   1.0274866      0.0023323615  -0.0028031831   20.066916      18.541098      1.5258176     -1.9119423      18226.605    
    280000   1.0146559      0.0023323615  -0.0028086208   20.334649      18.827885      1.506764      -1.7110422      18169.067    
    281000   1.0318984      0.0023323615  -0.0015478304   20.444067      18.911698      1.5323691     -1.6817517      18154.13     
    282000   0.89453928     0.0023323615   0.0027614988   20.089211      18.76082       1.3283908     -1.7946468      18295.326    
    283000   0.7912081      0.0023323615  -0.0042089447   19.988938      18.813994      1.174944      -1.7039308      18159.193    
    284000   0.9727636      0.0023323615  -0.00079312366  20.279994      18.83544       1.4445539     -1.7583319      18066.817    
    285000   0.98598914     0.0023323615  -0.00045419056  20.453387      18.989193      1.4641939     -1.6650096      18072.251    
    286000   1.0429787      0.0023323615   0.0014041167   20.396009      18.847185      1.5488234     -1.6921574      18022.986    
    287000   1.1126831      0.0023323615   0.00056137204  20.482624      18.83029       1.6523344     -1.764265       18034.272    
    288000   1.0919323      0.0023323615   0.0016339725   20.209286      18.587766      1.6215194     -1.8552827      18050.06     
    289000   1.0178249      0.0023323615   0.0079501704   20.138583      18.627113      1.51147       -1.9424227      18095.897    
    290000   1.0642297      0.0023323615   0.0036280606   20.055684      18.475302      1.5803812     -1.9357866      18141.301    
    291000   1.0815316      0.0023323615  -0.002992382    20.637372      19.031297      1.6060744     -1.49909        18228.292    
    292000   1.2105713      0.0023323615  -0.0019160515   20.96238       19.164681      1.7976984     -1.3857433      18350.512    
    293000   0.98678678     0.0023323615   0.0007500501   20.311331      18.845953      1.4653784     -1.6567303      18165.456    
    294000   0.98272537     0.0023323615  -0.0024769023   20.564864      19.105517      1.4593472     -1.5574527      18223.752    
    295000   1.1889184      0.0023323615   0.0022540874   20.20256       18.437016      1.7655438     -1.9653835      18356.297    
    296000   1.1642906      0.0023323615   0.0035302367   20.458454      18.729483      1.7289716     -1.8025864      18393.645    
    297000   1.0069261      0.0023323615  -0.0016684107   20.607479      19.112194      1.4952853     -1.4099303      18254.291    
    298000   1.0458137      0.0023323615   0.0010172324   20.561176      19.008142      1.5530334     -1.4965775      18314.898    
    299000   0.76619837     0.0023323615   0.0055540563   19.943403      18.805598      1.1378046     -1.6625453      18273.876    
    300000   1.0924728      0.0023323615   0.00036863429  20.468639      18.846316      1.6223221     -1.5906157      18310.365    
    301000   1.012731       0.0023323615   0.0014075751   20.285996      18.782091      1.5039055     -1.6865804      18177.383    
    302000   0.91060838     0.0023323615  -0.0015138145   19.984669      18.632416      1.3522534     -1.7460142      18311.662    
    303000   0.9007704      0.0023323615  -0.0016674599   19.88787       18.550226      1.337644      -1.8611688      18119.668    
    304000   0.99804373     0.0023323615   0.0029544436   20.432089      18.949994      1.4820949     -1.6889876      18228.925    
    305000   0.9388268      0.0023323615   0.00014929658  20.388215      18.994057      1.3941578     -1.6191263      18291.504    
    306000   1.1022777      0.0023323615   0.0021320263   20.390737      18.753855      1.6368824     -1.746312       18343.663    
    307000   1.023364       0.0023323615   0.00082410176  20.587749      19.068053      1.5196956     -1.5586411      18450.853    
    308000   1.1872645      0.0023323615   0.0015214797   20.907654      19.144566      1.7630878     -1.2346254      18417.138    
    309000   0.97771849     0.0023323615   0.002301489    20.4493        18.997388      1.451912      -1.4473397      18548.749    
    310000   0.96018965     0.0023323615   0.0067163439   20.423776      18.997894      1.4258816     -1.3375466      18586.342    
    311000   1.0136844      0.0023323615   0.0026571265   20.349114      18.843793      1.5053214     -1.624447       18696.9      
    312000   0.91380039     0.0023323615   0.0034798302   20.411537      19.054543      1.3569936     -1.4251255      18613.842    
    313000   1.0525767      0.0023323615  -0.0008595117   20.535925      18.972849      1.5630764     -1.5380906      18284.441    
    314000   1.0804403      0.0023323615  -0.0017276868   20.49683       18.892376      1.6044539     -1.7572416      18285.03     
    315000   0.91808951     0.0023323615  -0.0002321414   20.237425      18.874062      1.3633629     -1.67225        18242.745    
    316000   1.0224147      0.0023323615   0.0028466978   20.201198      18.682912      1.5182858     -1.7449318      18200.212    
    317000   0.90452613     0.0023323615   0.0011060588   20.478418      19.135197      1.3432213     -1.4998138      18235.209    
    318000   1.1045718      0.0023323615  -0.00070657308  20.392388      18.752099      1.6402891     -1.8356893      18304.21     
    319000   1.0336062      0.0023323615  -0.003721224    20.071441      18.536536      1.5349052     -2.0225293      18444.923    
    320000   1.0856891      0.0023323615  -0.0032152685   20.467814      18.855566      1.6122483     -1.7182576      18389.806    
    321000   1.0120815      0.0023323615   0.0055982728   20.330967      18.828026      1.502941      -1.693066       18344.607    
    322000   0.99535895     0.0023323615  -0.0013775858   20.249235      18.771127      1.478108      -1.7366198      18294.685    
    323000   0.81728325     0.0023323615   0.0016283443   20.013992      18.800327      1.2136656     -1.8454668      18719.408    
    324000   1.0067852      0.0023323615  -0.0043209588   19.948927      18.453851      1.495076      -1.9750528      18636.788    
    325000   1.0387667      0.0023323615  -0.0051740865   20.379674      18.837106      1.5425685     -1.7834853      18632.352    
    326000   1.1266517      0.0023323615  -0.0023220468   20.512763      18.839686      1.6730778     -1.6763332      18404.393    
    327000   0.99855774     0.0023323615  -0.00030799975  20.270691      18.787833      1.4828582     -1.7275176      18421.434    
    328000   0.94153893     0.0023323615  -0.0019415114   19.99991       18.601725      1.3981853     -2.0022905      18293.814    
    329000   0.81204065     0.0023323615   0.0013026612   20.165226      18.959346      1.2058804     -1.5459357      18305.409    
    330000   0.96950505     0.0023323615   0.0063925873   20.347537      18.907822      1.439715      -1.6291921      18310.48     
    331000   1.1643304      0.0023323615   0.00069745153  20.303237      18.574206      1.7290307     -1.8531282      18201.368    
    332000   0.91962073     0.0023323615  -0.00050627436  19.924995      18.559358      1.3656368     -1.774521       18198.142    
    333000   1.0092636      0.0023323615   0.0011393133   20.284617      18.78586       1.4987565     -1.7597454      18159.415    
    334000   0.95450156     0.0023323615  -0.0018423965   20.169323      18.751888      1.4174348     -1.7407236      18045.038    
    335000   1.0748395      0.0023323615   0.00069008407  20.212819      18.616683      1.5961366     -1.8417222      18001.571    
    336000   1.0191126      0.0023323615   0.00085671161  20.028355      18.514973      1.5133822     -2.1797474      18099.897    
    337000   0.89226587     0.0023323615  -0.0013683746   20.184923      18.859908      1.3250148     -1.6652122      18060.416    
    338000   0.94181127     0.0023323615   0.001125392    20.362144      18.963555      1.3985897     -1.5364663      18162.508    
    339000   0.97554058     0.0023323615  -0.00075891069  20.604765      19.156087      1.4486778     -1.3733319      18262.468    
    340000   1.0636427      0.0023323615   0.0043752051   20.672604      19.093095      1.5795095     -1.3986484      18322.462    
    341000   0.92314726     0.0023323615  -0.0013819461   20.283205      18.912331      1.3708737     -1.7215826      18183.624    
    342000   1.0454501      0.0023323615  -0.0031598366   20.398759      18.846266      1.5524934     -1.6908894      18095.202    
    343000   0.90317651     0.0023323615  -0.00013253696  20.097912      18.756695      1.3412171     -1.755718       18228.698    
    344000   0.99850547     0.0023323615  -0.0020689865   20.337461      18.85468       1.4827806     -1.6309221      18092.062    
    345000   0.9977267      0.0023323615  -0.00047339535  20.243215      18.761591      1.4816241     -1.7529795      18145.87     
    346000   1.0511344      0.0023323615   0.0017178071   20.669683      19.108748      1.5609346     -1.4715942      18305.201    
    347000   0.99359469     0.0023323615   0.0070559965   20.074954      18.599466      1.4754881     -1.9077813      18221.181    
    348000   1.0488732      0.0023323615  -0.0018669137   20.133466      18.57589       1.5575767     -1.9211367      18171.757    
    349000   1.0281952      0.0023323615  -0.0016647141   20.307447      18.780577      1.5268698     -1.7671102      18177.501    
    350000   0.98288743     0.0023323615   0.00089094784  20.32468       18.865092      1.4595878     -1.6477688      18275.773    
    351000   1.0215979      0.0023323615   0.002373579    20.364688      18.847615      1.5170729     -1.6820546      18214.405    
    352000   1.1599228      0.0023323615   0.0019032859   20.659864      18.937378      1.7224854     -1.5444639      18344.158    
    353000   0.92383454     0.0023323615   0.00049548417  20.079447      18.707553      1.3718943     -1.9044841      18119.526    
    354000   0.88710461     0.0023323615  -0.0027978403   20.313648      18.996298      1.3173503     -1.447615       18161.404    
    355000   1.0146749      0.0023323615   0.0018483904   20.115121      18.608329      1.5067922     -1.983478       18085.392    
    356000   0.94194729     0.0023323615   0.0014016541   20.380472      18.98168       1.3987917     -1.5943582      18125.673    
    357000   0.87390282     0.0023323615   0.0007603011   20.163212      18.865466      1.2977457     -1.6775057      18046.408    
    358000   0.90526001     0.0023323615  -0.0020685496   19.89389       18.549579      1.3443111     -1.8451889      18187.352    
    359000   0.9786446      0.0023323615   0.0011812261   20.205681      18.752394      1.4532872     -1.7018969      18073.544    
    360000   0.98981976     0.0023323615   0.00056637785  20.451174      18.981292      1.4698823     -1.5053235      18198.892    
    361000   0.92727681     0.0023323615  -0.0018676624   20.166429      18.789423      1.3770061     -1.732469       18157.792    
    362000   1.0452498      0.0023323615   0.0042128608   20.402926      18.85073       1.552196      -1.5986518      18144.906    
    363000   1.0086737      0.0023323615   0.0047592136   20.290458      18.792578      1.4978804     -1.6294356      18095.671    
    364000   0.98950472     0.0023323615  -0.002261815    20.090404      18.62099       1.4694145     -1.8410241      18231.119    
    365000   0.92264073     0.0023323615  -0.0016628937   20.251771      18.881649      1.3701215     -1.6730101      18173.569    
    366000   1.0222162      0.0023323615   0.00083077832  20.300171      18.78218       1.517991      -1.7368708      18056.264    
    367000   0.87602467     0.0023323615   0.0017180363   20.201219      18.900322      1.3008966     -1.5759522      18603.712    
    368000   0.85484038     0.0023323615   0.0035644399   20.318343      19.048905      1.269438      -1.5731108      18712.698    
    369000   1.0035289      0.0023323615   0.000943051    20.322297      18.832056      1.4902405     -1.6296147      18718.348    
    370000   1.0085101      0.0023323615  -0.001380095    20.239137      18.7415        1.4976375     -1.7005337      18620.586    
    371000   1.0503879      0.0023323615   0.0014905068   20.278659      18.718833      1.5598261     -1.8737759      18579.655    
    372000   0.96135186     0.0023323615  -0.0039762215   20.284164      18.856557      1.4276075     -1.6556735      18507.539    
    373000   0.85590005     0.0023323615  -0.0008433821   20.067873      18.796861      1.2710116     -1.7083485      18559.524    
    374000   0.77202008     0.0023323615  -0.0040841666   20.134324      18.987874      1.1464498     -1.5193868      18197.807    
    375000   0.98699978     0.0023323615  -0.0020086056   20.276923      18.811228      1.4656947     -1.6576663      18269.641    
    376000   1.0120058      0.0023323615  -0.0003001924   20.220303      18.717474      1.5028287     -1.7338617      18104.674    
    377000   1.033489       0.0023323615  -0.00025716055  20.227611      18.69288       1.5347311     -1.8516071      18276.827    
    378000   0.95837849     0.0023323615   8.9327277e-05  20.19085       18.767658      1.4231921     -1.8318189      18212.59     
    379000   1.1514919      0.0023323615   0.0022552948   20.357356      18.64739       1.7099654     -1.8065379      18117.135    
    380000   1.0004772      0.0023323615  -0.0030290993   20.295593      18.809884      1.4857087     -1.6466641      18112.891    
    381000   0.99332367     0.0023323615   0.0004160603   20.229219      18.754133      1.4750857     -1.7034352      18123.208    
    382000   0.9334063      0.0023323615  -0.0028470492   20.001108      18.615         1.3861084     -1.9131913      18074.859    
    383000   1.0205211      0.0023323615  -0.0021568822   20.323489      18.808016      1.5154738     -1.739193       18199.346    
    384000   0.9894685      0.0023323615   0.0064918451   20.015567      18.546206      1.4693607     -1.9955904      18170.671    
    385000   0.98291383     0.0023323615   0.0012365604   20.037621      18.577994      1.459627      -1.8705091      18288.374    
    386000   0.9387202      0.0023323615  -0.0043654224   20.273118      18.879118      1.3939995     -1.7081157      18368.123    
    387000   1.1045226      0.0023323615   0.0061769576   20.512417      18.872201      1.6402161     -1.7075834      18324.868    
    388000   0.98760467     0.0023323615  -0.0011260068   20.263534      18.796941      1.4665929     -1.6820884      18289.858    
    389000   0.96358492     0.0023323615   0.00063757729  20.470037      19.039114      1.4309236     -1.4153839      18333.036    
    390000   1.1014115      0.0023323615  -8.7580553e-05  20.533487      18.897891      1.6355961     -1.6084136      18360.123    
    391000   0.88119984     0.0023323615  -0.000808018    20.169323      18.860742      1.3085818     -1.6224188      18288.206    
    392000   1.0037206      0.0023323615   0.0027109397   20.229175      18.73865       1.490525      -1.8097271      18201.228    
    393000   1.0273683      0.0023323615   0.00012056562  20.171189      18.645547      1.5256419     -1.9156294      18122.543    
    394000   1.1316096      0.0023323615   0.00049212628  20.438508      18.758068      1.6804403     -1.6915449      18214.388    
    395000   1.2058771      0.0023323615   0.0023332972   20.843047      19.052319      1.7907275     -1.445956       18138.245    
    396000   0.96550896     0.0023323615  -0.00056833777  20.160066      18.726285      1.4337808     -1.7170819      18349.224    
    397000   1.064737       0.0023323615  -0.0031929369   20.528484      18.94735       1.5811344     -1.4853652      18510.714    
    398000   0.99851591     0.0023323615  -0.0010686273   20.423294      18.940498      1.4827961     -1.5453987      18453.582    
    399000   0.94049097     0.0023323615   0.00095423923  20.28791       18.891281      1.3966291     -1.6331887      18410.337    
    400000   0.85487479     0.0023323615   0.0016862516   19.937976      18.668487      1.2694891     -1.7706922      18179.763    
    401000   1.0748948      0.0023323615  -0.0024629807   20.564776      18.968558      1.5962187     -1.5913709      18092.512    
    402000   1.0979649      0.0023323615  -0.00056967833  20.338025      18.707547      1.6304778     -1.815511       18346.714    
    403000   0.9640317      0.0023323615  -0.0014270209   19.855224      18.423637      1.4315871     -1.988674       18253.157    
    404000   0.99271986     0.0023323615  -0.0048350889   20.532085      19.057896      1.474189      -1.4980621      18338.462    
    405000   1.091427       0.0023323615  -0.0039631865   20.594775      18.974006      1.6207691     -1.5576431      18331.558    
    406000   1.2249536      0.0023323615  -0.0014718969   20.912533      19.093476      1.8190562     -1.481873       18208.367    
    407000   0.96840082     0.0023323615   0.0067755667   20.397201      18.959126      1.4380752     -1.6520882      18264.864    
    408000   0.99904743     0.0023323615  -0.0019686911   20.462315      18.978729      1.4835854     -1.6739239      18278.705    
    409000   1.1188692      0.0023323615   0.0083947612   20.376269      18.714748      1.6615207     -1.8086708      18343.366    
    410000   1.0519321      0.0023323615   0.0032164735   20.338308      18.776189      1.5621192     -1.7032468      18258.118    
    411000   1.0290667      0.0023323615  -0.0010905396   20.011674      18.48351       1.5281641     -1.9303575      18395.127    
    412000   0.92687901     0.0023323615  -0.00040094023  20.248297      18.871882      1.3764153     -1.693277       18316.558    
    413000   0.97767904     0.0023323615   0.00028388846  20.027555      18.575701      1.4518534     -1.905437       18321.1      
    414000   0.94570292     0.0023323615   0.0022983061   19.993788      18.589419      1.4043688     -1.9843253      18462.648    
    415000   1.0630838      0.0023323615   0.0010270055   20.382698      18.804019      1.5786795     -1.7248721      18357.07     
    416000   1.0647181      0.0023323615   0.0041974589   20.353629      18.772523      1.5811063     -1.7273397      18307.152    
    417000   0.97142682     0.0023323615   0.00055255593  20.463243      19.020674      1.4425688     -1.4955782      18451.48     
    418000   1.0604015      0.0023323615   0.0060625357   20.708072      19.133376      1.5746962     -1.3373359      18371.021    
    419000   0.99463496     0.0023323615  -0.0019711479   20.596426      19.119393      1.4770329     -1.4097723      18424.859    
    420000   1.1499394      0.0023323615  -0.0032766265   20.789695      19.082035      1.70766       -1.5549665      18365.947    
    421000   1.0691148      0.0023323615   0.00024409184  20.355903      18.768268      1.5876355     -1.7145516      18217.596    
    422000   1.0315818      0.0023323615   0.00088828901  20.319421      18.787522      1.531899      -1.6379032      18290.944    
    423000   1.0765896      0.0023323615   0.00013987353  20.311943      18.713208      1.5987355     -1.7767178      18314.794    
    424000   1.0240354      0.0023323615   0.0013417502   20.222559      18.701866      1.5206926     -1.7240075      18247.954    
    425000   0.88093152     0.0023323615   0.0016679011   20.168078      18.859894      1.3081833     -1.7267247      18189.48     
    426000   1.0487088      0.0023323615   0.0011007751   20.67467       19.117337      1.5573326     -1.333516       18341.381    
    427000   0.9839274      0.0023323615  -0.0043731656   20.516954      19.055821      1.4611322     -1.6067211      18492.198    
    428000   1.0111671      0.0023323615   0.0048327468   20.282614      18.78103       1.5015831     -1.7242506      18413.391    
    429000   0.91920735     0.0023323615  -0.00046607416  20.308929      18.943906      1.3650229     -1.5558281      18498.956    
    430000   0.91998979     0.0023323615  -0.00086884681  20.251805      18.88562       1.3661848     -1.6889585      18285.633    
    431000   1.0244213      0.0023323615  -0.0038540586   20.266837      18.745572      1.5212656     -1.7513493      18207.131    
    432000   0.85972891     0.0023323615   0.004766081    20.460698      19.184001      1.2766974     -1.4051834      18276.643    
    433000   0.86532056     0.0023323615   0.0018985154   19.968282      18.683281      1.285001      -1.7004349      18347.368    
    434000   1.0302805      0.0023323615  -0.0020031595   20.221784      18.691818      1.5299666     -1.8146404      18440.572    
    435000   0.84268194     0.0023323615  -0.003990217    20.354456      19.103074      1.2513827     -1.5386639      18378.07     
    436000   0.95803806     0.0023323615  -0.0012944062   20.193782      18.771095      1.4226865     -1.7969769      18293.938    
    437000   1.0094014      0.0023323615   0.0028812225   20.390719      18.891758      1.498961      -1.7559438      18281.165    
    438000   0.96860517     0.0023323615   0.00041379444  20.145423      18.707045      1.4383787     -1.7938669      18275.646    
    439000   1.1235245      0.0023323615  -0.0012831643   20.26049       18.592056      1.6684338     -1.8451139      18278.788    
    440000   1.2229703      0.0023323615  -0.0014444201   20.642051      18.825941      1.8161108     -1.6824146      18139.05     
    441000   0.91239833     0.0023323615   0.00069007205  20.218875      18.863963      1.3549115     -1.6640003      18269.718    
    442000   0.98500271     0.0023323615   0.00048655928  20.038869      18.57614       1.462729      -1.9942811      18181.975    
    443000   0.99062552     0.0023323615   0.0036773009   20.525164      19.054085      1.4710789     -1.5833702      18209.962    
    444000   0.83496444     0.0023323615   5.0091259e-05  20.047101      18.807179      1.2399222     -1.6624692      18288.414    
    445000   1.0093099      0.0023323615   0.0003428818   20.610144      19.111318      1.4988253     -1.3421792      18144.982    
    446000   1.0750078      0.0023323615  -0.0030395638   20.275407      18.67902       1.5963865     -1.8619911      18171.935    
    447000   1.007733       0.0023323615  -0.0003278103   20.184038      18.687554      1.4964836     -1.7255698      18185.735    
    448000   0.83639053     0.0023323615  -0.0061538088   20.238549      18.996509      1.2420399     -1.6220048      18155.045    
    449000   0.99476621     0.0023323615   0.0012633812   20.385723      18.908495      1.4772278     -1.607571       18202.656    
    450000   1.0965483      0.0023323615  -0.0044455505   20.750279      19.121904      1.6283742     -1.4302813      18105.544    
    451000   1.111746       0.0023323615  -0.00088426389  20.78417       19.133227      1.6509429     -1.4745534      18126.947    
    452000   0.92973547     0.0023323615  -0.0036743121   20.308825      18.928167      1.3806572     -1.5542778      18219.109    
    453000   0.98385171     0.0023323615  -0.00059859779  20.104862      18.643842      1.4610198     -1.8038869      18124.722    
    454000   0.99294124     0.0023323615  -0.00051403279  20.434455      18.959937      1.4745177     -1.5103445      18138.516    
    455000   1.1483633      0.0023323615   0.0037034673   20.418337      18.713018      1.7053194     -1.7123968      18487.653    
    456000   0.96202486     0.0023323615  -0.0013680533   20.360956      18.932349      1.4286069     -1.6298858      18273.993    
    457000   0.95631895     0.0023323615   0.00033395063  20.516401      19.096268      1.4201336     -1.4042977      18395.957    
    458000   0.95188649     0.0023323615   0.00053855086  20.46255       19.048998      1.4135514     -1.4874524      18273.036    
    459000   1.1026294      0.0023323615  -0.0045041074   20.136021      18.498617      1.6374046     -1.8978504      18278.855    
    460000   1.0357786      0.0023323615   0.0008596743   20.371136      18.833005      1.5381312     -1.7033022      18229.757    
    461000   0.991005       0.0023323615   0.00033227828  20.212023      18.74038       1.4716424     -1.8434121      18282.853    
    462000   0.95342522     0.0023323615   0.0014256115   20.276349      18.860513      1.4158365     -1.7791307      18099.927    
    463000   1.0498133      0.0023323615   0.0011774062   20.357665      18.798692      1.5589727     -1.699273       18153.777    
    464000   0.92896909     0.0023323615  -0.00202261     20.130857      18.751338      1.3795191     -1.6702328      18032.272    
    465000   0.97098074     0.0023323615  -0.0034973978   19.954009      18.512103      1.4419064     -1.9812045      18078.729    
    466000   1.1332105      0.0023323615   0.001468601    20.620746      18.937928      1.6828175     -1.5798064      18219.495    
    467000   0.92495657     0.0023323615  -0.00059224908  19.921711      18.54815       1.3735605     -1.8851969      18158.143    
    468000   0.83413885     0.0023323615  -0.00060816446  20.022151      18.783455      1.2386962     -1.750405       18178.263    
    469000   0.96550446     0.0023323615   0.00015035952  20.501553      19.067779      1.4337741     -1.4421696      18195.19     
    470000   0.90740652     0.0023323615  -0.0036009601   20.100972      18.753473      1.3474987     -1.7895018      18275.88     
    471000   0.91777851     0.0023323615   0.0031325637   20.339725      18.976824      1.3629011     -1.4645014      18268.839    
    472000   1.0403302      0.0023323615  -0.00061248083  20.399194      18.854304      1.5448903     -1.7268994      18318.693    
    473000   1.0686004      0.0023323615   0.00064856517  20.134533      18.547661      1.5868716     -1.8549789      18221.018    
    474000   1.0037367      0.0023323615   0.00058894693  20.529755      19.039206      1.490549      -1.5747483      18190.308    
    475000   1.197853       0.0023323615  -0.0034914943   20.581063      18.802251      1.7788117     -1.709695       18196.142    
    476000   1.0856318      0.0023323615  -0.0010725394   20.420514      18.808351      1.6121632     -1.6515066      18265.927    
    477000   1.0147573      0.0023323615  -0.0026150104   20.207922      18.701007      1.5069146     -1.7500305      18114.478    
    478000   0.99138311     0.0023323615  -0.002857293    20.233931      18.761727      1.4722039     -1.7461792      18328.229    
    479000   0.89900817     0.0023323615  -0.0021836336   20.112229      18.777202      1.3350271     -1.7863907      18209.826    
    480000   0.92737741     0.0023323615  -0.0022077227   20.435886      19.05873       1.3771555     -1.6764011      18398.884    
    481000   0.86847317     0.0023323615   0.001379986    19.929425      18.639742      1.2896827     -1.7935272      18222.013    
    482000   0.92917937     0.0023323615  -0.0013104243   20.069047      18.689216      1.3798314     -1.8101813      18212.078    
    483000   1.0540218      0.0023323615   0.0048887934   20.054639      18.489416      1.5652224     -2.0746123      18198.447    
    484000   0.93625386     0.0023323615   0.0032905255   20.258677      18.86834       1.390337      -1.6289801      18225.955    
    485000   0.99894983     0.0023323615   0.00077193587  20.27599       18.792549      1.4834405     -1.743707       18216.369    
    486000   0.94075822     0.0023323615  -0.00013589574  20.347458      18.950432      1.397026      -1.5865901      18211.932    
    487000   1.0541151      0.0023323615  -0.0001344681   20.586723      19.021362      1.565361      -1.5463525      18268.13     
    488000   0.98751303     0.0023323615  -0.0032464009   20.227629      18.761172      1.4664568     -1.7062007      18169.418    
    489000   1.0016555      0.0023323615  -0.0033360148   20.426563      18.939105      1.4874585     -1.6360124      18124.162    
    490000   0.95705475     0.0023323615   0.0026423341   20.349376      18.92815       1.4212263     -1.5893181      18138.199    
    491000   0.91942837     0.0023323615  -0.0027537699   20.219323      18.853972      1.3653511     -1.593694       18073.396    
    492000   1.0441257      0.0023323615   0.0011659349   20.373119      18.822593      1.5505267     -1.7030827      18154.067    
    493000   1.0589884      0.0023323615   0.0036800829   20.347272      18.774675      1.5725978     -1.876795       18114.952    
    494000   0.96419893     0.0023323615  -0.0011412514   20.42516       18.993324      1.4318354     -1.5737124      18032.014    
    495000   1.0554798      0.0023323615   0.0021790804   20.471463      18.904076      1.5673875     -1.6441324      18231.412    
    496000   1.061543       0.0023323615   0.00067894577  20.518137      18.941746      1.5763914     -1.6991806      18318.145    
    497000   1.000192       0.0023323615  -0.00021960918  20.348629      18.863344      1.4852852     -1.5821507      18364.321    
    498000   0.8756585      0.0023323615  -0.00067033677  20.648032      19.347679      1.3003529     -1.3582831      18216.007    
    499000   0.96498537     0.0023323615   0.0010693283   20.259794      18.826791      1.4330033     -1.713767       18092.748    
    500000   0.95117973     0.0023323615   0.00031544587  20.213775      18.801273      1.4125019     -1.6945215      17978.077    
    501000   0.9105709      0.0023323615  -0.0022876031   19.951064      18.598866      1.3521978     -1.8197981      18159.858    
    502000   1.0751843      0.0023323615  -0.0029733339   20.343075      18.746426      1.5966487     -1.8136628      18119.21     
    503000   0.94492518     0.0023323615  -0.0015527249   20.265452      18.862238      1.4032139     -1.6597739      18141.615    
    504000   0.94271267     0.0023323615   0.0020372717   20.023804      18.623876      1.3999283     -1.7918842      18170.793    
    505000   0.97661927     0.0023323615   0.0023378057   20.275209      18.82493       1.4502796     -1.7590257      18397.493    
    506000   0.97312233     0.0023323615   0.0017150252   20.061294      18.616207      1.4450867     -1.8754224      18337.873    
    507000   1.0473313      0.0023323615  -0.00091065994  20.263165      18.707878      1.5552869     -1.8391337      18259.301    
    508000   1.0121013      0.0023323615  -0.0025718208   20.232905      18.729935      1.5029704     -1.8234792      18331.777    
    509000   1.1373319      0.0023323615   0.00060107289  20.629692      18.940754      1.6889378     -1.553911       18408.789    
    510000   1.1323595      0.0023323615   0.00028709427  20.354703      18.673149      1.6815539     -1.7847272      18348.606    
    511000   1.0057594      0.0023323615   0.0040722387   20.267658      18.774105      1.4935528     -1.6958226      18240.734    
    512000   1.0968391      0.0023323615   0.0021886394   20.355614      18.726807      1.6288061     -1.7449815      18329.841    
    513000   1.0509157      0.0023323615   0.0020608981   20.565312      19.004702      1.5606099     -1.5501889      18488.588    
    514000   1.0117231      0.0023323615  -0.0036167567   20.436925      18.934517      1.5024089     -1.6866435      18403.684    
    515000   0.97368168     0.0023323615  -0.0012953811   20.473952      19.028035      1.4459173     -1.5612397      18438.334    
    516000   1.0432281      0.0023323615  -0.00060317766  20.565099      19.015905      1.5491937     -1.5330213      18446.284    
    517000   0.91413254     0.0023323615   0.0050560033   20.459093      19.101606      1.3574868     -1.524696       18399.074    
    518000   0.90233405     0.0023323615  -0.0003131042   20.289803      18.949837      1.3399661     -1.5882106      18333.652    
    519000   0.95288539     0.0023323615   0.00091727908  19.897749      18.482714      1.4150348     -1.9648384      18337.732    
    520000   0.9033709      0.0023323615   0.0026037364   20.187541      18.846035      1.3415058     -1.6769273      18382.775    
    521000   0.99461481     0.0023323615  -0.0019903079   20.096751      18.619748      1.477003      -1.9238579      18375.718    
    522000   0.93481896     0.0023323615   0.0004202277   20.223025      18.834819      1.3882061     -1.8050615      18358.555    
    523000   1.063029       0.0023323615   0.00038002855  20.676489      19.097891      1.578598      -1.4663694      18340.7      
    524000   0.90761049     0.0023323615  -0.0020292055   20.264341      18.916539      1.3478016     -1.5827768      18377.048    
    525000   1.0246106      0.0023323615   0.0013039403   20.20674       18.685193      1.5215467     -1.7464527      18459.756    
    526000   1.1373726      0.0023323615  -0.0024604178   20.538239      18.84924       1.6889984     -1.7061357      18443.148    
    527000   1.0156278      0.0023323615   0.0037755152   20.358667      18.85046       1.5082073     -1.7509171      18264.6      
    528000   1.053794       0.0023323615   0.0012518978   20.42538       18.860496      1.564884      -1.78875        18260.527    
    529000   1.0335411      0.0023323615  -0.0025146176   20.629848      19.09504       1.5348085     -1.5551479      18325.91     
    530000   0.97899386     0.0023323615   0.0040574698   20.269402      18.815596      1.4538059     -1.8682441      18340.548    
    531000   0.96600989     0.0023323615  -0.00082790943  20.180202      18.745677      1.4345247     -1.9582299      18332.531    
    532000   1.0459588      0.0023323615   0.0042317923   20.650203      19.096954      1.5532488     -1.523756       18303.428    
    533000   1.0240341      0.0023323615   0.0038377482   20.241053      18.720363      1.5206906     -1.7349858      18235.172    
    534000   0.96105145     0.0023323615  -0.0012746904   20.412578      18.985417      1.4271614     -1.6070339      18241.394    
    535000   1.0092055      0.0023323615   0.0038921744   19.966524      18.467854      1.4986701     -1.9902699      18247.32     
    536000   1.1209107      0.0023323615   0.0025412814   20.412171      18.747619      1.6645524     -1.8343764      18235.226    
    537000   1.0066804      0.0023323615   0.0025641026   20.264447      18.769526      1.4949204     -1.7213684      18320.579    
    538000   0.91411744     0.0023323615   8.8207319e-05  20.007155      18.649691      1.3574644     -1.8021961      18210.516    
    539000   0.86321811     0.0023323615  -0.0014384158   20.113757      18.831878      1.2818789     -1.5939308      18316.407    
    540000   1.0456889      0.0023323615  -0.0010193164   20.19163       18.638782      1.552848      -1.8207318      18277.711    
    541000   0.94326678     0.0023323615  -0.0041544759   20.278847      18.878095      1.4007512     -1.6503035      18130.22     
    542000   0.98890484     0.0023323615   0.0016838064   20.195672      18.727148      1.4685237     -1.8184577      18209.659    
    543000   0.99756122     0.0023323615  -0.0024908032   20.054318      18.572939      1.4813784     -1.8743         18200.916    
    544000   1.1553885      0.0023323615  -0.0036237167   20.670624      18.954872      1.715752      -1.6464044      18182.985    
    545000   1.0711478      0.0023323615   0.00072880813  20.419876      18.829221      1.5906544     -1.7262683      18333.541    
    546000   0.95588609     0.0023323615   0.0027167052   20.342925      18.923435      1.4194909     -1.6684984      18278.835    
    547000   1.2686754      0.0023323615  -0.00024348373  20.864969      18.980986      1.883983      -1.4813387      18219.944    
    548000   0.90174274     0.0023323615  -0.0045282985   20.177935      18.838848      1.339088      -1.7971976      18302.707    
    549000   0.97823841     0.0023323615  -0.0027083538   20.270361      18.817677      1.452684      -1.6911821      18301.194    
    550000   1.0391836      0.0023323615   0.0029208883   20.279515      18.736327      1.5431876     -1.6602816      18289.771    
    551000   1.0409337      0.0023323615   0.0047543746   20.357769      18.811982      1.5457865     -1.7457782      18307.407    
    552000   0.84874206     0.0023323615   0.0017239081   20.247341      18.986959      1.260382      -1.6205678      18295.484    
    553000   1.0654942      0.0023323615   0.00071868227  20.460675      18.878416      1.5822589     -1.7561779      18176.81     
    554000   1.0593088      0.0023323615  -0.00077586057  20.412859      18.839786      1.5730736     -1.6471385      18275.569    
    555000   1.0675508      0.0023323615  -0.00074469183  20.413588      18.828275      1.5853129     -1.5646849      18342.358    
    556000   0.96286418     0.0023323615   0.0043032452   20.16925       18.739397      1.4298533     -1.7001845      18259.444    
    557000   0.87870164     0.0023323615  -1.4612788e-05  20.335313      19.030441      1.3048719     -1.6191413      18539.753    
    558000   0.98625889     0.0023323615  -0.0022016593   20.217827      18.753232      1.4645944     -1.6904932      18622.406    
    559000   0.95806464     0.0023323615  -0.0010002731   20.129202      18.706476      1.422726      -1.8348145      18537.815    
    560000   0.9890575      0.0023323615   0.0020461467   20.324123      18.855372      1.4687504     -1.6304878      18407.482    
    561000   1.0181244      0.0023323615   0.0019899084   20.403754      18.891839      1.5119147     -1.6035686      18225.286    
    562000   1.0672645      0.0023323615  -0.00011556849  20.559287      18.9744        1.5848877     -1.6300507      18245.222    
    563000   0.90889571     0.0023323615   0.00010113823  20.268561      18.918851      1.3497101     -1.5497452      18332.817    
    564000   0.9820917      0.0023323615   0.0029615455   20.148982      18.690575      1.4584062     -1.7498462      18240.998    
    565000   0.98677127     0.0023323615   0.0001732462   20.271868      18.806513      1.4653553     -1.6140673      18214.478    
    566000   0.94882455     0.0023323615   0.00039699469  20.015381      18.606376      1.4090045     -1.7880858      18259.437    
    567000   1.1877757      0.0023323615   7.9248747e-05  20.543126      18.779279      1.763847      -1.7590846      18257.764    
    568000   0.93376305     0.0023323615   0.002885652    20.372834      18.986196      1.3866381     -1.5908578      18189.357    
    569000   1.12639        0.0023323615   0.0010118154   20.172396      18.499707      1.6726891     -1.9066498      18233.247    
    570000   1.1216153      0.0023323615   0.0036430515   20.612688      18.94709       1.6655987     -1.517276       18164.679    
    571000   1.0815911      0.0023323615  -0.00059355896  20.185177      18.579014      1.6061628     -1.9596286      18201.726    
    572000   1.1260391      0.0023323615  -0.00094740934  20.46188       18.789712      1.6721681     -1.70464        18284.789    
    573000   1.1432549      0.0023323615   0.0031665676   20.351076      18.653343      1.6977335     -1.9193187      18225.373    
    574000   0.84893651     0.0023323615  -0.0018722617   19.921413      18.660743      1.2606707     -1.706665       18250.907    
    575000   0.96864277     0.0023323615  -0.000212046    20.263736      18.825301      1.4384345     -1.6711225      18270.574    
    576000   1.0305949      0.0023323615   0.0042281323   20.252369      18.721936      1.5304334     -1.7307176      18180.2      
    577000   1.0225858      0.0023323615  -0.0041583527   20.232256      18.713716      1.5185399     -1.7365614      18256.619    
    578000   1.0245985      0.0023323615  -0.0035938758   20.327208      18.805679      1.5215288     -1.7275674      18160.082    
    579000   0.95288349     0.0023323615   0.0037000399   20.160826      18.745794      1.415032      -1.7581999      18334.323    
    580000   1.0465968      0.0023323615   0.0021558028   20.454929      18.900733      1.5541963     -1.5566386      18482.463    
    581000   1.0212788      0.0023323615   0.0007678527   20.433765      18.917166      1.516599      -1.5928555      18320.623    
    582000   1.0197749      0.0023323615  -0.001991912    20.37508       18.860714      1.5143657     -1.6919477      18143.484    
    583000   1.0810903      0.0023323615  -0.0012256227   20.521353      18.915934      1.6054191     -1.5916459      18299.002    
    584000   0.97815692     0.0023323615   0.00079936245  20.69746       19.244897      1.452563      -1.2816722      18375.424    
    585000   1.1212872      0.0023323615  -0.0054464044   20.757862      19.09275       1.6651115     -1.4018743      18238.918    
    586000   0.95461993     0.0023323615  -0.0016038074   20.315762      18.898151      1.4176106     -1.7034445      18149.473    
    587000   0.90663446     0.0023323615   0.0013016547   20.175796      18.829444      1.3463522     -1.548689       18207.092    
    588000   1.0197482      0.0023323615   0.00032419442  20.48222       18.967894      1.514326      -1.5603948      18188.87     
    589000   0.95441337     0.0023323615  -0.0012910033   20.262069      18.844765      1.4173039     -1.8430805      18157.773    
    590000   0.95198522     0.0023323615  -0.0007977645   20.282081      18.868383      1.413698      -1.6662119      18279.967    
    591000   0.91996801     0.0023323615   0.00090336393  20.114084      18.747931      1.3661525     -1.8205894      18371.535    
    592000   1.1309073      0.0023323615  -0.00079717667  20.719935      19.040537      1.6793973     -1.6096725      18238.681    
    593000   0.96038713     0.0023323615  -0.0030092793   20.366597      18.940422      1.4261749     -1.6529901      18274.876    
    594000   0.93281908     0.0023323615  -0.0012030432   20.39547       19.010233      1.3852363     -1.5218962      18405.079    
    595000   1.0271445      0.0023323615   0.003680445    20.349174      18.823864      1.5253096     -1.5891504      18363.632    
    596000   1.0316502      0.0023323615   0.0042846192   20.306752      18.774751      1.5320005     -1.6101076      18309.878    
    597000   1.0625083      0.0023323615  -0.0032884082   20.582108      19.004284      1.5778249     -1.4478721      18238.118    
    598000   1.0811401      0.0023323615  -0.0024757375   20.624565      19.019072      1.605493      -1.5105975      18298.972    
    599000   1.0441615      0.0023323615   0.00050043191  20.827596      19.277016      1.5505798     -1.2992998      18436.825    
    600000   0.97206311     0.0023323615   0.0029964294   20.334482      18.890969      1.4435137     -1.7286455      18289.647    
    601000   1.0570513      0.0023323615  -0.0038394439   20.361632      18.791911      1.5697211     -1.7094141      18314.73     
    602000   0.97870789     0.0023323615  -0.0025788449   20.228944      18.775563      1.4533812     -1.6992012      18306.342    
    603000   0.89557558     0.0023323615  -0.0029997101   20.195537      18.865607      1.3299297     -1.656824       18205.624    
    604000   1.1656764      0.0023323615  -0.00057171872  20.614178      18.883149      1.7310294     -1.5554487      18221.347    
    605000   0.99942631     0.0023323615   0.000708227    20.230551      18.746403      1.4841481     -1.7780545      18154.058    
    606000   1.0755488      0.0023323615  -0.0010554031   20.668619      19.071429      1.5971899     -1.4866114      18159.547    
    607000   0.96662319     0.0023323615   0.005262822    20.400377      18.964941      1.4354354     -1.3938554      18284.615    
    608000   0.88447505     0.0023323615  -0.00049889753  20.336935      19.02349       1.3134454     -1.4560644      18281.463    
    609000   0.90646707     0.0023323615  -0.00053299384  20.262928      18.916824      1.3461036     -1.5038723      18217.044    
    610000   0.97251419     0.0023323615  -0.0014370982   20.508044      19.06386       1.4441836     -1.4729305      18360.676    
    611000   0.97946824     0.0023323615   0.0023546663   20.276395      18.821885      1.4545103     -1.7478077      18333.76     
    612000   0.96704892     0.0023323615  -0.001083934    20.657975      19.221907      1.4360677     -1.40147        18319.927    
    613000   1.0208941      0.0023323615   0.0028329417   20.572677      19.056649      1.5160277     -1.4924136      18216.479    
    614000   0.79151613     0.0023323615  -0.0056438766   19.775844      18.600442      1.1754015     -1.8773052      18095.641    
    615000   1.0076481      0.0023323615   0.0027633332   20.357195      18.860837      1.4963574     -1.6998516      18209.795    
    616000   0.95700502     0.0023323615   0.0024874417   20.482652      19.0615        1.4211525     -1.5396781      18385.219    
    617000   0.94139648     0.0023323615  -0.0025562591   20.498394      19.10042       1.3979738     -1.4795968      18469.566    
    618000   0.93846529     0.0023323615  -0.0018724238   20.437875      19.044254      1.393621      -1.4593519      18469.207    
    619000   0.9322107      0.0023323615   0.0020223178   20.257572      18.873239      1.3843329     -1.696415       18212.583    
    620000   0.98989043     0.0023323615  -0.0029400015   20.429157      18.95917       1.4699873     -1.4318451      18228.728    
    621000   1.0633858      0.0023323615  -0.00083693415  20.381954      18.802826      1.5791279     -1.7548812      18249.145    
    622000   0.87020272     0.0023323615   0.0009066527   20.28848       18.996229      1.292251      -1.4538139      18161.972    
    623000   0.93319151     0.0023323615   9.8580229e-05  20.437655      19.051866      1.3857894     -1.4537184      18679.059    
    624000   1.072873       0.0023323615  -0.001518799    20.385106      18.79189       1.5932164     -1.5745509      18475.019    
    625000   0.99537565     0.0023323615   0.0023599285   20.53126       19.053127      1.4781328     -1.3432243      18334.013    
    626000   1.0138295      0.0023323615  -0.00095532667  20.708969      19.203432      1.5055368     -1.4107005      18420.136    
    627000   1.0041728      0.0023323615   0.00054932994  20.598182      19.106986      1.4911966     -1.4831313      18588.315    
    628000   0.8326635      0.0023323615  -0.00274314     20.258558      19.022053      1.2365053     -1.5935583      18493.222    
    629000   1.047735       0.0023323615  -0.0010860319   20.505042      18.949156      1.5558864     -1.5904155      18282.425    
    630000   0.82627742     0.0023323615   0.00036700467  20.143488      18.916466      1.227022      -1.6099311      18316.474    
    631000   1.1611525      0.0023323615  -0.00068945629  20.72405       18.999739      1.7243115     -1.5461901      18342.955    
    632000   0.95629994     0.0023323615   0.00035030372  20.07636       18.656254      1.4201054     -1.794905       18352.358    
    633000   0.95952681     0.0023323615  -0.0016306794   20.358555      18.933658      1.4248973     -1.5539715      18357.982    
    634000   0.97026503     0.0023323615   8.7723248e-05  20.143081      18.702237      1.4408436     -1.805074       18435.184    
    635000   1.0250627      0.0023323615   0.0003293348   20.462511      18.940293      1.522218      -1.6495109      18322.607    
    636000   0.89394793     0.0023323615  -0.002895901    20.660882      19.333369      1.3275127     -1.3165037      18328.751    
    637000   1.0594332      0.0023323615   0.0063142443   20.535972      18.962714      1.5732583     -1.5885921      18339.733    
    638000   0.96386438     0.0023323615  -0.00050695598  20.425672      18.994334      1.4313386     -1.6025015      18326.287    
    639000   1.0827606      0.0023323615   7.5275115e-05  20.497924      18.890024      1.6078996     -1.5629978      18273.1      
    640000   0.94854824     0.0023323615   0.0030590482   20.391447      18.982852      1.4085941     -1.646924       18341.105    
    641000   0.96611998     0.0023323615   0.00093772069  20.367221      18.932533      1.4346882     -1.5452836      18555.822    
    642000   0.94540101     0.0023323615  -0.0051429928   20.314262      18.910342      1.4039205     -1.5881059      18411.971    
    643000   0.9208333      0.0023323615   0.00066965577  20.269047      18.901609      1.3674375     -1.6389463      18388.562    
    644000   1.0094943      0.0023323615  -0.0025272795   20.26085       18.761751      1.499099      -1.6693911      18358.792    
    645000   0.92096659     0.0023323615   0.0034972131   20.192667      18.825032      1.3676354     -1.6589842      18188.866    
    646000   1.0169231      0.0023323615   0.0020106956   20.661556      19.151425      1.5101308     -1.4001441      18378.899    
    647000   1.1363172      0.0023323615  -0.0019668452   20.729338      19.041907      1.687431      -1.6006467      18511.325    
    648000   1.0426238      0.0023323615  -0.0014284709   20.324014      18.775718      1.5482964     -1.7803086      18469.262    
    649000   1.0580575      0.0023323615  -0.0022972605   20.266364      18.695148      1.5712154     -1.7932178      18377.718    
    650000   1.0387881      0.0023323615  -0.00015992235  20.380305      18.837705      1.5426004     -1.6690328      18271.952    
    651000   0.92059905     0.0023323615  -0.0011478509   20.399215      19.032125      1.3670896     -1.4839166      18305.473    
    652000   0.980741       0.0023323615  -0.0016551732   20.314311      18.85791       1.4564004     -1.6212697      18291.032    
    653000   0.92770763     0.0023323615   0.0012945537   20.305617      18.927971      1.3776458     -1.6290443      18311.47     
    654000   1.010504       0.0023323615   0.00034728041  20.609091      19.108493      1.5005984     -1.3749964      18353.128    
    655000   0.9929777      0.0023323615   0.0027779922   20.369494      18.894922      1.4745719     -1.6631597      18406.365    
    656000   1.0464997      0.0023323615   0.0029435081   20.15725       18.603198      1.554052      -1.7660621      18353.907    
    657000   0.94263878     0.0023323615  -0.0043522135   20.247751      18.847933      1.3998186     -1.7681608      18085.444    
    658000   1.2806454      0.0023323615  -0.0011460342   20.598229      18.696471      1.9017584     -1.7223291      18057.659    
    659000   1.2396948      0.0023323615  -0.0011866871   20.740596      18.89965       1.8409467     -1.6246419      18162.951    
    660000   1.0410527      0.0023323615  -0.0044936494   20.465779      18.919816      1.5459633     -1.6818065      18176.591    
    661000   0.95494527     0.0023323615   0.00098099428  20.406039      18.987945      1.4180937     -1.4082135      18187.382    
    662000   0.96166598     0.0023323615   0.0014231136   20.154821      18.726747      1.428074      -1.6977761      18169.047    
    663000   0.94871311     0.0023323615  -0.00036064031  20.386498      18.977659      1.408839      -1.5129376      18116.451    
    664000   0.93764392     0.0023323615   0.0032885109   20.627986      19.235584      1.3924012     -1.4015499      18354.471    
    665000   1.032311       0.0023323615   0.0063288065   20.600251      19.067269      1.5329819     -1.5226888      18303.687    
    666000   1.1325063      0.0023323615  -0.004324283    20.6411        18.959329      1.6817718     -1.5510456      18223.596    
    667000   1.0575366      0.0023323615   0.0014591067   20.640146      19.069704      1.5704418     -1.6119894      18204.594    
    668000   0.9009937      0.0023323615  -0.0010966977   20.260044      18.922068      1.3379756     -1.5182244      18297.114    
    669000   1.1252245      0.0023323615  -0.00015865273  20.535036      18.864077      1.6709585     -1.5896793      18268.204    
    670000   0.92042297     0.0023323615  -0.0022665332   20.254995      18.888167      1.3668281     -1.6991504      18309.65     
    671000   0.93958924     0.0023323615   0.0031567372   20.216854      18.821564      1.39529       -1.6520717      18278.912    
    672000   1.0613361      0.0023323615  -0.0008317812   20.209727      18.633643      1.5760842     -1.693398       18229.038    
    673000   0.92180641     0.0023323615  -0.0027503853   19.922226      18.553344      1.3688825     -1.8646213      18372.066    
    674000   1.0402621      0.0023323615   0.00036303592  20.210779      18.66599       1.5447893     -1.7611472      18300.455    
    675000   0.85681451     0.0023323615   0.00013423795  19.809701      18.537332      1.2723695     -1.8880619      18212.72     
    676000   1.0685403      0.0023323615  -0.0032391497   20.310074      18.723292      1.5867823     -1.830668       18167.443    
    677000   0.9190779      0.0023323615  -0.0055657101   20.05848       18.693649      1.3648307     -1.8348375      18199.894    
    678000   1.1407564      0.0023323615   0.0001622882   20.552975      18.858952      1.6940233     -1.6162834      18202.499    
    679000   0.93713634     0.0023323615   0.0018759809   20.247495      18.855848      1.3916475     -1.7327431      18194.215    
    680000   1.2124377      0.0023323615   0.003056501    20.691101      18.890631      1.80047       -1.6496425      18169.06     
    681000   1.0028789      0.0023323615   0.0026446871   20.240693      18.751418      1.4892751     -1.8628183      18261.76     
    682000   0.92355372     0.0023323615   0.0025951748   20.013502      18.642025      1.3714773     -1.9090693      18269.093    
    683000   0.9335467      0.0023323615   0.00096834543  20.065499      18.679182      1.3863169     -1.7978482      18276.342    
    684000   0.87142352     0.0023323615   0.0019322046   20.284543      18.990479      1.2940639     -1.5576071      18350.894    
    685000   1.0656068      0.0023323615   0.0011162247   20.027314      18.444888      1.5824262     -1.9673752      18246.286    
    686000   0.99457103     0.0023323615  -0.00027847358  20.22624       18.749302      1.476938      -1.8405072      18220.426    
    687000   0.8860607      0.0023323615  -0.0021528399   20.242004      18.926204      1.3158001     -1.5928185      18326.012    
    688000   0.92813547     0.0023323615  -0.0017631766   20.144291      18.76601       1.3782812     -1.6927225      18270.407    
    689000   0.8214576      0.0023323615   0.0018148711   19.929266      18.709401      1.2198645     -1.9087904      18133.319    
    690000   1.0053983      0.0023323615  -0.0013433754   20.383133      18.890116      1.4930165     -1.6860747      18339.612    
    691000   0.98134618     0.0023323615   0.00062003145  20.165907      18.708608      1.4572991     -1.7816244      18283.667    
    692000   0.85702931     0.0023323615  -0.0043049356   20.129848      18.85716       1.2726885     -1.6436826      18181.197    
    693000   1.0967759      0.0023323615   0.00024093986  20.499654      18.870942      1.6287122     -1.6917138      18463.891    
    694000   0.99446958     0.0023323615   0.00096045927  20.252718      18.775931      1.4767873     -1.7003629      18460.862    
    695000   1.0928488      0.0023323615   0.00017333986  20.655099      19.032219      1.6228805     -1.5089756      18185.261    
    696000   1.0477917      0.0023323615   0.0043339999   20.408534      18.852563      1.5559707     -1.6377824      18262.699    
    697000   1.0738495      0.0023323615   0.0028884144   20.658102      19.063435      1.5946665     -1.54169        18233.593    
    698000   0.99602832     0.0023323615   0.0024190687   19.843762      18.36466       1.479102      -2.0440242      18381.641    
    699000   0.90426681     0.0023323615   0.0053526585   20.027817      18.684981      1.3428362     -1.7811233      18399.739    
    700000   1.0926043      0.0023323615   0.00014618719  20.548286      18.925769      1.6225174     -1.665539       18332.45     
    701000   0.82486744     0.0023323615  -0.0029125956   20.096953      18.872025      1.2249281     -1.594233       18385.89     
    702000   1.0479793      0.0023323615  -0.0040792107   20.523404      18.967154      1.5562492     -1.3890586      18410.239    
    703000   1.0594942      0.0023323615  -0.0033797884   20.735368      19.162019      1.5733489     -1.3372735      18241.358    
    704000   1.0999792      0.0023323615  -0.00016534544  20.721587      19.088118      1.6334691     -1.5569219      18358.269    
    705000   0.97345853     0.0023323615  -0.0023564598   20.705098      19.259512      1.4455859     -1.4429622      18415.908    
    706000   0.93078012     0.0023323615  -0.00099028886  20.51578       19.133571      1.3822085     -1.3788989      18530.106    
    707000   0.94722875     0.0023323615  -0.00035979752  20.120484      18.71385       1.4066347     -1.6697506      18485.981    
    708000   0.90563753     0.0023323615  -0.0023989234   20.070232      18.72536       1.3448717     -1.7375355      18358.421    
    709000   0.97769224     0.0023323615  -0.00019256759  20.395897      18.944024      1.451873      -1.5626553      18406.518    
    710000   0.96068446     0.0023323615  -0.0010093556   20.206538      18.779921      1.4266164     -1.776446       18401.458    
    711000   1.1932049      0.0023323615   0.0010602579   20.425953      18.654043      1.7719093     -1.8727827      17960.077    
    712000   1.0116451      0.0023323615   0.0011132184   20.40112       18.898827      1.502293      -1.6525307      18161.797    
    713000   0.95972508     0.0023323615  -0.0018140229   20.327306      18.902114      1.4251917     -1.6609128      18235.702    
    714000   1.0423981      0.0023323615   0.0049203628   20.104714      18.556753      1.5479611     -1.9775565      18192.274    
    715000   1.1588424      0.0023323615   0.0032823031   20.647099      18.926218      1.720881      -1.6854122      18158.797    
    716000   0.93690697     0.0023323615   0.00077658363  20.309485      18.918178      1.3913069     -1.5449265      18172.779    
    717000   0.96113496     0.0023323615  -0.00056524162  20.241064      18.813779      1.4272854     -1.7127855      18134.947    
    718000   0.94476077     0.0023323615  -0.0017498448   20.284464      18.881494      1.4029697     -1.7037129      18172.061    
    719000   0.98132691     0.0023323615   0.0010355227   20.088783      18.631513      1.4572705     -1.8473248      18077.115    
    720000   0.94636972     0.0023323615   0.00025413997  20.070704      18.665345      1.405359      -1.7877707      18213.075    
    721000   1.1182568      0.0023323615  -0.0046121065   20.633075      18.972464      1.6606113     -1.5756279      18207.769    
    722000   1.0942882      0.0023323615   0.00074472742  20.377859      18.752841      1.6250179     -1.6834683      18255.009    
    723000   0.9489604      0.0023323615  -0.0013818963   20.075182      18.665975      1.4092062     -1.6786642      18278.059    
    724000   0.98360297     0.0023323615   0.0043289344   20.125216      18.664566      1.4606504     -1.8082519      18312.193    
    725000   1.0844744      0.0023323615   0.0015631522   20.549414      18.938969      1.6104445     -1.5563642      18245.636    
    726000   0.90302671     0.0023323615   0.0011147953   20.140791      18.799796      1.3409947     -1.6157973      18299.922    
    727000   0.87243302     0.0023323615   0.0021736231   20.224364      18.928801      1.295563      -1.7664312      18285.138    
    728000   1.0229273      0.0023323615  -0.0043117444   20.179682      18.660635      1.519047      -1.9442298      18263.36     
    729000   0.9342896      0.0023323615  -0.0025777111   20.292346      18.904926      1.3874201     -1.6475049      18099.057    
    730000   1.0068922      0.0023323615   0.00046741898  20.368882      18.873647      1.4952349     -1.6979849      18205.697    
    731000   1.0470361      0.0023323615   0.0041260568   20.487486      18.932637      1.5548486     -1.4740838      18221.54     
    732000   0.92990096     0.0023323615  -0.0028142013   20.15586       18.774957      1.3809029     -1.6517941      18295.689    
    733000   1.0153536      0.0023323615  -0.002824843    20.183168      18.675368      1.5078        -1.7714765      18352.928    
    734000   0.94381943     0.0023323615   0.0022120082   20.087872      18.686301      1.4015718     -1.765438       18209.321    
    735000   1.0586269      0.0023323615  -0.0013210273   20.316893      18.744832      1.5720609     -1.7743863      18092.912    
    736000   0.88628449     0.0023323615   0.00036262453  20.262771      18.946639      1.3161325     -1.5578047      18138.925    
    737000   1.042064       0.0023323615   0.0012290573   20.394738      18.847273      1.547465      -1.6543687      18089.276    
    738000   1.0032167      0.0023323615  -0.00012796599  20.062551      18.572774      1.4897768     -1.8570814      18202.191    
    739000   0.96436577     0.0023323615  -0.0041654252   20.160938      18.728855      1.4320832     -1.724172       18162.514    
    740000   0.89992937     0.0023323615  -0.00088753774  20.272752      18.936357      1.3363951     -1.5789817      18263.928    
    741000   0.9525233      0.0023323615   0.00027375686  20.307523      18.893026      1.4144971     -1.550095       18190.166    
    742000   0.943782       0.0023323615   0.00048963473  20.499306      19.09779       1.4015163     -1.5037725      18217.134    
    743000   0.91760434     0.0023323615   0.0016133054   20.305735      18.943093      1.3626424     -1.5401381      18154.81     
    744000   1.0268072      0.0023323615  -0.0017184403   20.360428      18.835619      1.5248087     -1.6394453      18187.706    
    745000   1.0592558      0.0023323615  -0.0019172114   20.338723      18.765728      1.5729949     -1.8641876      18173.096    
    746000   1.0414142      0.0023323615  -0.00036729265  20.533932      18.987432      1.5465001     -1.5383011      18168.521    
    747000   1.0209745      0.0023323615  -0.00016778942  20.377246      18.861099      1.5161471     -1.6628207      18189.566    
    748000   0.95526636     0.0023323615  -0.0020686229   20.498726      19.080156      1.4185706     -1.6536362      18125.574    
    749000   1.0852188      0.0023323615   0.00079904361  20.75779       19.14624       1.6115499     -1.4871996      18111.218    
    750000   0.96910113     0.0023323615  -0.0014351445   20.429638      18.990523      1.4391152     -1.4775302      18118.378    
    751000   0.98059776     0.0023323615   0.003382669    20.338347      18.882159      1.4561877     -1.5400335      18142.98     
    752000   0.97891891     0.0023323615  -0.00094702551  20.228967      18.775272      1.4536946     -1.6726836      18190.222    
    753000   0.93543597     0.0023323615   0.00023994974  20.141569      18.752446      1.3891224     -1.7468203      18151.09     
    754000   0.90674846     0.0023323615  -0.00028547309  20.189217      18.842696      1.3465215     -1.6807956      18186.467    
    755000   0.92764764     0.0023323615   0.0014254899   20.444626      19.067069      1.3775567     -1.5696893      18250.036    
    756000   0.90459714     0.0023323615  -0.0003488027   20.126386      18.783059      1.3433267     -1.6395714      18191.015    
    757000   1.1107699      0.0023323615  -2.2992048e-05  20.343579      18.694086      1.6494933     -1.7757719      18348.691    
    758000   1.0594411      0.0023323615  -0.00013575269  20.447993      18.874723      1.57327       -1.6697931      18203.615    
    759000   1.0250283      0.0023323615  -0.00076913795  20.282171      18.760004      1.522167      -1.731098       18018.586    
    760000   0.9763815      0.0023323615  -0.00016078395  20.086799      18.636873      1.4499265     -1.8440324      18016.811    
    761000   1.0493276      0.0023323615   0.0010291881   20.421477      18.863226      1.5582515     -1.678257       18111.31     
    762000   0.91299973     0.0023323615  -0.00061531097  20.210109      18.854305      1.3558046     -1.7739668      18140.444    
    763000   1.1569735      0.0023323615   0.0017753828   20.358571      18.640465      1.7181057     -1.7944082      18054.833    
    764000   1.0107518      0.0023323615   0.0011845598   20.174627      18.67366       1.5009664     -1.7157366      18174.01     
    765000   1.1290061      0.0023323615  -0.0010190866   20.319044      18.64247       1.676574      -1.8275171      18214.345    
    766000   0.9903273      0.0023323615  -0.0033995322   20.350193      18.879557      1.470636      -1.587842       18263.176    
    767000   1.0910743      0.0023323615  -0.0012760311   20.903301      19.283055      1.6202453     -1.2901304      18362.787    
    768000   0.97093301     0.0023323615   0.0026829912   20.228207      18.786371      1.4418355     -1.7498981      18443.431    
    769000   0.9706987      0.0023323615   0.0033330313   20.432062      18.990575      1.4414876     -1.58665        18689.796    
    770000   0.90120124     0.0023323615   0.0013506005   20.469802      19.131518      1.3382838     -1.3991806      18725.336    
    771000   0.97315519     0.0023323615   0.0032439337   20.214033      18.768897      1.4451355     -1.6559147      18747.497    
    772000   1.0136372      0.0023323615  -0.0005533525   20.196811      18.69156       1.5052513     -1.6951636      18573.96     
    773000   0.93410972     0.0023323615  -0.00040314758  20.245552      18.858399      1.3871529     -1.6099893      18422.064    
    774000   0.98536915     0.0023323615   0.0014914286   20.630093      19.16682       1.4632732     -1.4205739      18383.259    
    775000   0.88443695     0.0023323615   0.0011409767   20.180993      18.867604      1.3133889     -1.7005159      18268.779    
    776000   0.90325679     0.0023323615  -0.00036069359  20.503912      19.162576      1.3413363     -1.5191848      18301.556    
    777000   0.99346752     0.0023323615   0.0032999777   20.374077      18.898778      1.4752993     -1.5199583      18303.885    
    778000   0.92707522     0.0023323615   0.00071473638  20.250312      18.873605      1.3767067     -1.6474106      18232.824    
    779000   0.90436192     0.0023323615  -0.00052013822  20.13473       18.791752      1.3429775     -1.8017876      18075.858    
    780000   1.0329591      0.0023323615   0.00092500794  20.140217      18.606273      1.5339443     -1.8180294      18161.311    
    781000   1.0749394      0.0023323615  -0.00033496816  20.379384      18.783099      1.596285      -1.7472086      18148.169    
    782000   0.93564233     0.0023323615  -0.0013734775   19.981546      18.592117      1.3894289     -1.8110056      18214.9      
    783000   1.0065775      0.0023323615   0.0018543127   20.264645      18.769878      1.4947676     -1.6871273      18169.213    
    784000   0.8898148      0.0023323615  -0.0011290353   19.945173      18.623798      1.321375      -1.8966848      18267.361    
    785000   0.88906963     0.0023323615  -0.0010361519   20.088823      18.768554      1.3202684     -1.8102501      18100.396    
    786000   1.0735612      0.0023323615   0.00050874821  20.46947       18.875232      1.5942383     -1.6427217      18220.798    
    787000   0.95496133     0.0023323615  -0.00048079521  20.027136      18.609019      1.4181176     -1.8451496      18209.553    
    788000   0.96237919     0.0023323615   0.0050679896   20.119697      18.690564      1.4291331     -1.8266878      18198.142    
    789000   1.0250338      0.0023323615   0.00057126118  20.256339      18.734164      1.5221753     -1.7510159      18146.572    
    790000   1.0701373      0.0023323615  -0.00055741696  20.572525      18.983371      1.5891539     -1.5132325      18216.755    
    791000   0.99512362     0.0023323615   0.0014681565   20.379772      18.902014      1.4777586     -1.5517854      18088.666    
    792000   1.0472762      0.0023323615   0.0043701452   20.517045      18.96184       1.5552051     -1.5155926      18290.552    
    793000   1.0086695      0.0023323615  -0.00088433055  20.218668      18.720794      1.4978742     -1.9069238      18237.244    
    794000   1.0453089      0.0023323615   0.00086085479  20.678935      19.126651      1.5522837     -1.5109235      18205.816    
    795000   1.1469651      0.0023323615   0.0018872268   20.46136       18.758117      1.7032432     -1.8640057      18289.708    
    796000   1.0196272      0.0023323615  -0.0055490131   20.38459       18.870443      1.5141464     -1.6381892      18296.128    
    797000   0.91673158     0.0023323615   0.0021250095   20.212366      18.851019      1.3613464     -1.6486737      18378.93     
    798000   0.99804609     0.0023323615   0.0017826481   20.131054      18.648955      1.4820984     -1.880751       18435.606    
    799000   0.984735       0.0023323615   0.0018402606   20.166258      18.703926      1.4623315     -1.9091377      18397.805    
    800000   0.98266768     0.0023323615   0.0023882522   20.16897       18.709708      1.4592615     -1.7283614      18530.866    
    801000   1.0315519      0.0023323615   0.0014186985   20.296915      18.76506       1.5318545     -1.6703055      18325.763    
    802000   1.0164476      0.0023323615   0.00079241981  20.31558       18.806156      1.5094247     -1.7046894      18308.763    
    803000   1.0037075      0.0023323615  -0.00059284406  20.447499      18.956993      1.4905056     -1.5735131      18299.224    
    804000   0.95065562     0.0023323615   0.00041529491  20.394365      18.982642      1.4117236     -1.5183955      18331.235    
    805000   1.0324791      0.0023323615  -0.00025805157  20.167303      18.634072      1.5332315     -1.89058        18087.627    
    806000   1.0090471      0.0023323615   0.0013794007   20.066454      18.568019      1.4984349     -1.8220395      18245.169    
    807000   1.0381356      0.0023323615   0.0012057975   20.507178      18.965547      1.5416313     -1.6475385      18272.277    
    808000   1.073049       0.0023323615   0.00012734446  20.294884      18.701406      1.5934777     -1.8699376      18092.053    
    809000   0.98803657     0.0023323615   0.003035157    20.26507       18.797835      1.4672343     -1.7766113      18219.748    
    810000   1.0168904      0.0023323615   0.0070170359   20.446662      18.93658       1.5100822     -1.6111889      18255.483    
    811000   1.1128393      0.0023323615   0.00038776053  20.097421      18.444854      1.6525664     -2.0581         18211.706    
    812000   0.98107191     0.0023323615   0.0035430829   19.896865      18.439973      1.4568918     -2.0053303      18170.85     
    813000   1.0920045      0.0023323615  -0.0007601158   20.625518      19.003891      1.6216267     -1.5457487      18069.522    
    814000   1.0508841      0.0023323615   0.0015614146   20.031301      18.470738      1.5605628     -1.9941226      18135.276    
    815000   1.0436352      0.0023323615  -0.00035284447  20.487758      18.93796       1.5497983     -1.7101175      18093.856    
    816000   1.081216       0.0023323615  -0.00040991113  20.437355      18.831749      1.6056058     -1.6796741      18229.454    
    817000   0.95888097     0.0023323615   0.0021301708   20.055166      18.631228      1.4239382     -1.7861772      18245.873    
    818000   0.9463764      0.0023323615  -0.00012779922  20.266574      18.861205      1.405369      -1.6408193      18243.528    
    819000   0.81845611     0.0023323615   0.00025288353  19.980517      18.76511       1.2154073     -1.7729798      18310.019    
    820000   0.98846867     0.0023323615   0.0030704036   20.200686      18.73281       1.467876      -1.8006822      18264.392    
    821000   0.97150756     0.0023323615   0.00065626065  19.986433      18.543744      1.4426887     -1.9631995      18236.299    
    822000   1.0385134      0.0023323615  -0.0012534456   20.699821      19.157628      1.5421924     -1.4553594      18290.592    
    823000   1.1460742      0.0023323615   0.0013867029   20.571963      18.870043      1.7019202     -1.5389047      18300.918    
    824000   0.98791636     0.0023323615   0.0018175426   20.454995      18.98794       1.4670558     -1.5103904      18353.677    
    825000   1.0287583      0.0023323615  -0.0024039296   20.5431        19.015394      1.5277061     -1.4931317      18306.957    
    826000   0.85134628     0.0023323615  -0.0032829902   20.134216      18.869967      1.2642492     -1.7850199      18254.796    
    827000   0.96445812     0.0023323615   0.00092511018  20.251812      18.819592      1.4322203     -1.6407657      18319.177    
    828000   1.1201947      0.0023323615  -0.00039130424  20.566624      18.903135      1.6634891     -1.5826278      18142.469    
    829000   1.0484144      0.0023323615   0.0031369015   20.694435      19.137539      1.5568954     -1.5600688      18188.21     
    830000   1.0906507      0.0023323615  -0.0026219003   20.620424      19.000808      1.6196162     -1.5845834      18132.953    
    831000   1.0260437      0.0023323615   0.00068040317  20.413418      18.889743      1.5236749     -1.6853627      18219.837    
    832000   1.0001484      0.0023323615  -0.0020774365   20.495648      19.010428      1.4852204     -1.525586       18104.093    
    833000   1.0791152      0.0023323615  -0.00030008643  20.614182      19.011696      1.6024861     -1.5105258      18253.42     
    834000   1.0191188      0.0023323615   0.0025063932   20.273978      18.760586      1.5133915     -1.6761051      18257.197    
    835000   1.1060932      0.0023323615   0.00055329847  20.524088      18.88154       1.6425484     -1.5859423      18321.763    
    836000   0.80753957     0.0023323615   0.0036340912   20.160481      18.961285      1.1991963     -1.6131223      18259.735    
    837000   1.2058357      0.0023323615   0.0039545331   20.864303      19.073637      1.7906661     -1.4701506      18261.449    
    838000   1.0223469      0.0023323615  -0.0033586107   20.706059      19.187874      1.5181852     -1.3618742      18286.317    
    839000   1.0840438      0.0023323615   0.0015020908   20.499351      18.889546      1.609805      -1.5532501      18214.338    
    840000   1.0571556      0.0023323615   0.0034738868   20.416228      18.846352      1.5698761     -1.6789831      18064.166    
    841000   1.1444334      0.0023323615   0.0044322286   20.849729      19.150245      1.6994836     -1.4063184      18071.796    
    842000   0.96348385     0.0023323615  -0.0022634325   20.143553      18.712779      1.4307735     -1.7429749      18292.999    
    843000   1.0381704      0.0023323615  -0.0020764427   20.296764      18.75508       1.5416831     -1.8366384      18133.118    
    844000   0.96211355     0.0023323615   0.002348662    20.075786      18.647047      1.4287386     -1.7443498      18204.282    
    845000   1.0066693      0.0023323615   0.0015784404   20.180548      18.685644      1.4949039     -1.7365185      18191.005    
    846000   0.99335119     0.0023323615   0.0053710312   20.414151      18.939025      1.4751265     -1.686287       18296.738    
    847000   1.1603368      0.0023323615   0.00018287055  20.603572      18.880472      1.7231002     -1.538013       18234.613    
    848000   0.99406799     0.0023323615   0.0013048418   20.310307      18.834116      1.476191      -1.589222       18167.585    
    849000   1.0329645      0.0023323615  -0.0042197601   20.676389      19.142436      1.5339523     -1.6016187      18179.746    
    850000   0.99545467     0.0023323615   0.00080136253  20.516552      19.038302      1.4782502     -1.3945254      18248.895    
    851000   1.1524643      0.0023323615   0.001305441    20.43332       18.72191       1.7114094     -1.7224277      18265.268    
    852000   0.94502926     0.0023323615  -0.00020204639  20.550703      19.147335      1.4033685     -1.3592879      18383.381    
    853000   0.79899059     0.0023323615   0.004897751    19.904334      18.717833      1.186501      -1.7920642      18341.162    
    854000   1.1139022      0.0023323615  -0.00057213966  20.683116      19.028971      1.6541448     -1.3554792      18403.752    
    855000   0.99391386     0.0023323615   0.0033834022   20.5912        19.115238      1.4759621     -1.3188631      18478.86     
    856000   0.97351169     0.0023323615   0.0022360864   20.323796      18.878131      1.4456649     -1.6107804      18438.558    
    857000   1.0034417      0.0023323615   0.0019415915   20.185205      18.695094      1.490111      -1.8100082      18355.929    
    858000   0.9592628      0.0023323615   0.0042041523   20.634151      19.209646      1.4245053     -1.4528524      18436.532    
    859000   0.8878663      0.0023323615  -0.0025865102   20.455836      19.137355      1.3184814     -1.4794573      18352.027    
    860000   0.97240523     0.0023323615   0.0017075546   20.426252      18.98223       1.4440218     -1.5576426      18193.256    
    861000   1.112971       0.0023323615   0.0018902621   20.514615      18.861853      1.652762      -1.6543665      18216.226    
    862000   0.91089374     0.0023323615   0.00054940021  20.276558      18.923881      1.3526772     -1.5062597      18357.512    
    863000   1.0179939      0.0023323615  -0.00089277531  20.562543      19.050822      1.511721      -1.4524087      18259.13     
    864000   1.0705534      0.0023323615   0.0041915256   20.220729      18.630957      1.5897719     -1.7926813      18200.674    
    865000   1.0319006      0.0023323615   0.0013688198   20.433232      18.90086       1.5323724     -1.5506267      18289.547    
    866000   1.1805243      0.0023323615   0.00036086406  20.602433      18.849354      1.7530785     -1.7356837      18346.735    
    867000   1.0066515      0.0023323615   0.0020313223   20.410932      18.916055      1.4948775     -1.6270489      18355.311    
    868000   1.0312967      0.0023323615   0.0031251709   20.335806      18.80433       1.5314756     -1.6609069      18466.135    
    869000   0.99909091     0.0023323615   0.0008500772   20.307602      18.823952      1.48365       -1.642137       18332.952    
    870000   1.0219599      0.0023323615  -0.00046278258  20.190886      18.673276      1.5176105     -1.8576477      18250.41     
    871000   0.83565233     0.0023323615  -0.0023505342   20.013679      18.772735      1.2409437     -1.7592642      18242.528    
    872000   1.0332517      0.0023323615   0.0037351198   20.414026      18.879647      1.5343787     -1.6148911      18288.256    
    873000   1.0655133      0.0023323615  -0.0012655397   20.636225      19.053938      1.5822873     -1.6050587      18352.5      
    874000   1.1404795      0.0023323615  -0.00047566387  20.518067      18.824455      1.6936121     -1.7510635      18231.525    
    875000   1.049          0.0023323615   0.00051435645  20.547553      18.989788      1.5577649     -1.5758708      18197.82     
    876000   0.99612271     0.0023323615  -0.0019058906   20.365086      18.885843      1.4792422     -1.6259397      18157.42     
    877000   1.0984582      0.0023323615  -0.0016398069   20.699176      19.067966      1.6312105     -1.4808661      18308.948    
    878000   1.0488036      0.0023323615  -0.0040244746   20.639844      19.082371      1.5574734     -1.388973       18302.589    
    879000   1.036889       0.0023323615   0.00053501115  20.701565      19.161785      1.5397801     -1.3336541      18381.465    
    880000   0.97307661     0.0023323615   0.0021878675   20.49648       19.051461      1.4450188     -1.5297196      18351.207    
    881000   1.0387341      0.0023323615   0.0010207797   20.358303      18.815783      1.5425201     -1.7131347      18372.962    
    882000   1.0806286      0.0023323615   6.3078288e-05  20.448642      18.843909      1.6047335     -1.7235855      18342.328    
    883000   0.9482731      0.0023323615   0.00037600637  20.324021      18.915835      1.4081856     -1.703273       18177.088    
    884000   0.87726464     0.0023323615   0.00048065692  19.874784      18.572046      1.302738      -1.829825       18292.04     
    885000   0.95079926     0.0023323615  -0.0017982309   20.183616      18.771679      1.4119369     -1.7048016      18596.44     
    886000   1.0988923      0.0023323615  -0.0056108484   20.813602      19.181747      1.631855      -1.3963608      18674.183    
    887000   1.0405518      0.0023323615   0.0014239944   20.5684        19.023181      1.5452194     -1.6751255      18609.709    
    888000   0.92499157     0.0023323615  -0.0041384526   19.949858      18.576246      1.3736125     -1.9221245      18455.517    
    889000   0.90181849     0.0023323615   0.00022552277  20.248552      18.909352      1.3392005     -1.5975782      18417.553    
    890000   1.0702761      0.0023323615   0.0041036589   20.242582      18.653222      1.58936       -1.7471051      18374.7      
    891000   1.0667594      0.0023323615  -0.0068549472   19.978256      18.394118      1.5841377     -2.0689161      18126.16     
    892000   0.9573412      0.0023323615   0.00042876089  20.287369      18.865717      1.4216517     -1.6219224      18140.006    
    893000   1.0200926      0.0023323615   0.0019653937   20.43683       18.921993      1.5148375     -1.5189701      18247.103    
    894000   0.93444489     0.0023323615   0.00020537329  20.466863      19.079212      1.3876507     -1.4655052      18302.566    
    895000   0.91067796     0.0023323615   0.00095595309  20.174878      18.822521      1.3523568     -1.7588632      18373.364    
    896000   0.89330033     0.0023323615  -4.8134941e-05  20.346934      19.020383      1.326551      -1.5581297      18308.666    
    897000   1.0451165      0.0023323615   0.0010870653   20.483196      18.931198      1.5519981     -1.5179633      18289.567    
    898000   1.0887174      0.0023323615   0.0010058235   20.450609      18.833864      1.6167453     -1.8049904      18278.544    
    899000   1.0222326      0.0023323615   0.0051711328   20.559722      19.041707      1.5180154     -1.5442139      18209.576    
    900000   1.0254137      0.0023323615  -0.0019311837   20.102178      18.579438      1.5227394     -1.9194561      18246.493    
    901000   0.8415285      0.0023323615   0.0031198736   20.167723      18.918053      1.2496698     -1.6280648      18229.251    
    902000   1.0716848      0.0023323615   0.0023877794   20.669587      19.078135      1.591452      -1.5043441      17996.251    
    903000   1.1879866      0.0023323615   0.0028564869   20.339623      18.575463      1.76416       -1.9910065      18303.556    
    904000   1.0201576      0.0023323615   0.0014988241   20.298122      18.783188      1.514934      -1.6839832      18100.987    
    905000   1.0282824      0.0023323615   0.0023536802   20.293314      18.766315      1.5269994     -1.8492659      18185.36     
    906000   0.89811224     0.0023323615  -0.00076087897  20.251464      18.917767      1.3336967     -1.7057776      18128.478    
    907000   0.97553856     0.0023323615   0.0032848458   20.312969      18.864294      1.4486748     -1.6296562      18096.045    
    908000   1.0136115      0.0023323615  -0.0036167636   20.282354      18.777141      1.5052131     -1.7514656      18211.749    
    909000   0.99576938     0.0023323615   0.0008179711   20.252098      18.773381      1.4787175     -1.7260681      18257.985    
    910000   0.98627471     0.0023323615   0.00050142218  20.362058      18.89744       1.464618      -1.724419       18193.392    
    911000   0.95850154     0.0023323615   0.00066792856  20.535914      19.112539      1.4233748     -1.4150645      18297.905    
    912000   0.96274839     0.0023323615  -0.00054254189  20.234782      18.805101      1.4296814     -1.780941       18294.417    
    913000   0.86122501     0.0023323615  -0.00012401378  20.073615      18.794696      1.2789191     -1.6315951      18304.818    
    914000   1.0094716      0.0023323615   0.0010102282   20.03455       18.535485      1.4990653     -1.8499766      18302.176    
    915000   0.98575908     0.0023323615  -0.0029151713   20.197949      18.734097      1.4638522     -1.7138253      18017.637    
    916000   0.90500801     0.0023323615   0.0006225721   20.001627      18.65769       1.3439369     -1.7738479      18112.194    
    917000   1.0355632      0.0023323615  -0.00062639621  20.397518      18.859706      1.5378114     -1.6793407      18132.301    
    918000   0.86220225     0.0023323615   0.0033932102   20.051463      18.771093      1.2803703     -1.6696319      18186.752    
    919000   1.0825626      0.0023323615  -0.0001450042   20.411299      18.803694      1.6076055     -1.6910962      18229.401    
    920000   1.0872742      0.0023323615   0.0022420115   20.500861      18.886259      1.6146022     -1.6847334      18151.261    
    921000   0.97736421     0.0023323615   0.0035733052   20.510067      19.058682      1.4513858     -1.5039893      18305.107    
    922000   1.1653263      0.0023323615   0.00117008     20.77594       19.045431      1.7305095     -1.5080139      18377.268    
    923000   1.0098461      0.0023323615  -0.00032499281  20.465495      18.965874      1.4996214     -1.5416792      18351.454    
    924000   1.2252957      0.0023323615  -0.0013996795   20.412851      18.593287      1.8195641     -1.9269987      18203.578    
    925000   0.99711231     0.0023323615  -0.0023132415   20.369502      18.88879       1.4807118     -1.6975932      18175.128    
    926000   0.87220636     0.0023323615  -0.0033418287   20.015844      18.720618      1.2952264     -1.7410537      18196.878    
    927000   1.0278013      0.0023323615  -0.0033514175   20.031052      18.504767      1.5262849     -1.9534932      18148.258    
    928000   0.94055942     0.0023323615  -0.003307785    20.278194      18.881463      1.3967307     -1.6037745      18216.05     
    929000   1.1015123      0.0023323615  -7.9206052e-05  20.108239      18.472493      1.6357457     -1.9088851      18160.475    
    930000   0.95356042     0.0023323615  -0.0037953481   20.340776      18.924739      1.4160372     -1.63914        18161.781    
    931000   1.053327       0.0023323615  -0.0010343068   20.342976      18.778786      1.5641905     -1.7378619      18056.146    
    932000   0.90183998     0.0023323615  -0.0009166871   20.057357      18.718124      1.3392324     -1.7262588      18109.562    
    933000   0.9909299      0.0023323615  -0.0017830576   20.172252      18.700721      1.4715309     -1.8449672      18143.742    
    934000   0.92320686     0.0023323615  -0.0034664958   20.180496      18.809534      1.3709622     -1.8363426      18098.023    
    935000   1.1482789      0.0023323615   0.0027698711   20.436218      18.731024      1.7051942     -1.9641677      18175.81     
    936000   0.99645298     0.0023323615  -0.0027598407   20.655781      19.176048      1.4797327     -1.4264993      18166.094    
    937000   0.95576944     0.0023323615   0.0026886408   20.328467      18.90915       1.4193176     -1.6408824      18208.333    
    938000   0.89015615     0.0023323615  -0.0033692971   20.262306      18.940424      1.3218819     -1.6736027      18178.372    
    939000   0.97739346     0.0023323615  -0.0015741934   20.094259      18.642829      1.4514293     -1.7705094      18138.008    
    940000   1.1472127      0.0023323615  -0.00087314452  20.714363      19.010752      1.7036109     -1.5984326      18223.526    
    941000   0.93076578     0.0023323615  -0.0030207561   20.036773      18.654586      1.3821872     -1.7734098      18242.761    
    942000   1.1644795      0.0023323615   0.0055975874   20.369555      18.640303      1.7292521     -1.8800499      18146.457    
    943000   0.97665285     0.0023323615   0.00034486946  20.676147      19.225818      1.4503295     -1.3006913      18213.57     
    944000   1.0222541      0.0023323615   0.0011438212   20.368504      18.850457      1.5180473     -1.6154428      18218.188    
    945000   0.98116593     0.0023323615   0.0021323454   20.458831      19.0018        1.4570314     -1.49412        18224.601    
    946000   1.0182059      0.0023323615  -0.0031198957   20.5567        19.044664      1.5120358     -1.4106538      18361.848    
    947000   1.1044544      0.0023323615  -0.001704204    20.583435      18.94332       1.6401148     -1.5085128      18270.086    
    948000   0.99272433     0.0023323615  -0.0044766102   20.658243      19.184047      1.4741956     -1.4482774      18186.643    
    949000   1.1393404      0.0023323615  -0.0032953102   20.708466      19.016546      1.6919205     -1.5384842      18287.714    
    950000   1.1381333      0.0023323615  -0.0053333399   20.574432      18.884304      1.6901279     -1.5780568      18237.251    
    951000   1.1494746      0.0023323615   0.0016076673   20.743292      19.036323      1.7069698     -1.4684272      18244.605    
    952000   1.1696089      0.0023323615  -0.0015464453   20.425201      18.688332      1.7368692     -1.7259883      18210.168    
    953000   1.0171689      0.0023323615  -0.00066165666  20.287789      18.777293      1.5104958     -1.6380192      18194.277    
    954000   0.91613048     0.0023323615   0.0062093616   20.376715      19.016261      1.3604538     -1.5969972      18347.446    
    955000   0.9767082      0.0023323615  -0.0018182839   20.154603      18.704191      1.4504117     -1.8382245      18297.107    
    956000   0.93331678     0.0023323615  -0.0020828492   20.186574      18.800598      1.3859754     -1.7727933      18163.532    
    957000   1.004224       0.0023323615   0.0036903009   20.305657      18.814385      1.4912726     -1.6581461      18316.064    
    958000   0.98564502     0.0023323615   0.0023780502   20.461638      18.997955      1.4636829     -1.4980664      18263.554    
    959000   0.95580078     0.0023323615   0.00078023917  20.325023      18.905659      1.4193642     -1.5749828      18339.764    
    960000   1.0715945      0.0023323615   0.0016337776   20.3699        18.778582      1.5913179     -1.7609778      18341.559    
    961000   0.98358758     0.0023323615  -0.0010024371   20.095743      18.635116      1.4606276     -1.9923777      18232.128    
    962000   1.1271394      0.0023323615   0.0019749264   20.490871      18.817069      1.673802      -1.7188451      18134.68     
    963000   1.0397604      0.0023323615   0.00039700773  20.270013      18.725969      1.5440442     -1.8408952      18229.178    
    964000   1.0718929      0.0023323615  -0.0014606033   20.239635      18.647874      1.5917609     -1.841903       18319.328    
    965000   0.84675435     0.0023323615   3.1532282e-05  19.743061      18.485631      1.2574302     -1.8822283      18225.36     
    966000   0.96489996     0.0023323615   7.8582539e-05  20.078526      18.645649      1.4328764     -1.8098894      18295.091    
    967000   0.9601109      0.0023323615   0.00076929243  20.246534      18.820769      1.4257647     -1.7101142      18233.953    
    968000   1.0596159      0.0023323615  -0.0023160435   20.334587      18.761058      1.5735296     -1.712505       18259.735    
    969000   0.93895456     0.0023323615  -0.0043976695   20.427132      19.032785      1.3943475     -1.4564862      18255.47     
    970000   0.92809983     0.0023323615  -0.0037899662   20.376034      18.997805      1.3782282     -1.5114593      18276.124    
    971000   0.93251653     0.0023323615   0.0024494663   20.411769      19.026981      1.384787      -1.557032       18187.945    
    972000   0.9350201      0.0023323615  -0.0044660081   20.539896      19.151391      1.3885048     -1.4510134      18325.571    
    973000   0.89223341     0.0023323615  -0.0025709684   20.005003      18.680037      1.3249666     -1.789395       18281.886    
    974000   1.0201215      0.0023323615   0.00071076785  20.300568      18.785687      1.5148804     -1.7017019      18195.176    
    975000   1.0534928      0.0023323615  -0.0052687886   20.553275      18.988838      1.5644368     -1.5739981      18316.874    
    976000   1.1176553      0.0023323615   0.0039565489   20.568815      18.909097      1.6597182     -1.605831       18254.796    
    977000   1.0814624      0.0023323615  -0.0021915209   20.618196      19.012225      1.6059717     -1.6196883      18139.211    
    978000   0.93435797     0.0023323615   0.0020911736   20.153619      18.766097      1.3875216     -1.7098483      17976.542    
    979000   0.97199813     0.0023323615  -0.0020065475   20.70297       19.259553      1.4434172     -1.2236571      18233.144    
    980000   0.95672425     0.0023323615  -0.0026006404   20.507101      19.086365      1.4207355     -1.4517301      18427.842    
    981000   0.9636047      0.0023323615   0.0002250587   20.289769      18.858816      1.430953      -1.6142292      18391.981    
    982000   0.9334509      0.0023323615   0.0028929074   20.109951      18.723777      1.3861746     -1.701496       18228.339    
    983000   0.9971306      0.0023323615   0.000285463    20.39534       18.914601      1.4807389     -1.6613164      18256.759    
    984000   0.90334289     0.0023323615  -0.00056344267  19.939334      18.59787       1.3414642     -1.7752139      18221.564    
    985000   0.9658247      0.0023323615   7.8559425e-05  20.494494      19.060244      1.4342497     -1.5086794      18262.514    
    986000   0.9300913      0.0023323615  -0.0020936214   20.199058      18.817872      1.3811856     -1.5518664      18283.272    
    987000   0.83657674     0.0023323615   0.00038850409  20.079433      18.837116      1.2423165     -1.6142271      18334.851    
    988000   0.92964544     0.0023323615  -0.00090829381  20.215866      18.835343      1.3805235     -1.6460125      18230.377    
    989000   0.92378131     0.0023323615   0.0010286072   20.193378      18.821563      1.3718152     -1.7412297      18200.485    
    990000   1.0113691      0.0023323615   0.0017053677   20.409723      18.90784       1.5018831     -1.6890422      18180.62     
    991000   1.0154748      0.0023323615   0.0036690294   20.544117      19.036137      1.5079801     -1.5836377      18206.069    
    992000   1.0739643      0.0023323615  -0.0042890693   20.434166      18.83933       1.5948369     -1.8122922      18228.901    
    993000   1.0298422      0.0023323615   0.0028585302   20.31132       18.782004      1.5293157     -1.8082826      18254.772    
    994000   1.09174        0.0023323615   0.0012717061   20.415458      18.794224      1.6212339     -1.7259293      18204.283    
    995000   1.086364       0.0023323615  -0.0018346166   20.231444      18.618193      1.6132506     -1.8501301      18254.428    
    996000   1.0176288      0.0023323615   0.0033462285   20.019937      18.508758      1.5111787     -1.9690142      18233.906    
    997000   0.98001168     0.0023323615   2.6153549e-05  20.225189      18.769872      1.4553174     -1.6838872      18232.388    
    998000   0.99785094     0.0023323615   0.00052401393  20.043904      18.562095      1.4818087     -1.883637       18223.004    
    999000   1.0189352      0.0023323615  -0.0008629015   20.391453      18.878335      1.5131188     -1.5999814      18274.254    
   1000000   0.90129622     0.0023323615   0.0017458068   20.249307      18.910882      1.3384249     -1.7264814      18513.906    
Loop time of 54.6732 on 1 procs for 1000000 steps with 100 atoms

Performance: 7901501.289 tau/day, 18290.512 timesteps/s
99.4% CPU use with 1 MPI tasks x 1 OpenMP threads

MPI task timing breakdown:
Section |  min time  |  avg time  |  max time  |%varavg| %total
---------------------------------------------------------------
Pair    | 45.696     | 45.696     | 45.696     |   0.0 | 83.58
Bond    | 1.2641     | 1.2641     | 1.2641     |   0.0 |  2.31
Neigh   | 3.7925     | 3.7925     | 3.7925     |   0.0 |  6.94
Comm    | 1.3949     | 1.3949     | 1.3949     |   0.0 |  2.55
Output  | 0.20999    | 0.20999    | 0.20999    |   0.0 |  0.38
Modify  | 1.9605     | 1.9605     | 1.9605     |   0.0 |  3.59
Other   |            | 0.3554     |            |       |  0.65

Nlocal:            100 ave         100 max         100 min
Histogram: 1 0 0 0 0 0 0 0 0 0
Nghost:            328 ave         328 max         328 min
Histogram: 1 0 0 0 0 0 0 0 0 0
Neighs:           4851 ave        4851 max        4851 min
Histogram: 1 0 0 0 0 0 0 0 0 0

Total # of neighbors = 4851
Ave neighs/atom = 48.51
Ave special neighs/atom = 1.98
Neighbor list builds = 97834
Dangerous builds = 79599

write_data      ${outputfile_assembled} nofix nocoeff
write_data      7_assembled.data nofix nocoeff
System init for write_data ...
Generated 0 of 6 mixed pair_coeff terms from geometric mixing rule

Total wall time: 0:00:56
