LAMMPS (23 Jun 2022 - Update 1)
OMP_NUM_THREADS environment is not set. Defaulting to 1 thread. (src/comm.cpp:98)
  using 1 OpenMP thread(s) per MPI task


variable        runtime equal 1000000
variable		subsample_rate equal 1000

variable		outputfile_created string '3_created.data'
variable		outputfile_relaxed string '5_relaxed.data'
variable		outputfile_selfasb string '6_a_self_assemble.lammpstrj'
variable		outputfile_trajlin string '6_b_trajlin.data'
variable		outputfile_assembled string '7_assembled.data'

units           lj
atom_style      full
dimension       3
boundary        p p p
timestep        0.005

read_data       ${outputfile_created}
read_data       3_created.data
Reading data file ...
  orthogonal box = (0 0 0) to (35 35 35)
  1 by 1 by 1 MPI processor grid
  reading atoms ...
  100 atoms
  reading velocities ...
  100 velocities
  scanning bonds ...
  1 = max bonds/atom
  reading bonds ...
  99 bonds
Finding 1-2 1-3 1-4 neighbors ...
  special bond factors lj:    0        0        0       
  special bond factors coul:  0        0        0       
     2 = max # of 1-2 neighbors
     2 = max # of 1-3 neighbors
     4 = max # of 1-4 neighbors
     6 = max # of special neighbors
  special bonds CPU = 0.000 seconds
  read_data CPU = 0.005 seconds

bond_style      fene
bond_coeff      * 30.0 1.5 1.0 1.0
special_bonds   fene
Finding 1-2 1-3 1-4 neighbors ...
  special bond factors lj:    0        1        1       
  special bond factors coul:  0        1        1       
     2 = max # of 1-2 neighbors
     6 = max # of special neighbors
  special bonds CPU = 0.000 seconds

variable        Temp equal 1.0
variable        velSeed equal 926458

velocity        all create ${Temp} ${velSeed}
velocity        all create 1 ${velSeed}
velocity        all create 1 926458

### Output
thermo_style    custom step temp density press etotal pe ke epair spcpu
thermo          1000

###########################################################################
# Soft relaxation (to remove overlaps of particles)
######################################################################

pair_style      soft 1.0
pair_coeff      * * 0.0
variable        prefactor equal ramp(0,300)
fix             rampSoft all adapt 1 pair soft a * * v_prefactor

minimize        0.0 1.0e-8 1000 100000
WARNING: Using 'neigh_modify every 1 delay 0 check yes' setting during minimization (src/min.cpp:187)
Generated 0 of 6 mixed pair_coeff terms from geometric mixing rule
Neighbor list info ...
  update every 1 steps, delay 0 steps, check yes
  max neighbors/atom: 2000, page size: 100000
  master list distance cutoff = 1.3
  ghost atom cutoff = 1.3
  binsize = 0.65, bins = 54 54 54
  1 neighbor lists, perpetual/occasional/extra = 1 0 0
  (1) pair soft, perpetual
      attributes: half, newton on
      pair build: half/bin/newton
      stencil: half/bin/3d
      bin: standard
WARNING: Communication cutoff 1.3 is shorter than a bond length based estimate of 1.7550000000000001. This may lead to errors. (src/comm.cpp:727)
Per MPI rank memory allocation (min/avg/max) = 8.346 | 8.346 | 8.346 Mbytes
   Step          Temp         Density         Press          TotEng         PotEng         KinEng         E_pair         S/CPU     
         0   1              0.0023323615  -0.0039617958   21.524174      20.039174      1.485          0              0            
       362   1              0.0023323615   0.0023090379   21.485548      20.000548      1.485          0              70360.954    
Loop time of 0.00514765 on 1 procs for 362 steps with 100 atoms

97.7% CPU use with 1 MPI tasks x 1 OpenMP threads

Minimization stats:
  Stopping criterion = force tolerance
  Energy initial, next-to-last, final = 
      20.0391741078675   20.0005480767337   20.0005480767337
  Force two-norm initial, final = 11.878422 7.9509778e-09
  Force max component initial, final = 6.6117807 1.3572772e-09
  Final line search alpha, max atom move = 1 1.3572772e-09
  Iterations, force evaluations = 362 738

MPI task timing breakdown:
Section |  min time  |  avg time  |  max time  |%varavg| %total
---------------------------------------------------------------
Pair    | 0.00021346 | 0.00021346 | 0.00021346 |   0.0 |  4.15
Bond    | 0.002341   | 0.002341   | 0.002341   |   0.0 | 45.48
Neigh   | 0.0014277  | 0.0014277  | 0.0014277  |   0.0 | 27.74
Comm    | 0.00018053 | 0.00018053 | 0.00018053 |   0.0 |  3.51
Output  | 0          | 0          | 0          |   0.0 |  0.00
Modify  | 0          | 0          | 0          |   0.0 |  0.00
Other   |            | 0.0009849  |            |       | 19.13

Nlocal:            100 ave         100 max         100 min
Histogram: 1 0 0 0 0 0 0 0 0 0
Nghost:             20 ave          20 max          20 min
Histogram: 1 0 0 0 0 0 0 0 0 0
Neighs:              0 ave           0 max           0 min
Histogram: 1 0 0 0 0 0 0 0 0 0

Total # of neighbors = 0
Ave neighs/atom = 0
Ave special neighs/atom = 1.98
Neighbor list builds = 17
Dangerous builds = 0

fix             nvtSoft all nvt temp ${Temp} ${Temp} 0.5
fix             nvtSoft all nvt temp 1 ${Temp} 0.5
fix             nvtSoft all nvt temp 1 1 0.5
run             100000
Generated 0 of 6 mixed pair_coeff terms from geometric mixing rule
WARNING: Communication cutoff 1.3 is shorter than a bond length based estimate of 1.7550000000000001. This may lead to errors. (src/comm.cpp:727)
Per MPI rank memory allocation (min/avg/max) = 7.221 | 7.221 | 7.221 Mbytes
   Step          Temp         Density         Press          TotEng         PotEng         KinEng         E_pair         S/CPU     
       362   1              0.0023323615   0.0023090379   21.485548      20.000548      1.485          0              0            
      1000   0.90989032     0.0023323615  -0.0021940042   21.776974      20.425787      1.3511871      0.00036425437  78788.631    
      2000   0.86546688     0.0023323615   0.0034714157   21.677128      20.39191       1.2852183      0.0025814786   77954.122    
      3000   0.98199538     0.0023323615   0.0028144228   21.866132      20.407869      1.4582631      0.0011756043   73165.248    
      4000   1.004495       0.0023323615  -0.0014058211   21.945624      20.453949      1.4916751      0.011986179    70289.129    
      5000   1.1222705      0.0023323615   0.0044495116   21.986385      20.319813      1.6665718      0.0050317639   73103.081    
      6000   1.0538243      0.0023323615   0.0023957538   21.985713      20.420784      1.564929       0.012100514    74876.159    
      7000   1.0210598      0.0023323615  -0.00038820026  21.904665      20.388391      1.5162738      0              76810.549    
      8000   0.94819751     0.0023323615   0.0024943091   21.747889      20.339816      1.4080733      0              76673.716    
      9000   0.92364502     0.0023323615   0.0020053029   21.724166      20.352554      1.3716129      1.7780894e-05  75844.354    
     10000   0.86685188     0.0023323615   0.00078277366  21.644879      20.357604      1.287275       0.0098636418   76029.057    
     11000   1.0057103      0.0023323615   0.00010113276  21.8558        20.362321      1.4934798      0.020705341    76101.456    
     12000   0.97901664     0.0023323615  -0.0026996968   21.871206      20.417366      1.4538397      0.0052928539   75789.936    
     13000   0.97718436     0.0023323615  -6.1641422e-06  21.963706      20.512587      1.4511188      0.025022446    75654.766    
     14000   1.0530014      0.0023323615  -0.0009993112   21.947994      20.384287      1.5637071      0.0020860456   74887.502    
     15000   0.99094527     0.0023323615   0.0011068478   21.895146      20.423592      1.4715537      0.0015091113   76187.957    
     16000   0.91285091     0.0023323615  -0.00025424173  21.87524       20.519657      1.3555836      0.0047853639   75598.778    
     17000   0.82806978     0.0023323615  -0.00054698156  21.701984      20.472301      1.2296836      0              75430.926    
     18000   1.043278       0.0023323615  -6.6143919e-05  22.003299      20.454031      1.5492679      0.0034319132   76443.465    
     19000   1.0879249      0.0023323615  -0.0017804642   21.998985      20.383416      1.6155685      0.015376175    75097.898    
     20000   1.1144506      0.0023323615   0.0025198298   22.190904      20.535944      1.6549592      0              76129.781    
     21000   1.0427751      0.0023323615   0.0011345349   22.099492      20.550971      1.548521       0.00040047813  76482.128    
     22000   1.0586695      0.0023323615   0.0017882747   22.05673       20.484606      1.5721242      0              76077.678    
     23000   1.0058426      0.0023323615  -0.0055245362   21.954628      20.460951      1.4936763      0.0027619031   75610.176    
     24000   0.98273442     0.0023323615   0.0015147357   21.862067      20.402707      1.4593606      0              75919.468    
     25000   0.95835343     0.0023323615   0.0017808774   21.937761      20.514606      1.4231548      0.00020839942  75218.498    
     26000   0.93993778     0.0023323615  -0.0021777292   21.884849      20.489042      1.3958076      0.0088889834   75794.135    
     27000   0.9308188      0.0023323615  -0.00011239942  21.842252      20.459986      1.3822659      0.021612409    74397.14     
     28000   1.0149581      0.0023323615   0.0041996387   21.906846      20.399633      1.5072129      0.0064059022   75651.32     
     29000   0.92841138     0.0023323615  -2.5398808e-05  21.987185      20.608494      1.3786909      0.0046112484   75391.442    
     30000   1.021043       0.0023323615   0.001589158    22.097958      20.581709      1.5162489      0.016799508    73186.003    
     31000   1.0465985      0.0023323615  -0.0021744286   22.037917      20.483718      1.5541987      0.0057879149   76018.579    
     32000   0.98907108     0.0023323615  -0.0015558606   22.044089      20.575318      1.4687705      0.009448173    75642.21     
     33000   1.0918536      0.0023323615  -0.0025643847   22.039275      20.417873      1.6214025      0              74660.636    
     34000   0.99801543     0.0023323615   0.0016279766   21.932339      20.450286      1.4820529      0.017384617    77274.086    
     35000   1.0352271      0.0023323615  -0.0052971711   22.076004      20.538692      1.5373122      0.00010473809  75748.004    
     36000   1.1141579      0.0023323615  -0.00093279925  22.222491      20.567966      1.6545245      0.00033678641  76713.672    
     37000   1.0369415      0.0023323615   0.00013065175  22.217841      20.677983      1.5398581      0.013788831    75827.59     
     38000   1.0515596      0.0023323615   0.0021717558   22.070766      20.5092        1.561566       0.0067894678   76437.031    
     39000   1.0238495      0.0023323615   0.00026414509  22.040141      20.519725      1.5204165      0.00044464649  75490.653    
     40000   1.0749111      0.0023323615  -0.0026849368   22.039327      20.443084      1.596243       0.012651334    73917.2      
     41000   0.99070886     0.0023323615  -0.0030385564   22.03241       20.561207      1.4712027      0.00092855646  77100.146    
     42000   0.95315224     0.0023323615   0.0019788197   21.965263      20.549832      1.4154311      0.020233689    75668.591    
     43000   1.0644183      0.0023323615  -0.0011168725   22.287172      20.706511      1.5806611      0.039694129    75246.056    
     44000   1.0253747      0.0023323615  -0.006676522    22.066233      20.543552      1.5226814      0              74622.622    
     45000   0.94179556     0.0023323615  -0.0047206018   21.970644      20.572077      1.3985664      0.019869988    75035.462    
     46000   1.0083495      0.0023323615  -0.0017646918   21.972114      20.474715      1.497399       0.00026040605  75228.531    
     47000   0.98767959     0.0023323615  -0.00080218158  22.091674      20.62497       1.4667042      0.024266258    74885.876    
     48000   1.1473449      0.0023323615  -0.0025885687   22.080512      20.376705      1.7038072      0.00065962995  75326.923    
     49000   1.0679312      0.0023323615   0.0017688272   21.970482      20.384604      1.5858779      0.014142422    76535.261    
     50000   0.9581935      0.0023323615   0.0014398836   21.955202      20.532284      1.4229173      0.0055011948   76045.622    
     51000   1.0215759      0.0023323615  -0.00093292688  21.934681      20.41764       1.5170402      0              75960.2      
     52000   0.98079591     0.0023323615   0.0040701936   21.977374      20.520892      1.4564819      0.0020862422   76593.284    
     53000   1.0090927      0.0023323615   0.0013324753   22.095438      20.596935      1.4985027      0              75935.062    
     54000   0.97519627     0.0023323615   0.0013260734   22.070151      20.621984      1.4481665      0.026885444    76658.058    
     55000   1.1805087      0.0023323615  -0.001586238    22.424088      20.671033      1.7530554      0.024690954    76415.957    
     56000   0.98387121     0.0023323615   0.0037155145   22.104425      20.643376      1.4610487      0.01435493     75923.278    
     57000   1.0723812      0.0023323615  -0.0037916262   22.122726      20.53024       1.592486       0.013635549    76049.681    
     58000   1.0152349      0.0023323615   0.00021908047  22.082827      20.575203      1.5076238      0.00077375639  76038.376    
     59000   1.1424502      0.0023323615  -0.0052108657   22.30072       20.604182      1.6965385      0.013308184    76912.232    
     60000   1.0359703      0.0023323615  -0.00097887545  22.188218      20.649802      1.538416       0.00011346294  75169.104    
     61000   1.1646839      0.0023323615  -0.002085017    22.239945      20.51039       1.7295556      0.012918477    77543.695    
     62000   1.101836       0.0023323615   0.0010338878   22.171386      20.53516       1.6362265      0.001396566    76196.734    
     63000   0.96616435     0.0023323615   0.00097550571  21.903821      20.469067      1.4347541      0.013027663    77637.612    
     64000   1.0068907      0.0023323615  -0.0020278726   22.061652      20.566419      1.4952327      0.013750276    76049.791    
     65000   0.98723233     0.0023323615   0.0022441476   22.031073      20.565033      1.46604        0.0066686189   76350.553    
     66000   1.0273881      0.0023323615  -0.0003515278   22.183579      20.657908      1.5256713      0              74883.01     
     67000   0.96528212     0.0023323615  -0.00014822656  21.9396        20.506156      1.4334439      0.010365557    76768.66     
     68000   1.069702       0.0023323615   9.4754668e-05  22.081119      20.492611      1.5885075      0.00049153926  74111.437    
     69000   1.1229502      0.0023323615   0.0011504079   22.200329      20.532748      1.6675811      0.0068454249   76996.004    
     70000   1.0062775      0.0023323615  -0.00085311964  22.094021      20.599699      1.4943221      0.013222355    74462.797    
     71000   1.0906935      0.0023323615   0.00015260357  22.145362      20.525682      1.6196798      0.018338513    76193.884    
     72000   1.010401       0.0023323615  -6.0487182e-06  22.154105      20.653659      1.5004455      0.0013793953   74909.088    
     73000   1.1177599      0.0023323615  -0.0034084797   22.254435      20.594562      1.6598735      0.00011231735  77416.794    
     74000   0.9768019      0.0023323615   0.00016143893  22.07312       20.622569      1.4505508      0.0084515956   75486.146    
     75000   1.1360996      0.0023323615   0.002159116    22.161595      20.474487      1.6871079      0.0089909162   76032.647    
     76000   0.97379329     0.0023323615  -0.00068458621  21.988928      20.542845      1.446083       0              75495.11     
     77000   0.94876793     0.0023323615  -0.0016073976   21.923496      20.514575      1.4089204      0.017745108    75580.346    
     78000   0.83947996     0.0023323615  -0.00062768559  21.726727      20.480099      1.2466277      0.0054510099   76096.991    
     79000   1.0090614      0.0023323615  -0.00080262643  22.068192      20.569736      1.4984562      0.00023011166  76887.525    
     80000   1.1217643      0.0023323615  -0.0038177864   22.367902      20.702082      1.66582        0.032902439    75977.721    
     81000   1.0240158      0.0023323615   0.00023547123  22.031597      20.510933      1.5206635      0.0068767308   75678.515    
     82000   1.003236       0.0023323615  -0.0022802982   21.894199      20.404393      1.4898055      0.019136282    74893.234    
     83000   1.0554159      0.0023323615   0.004011718    22.104562      20.537269      1.5672927      0.0080869707   74311.508    
     84000   0.83527346     0.0023323615  -0.0034122221   21.874648      20.634267      1.2403811      0.0030083664   75634.641    
     85000   1.036002       0.0023323615   0.0013573923   21.962923      20.42446       1.5384629      0.015709144    76164.699    
     86000   0.9432002      0.0023323615  -0.0032183248   21.913588      20.512936      1.4006523      0.013730309    76287.526    
     87000   0.95566008     0.0023323615  -0.00049614223  21.91653       20.497375      1.4191552      0.0035862035   75207.445    
     88000   0.93373351     0.0023323615  -0.00097093893  21.870485      20.483891      1.3865943      0.0018212145   74722.734    
     89000   0.9684944      0.0023323615  -0.00047342045  21.973429      20.535215      1.4382142      0.00087524744  75085.075    
     90000   0.98293324     0.0023323615  -0.0032204602   22.050919      20.591263      1.4596559      0.015353933    76490.564    
     91000   1.0832827      0.0023323615   0.0048517083   22.11977       20.511095      1.6086749      0.0052867789   77446.952    
     92000   0.85899662     0.0023323615  -0.0013049519   21.765697      20.490087      1.27561        0.0024124001   76540.363    
     93000   0.96176266     0.0023323615  -4.4223672e-05  21.874222      20.446004      1.4282176      0.0045653365   77364.106    
     94000   0.96019503     0.0023323615   0.00024459347  21.944954      20.519064      1.4258896      3.8053462e-05  76790.932    
     95000   0.94702149     0.0023323615  -0.0033658915   21.86315       20.456823      1.4063269      0              77276.779    
     96000   0.91119348     0.0023323615  -0.0013197298   21.825018      20.471896      1.3531223      0.00043282989  75887.545    
     97000   1.0016687      0.0023323615  -0.0019514304   22.013024      20.525546      1.487478       0.0048369955   75584.756    
     98000   1.02143        0.0023323615  -0.0057874974   22.177965      20.661142      1.5168235      0              74343.887    
     99000   1.032786       0.0023323615   0.0018228259   21.975336      20.441649      1.5336871      7.1595851e-05  77282.16     
    100000   1.0594928      0.0023323615   0.0036169719   22.011024      20.437677      1.5733468      0.00032948157  75593.915    
    100362   1.1904942      0.0023323615  -0.00089755607  22.316856      20.548972      1.7678839      0.00063845255  74911.761    
Loop time of 1.31992 on 1 procs for 100000 steps with 100 atoms

Performance: 32729154.926 tau/day, 75761.933 timesteps/s
99.0% CPU use with 1 MPI tasks x 1 OpenMP threads

MPI task timing breakdown:
Section |  min time  |  avg time  |  max time  |%varavg| %total
---------------------------------------------------------------
Pair    | 0.049429   | 0.049429   | 0.049429   |   0.0 |  3.74
Bond    | 0.12548    | 0.12548    | 0.12548    |   0.0 |  9.51
Neigh   | 0.80396    | 0.80396    | 0.80396    |   0.0 | 60.91
Comm    | 0.05775    | 0.05775    | 0.05775    |   0.0 |  4.38
Output  | 0.0011257  | 0.0011257  | 0.0011257  |   0.0 |  0.09
Modify  | 0.24882    | 0.24882    | 0.24882    |   0.0 | 18.85
Other   |            | 0.03337    |            |       |  2.53

Nlocal:            100 ave         100 max         100 min
Histogram: 1 0 0 0 0 0 0 0 0 0
Nghost:             60 ave          60 max          60 min
Histogram: 1 0 0 0 0 0 0 0 0 0
Neighs:             36 ave          36 max          36 min
Histogram: 1 0 0 0 0 0 0 0 0 0

Total # of neighbors = 36
Ave neighs/atom = 0.36
Ave special neighs/atom = 1.98
Neighbor list builds = 9821
Dangerous builds = 8265
unfix           nvtSoft
unfix           rampSoft
reset_timestep  0

write_data      ${outputfile_relaxed}
write_data      5_relaxed.data
System init for write_data ...
Generated 0 of 6 mixed pair_coeff terms from geometric mixing rule
WARNING: Communication cutoff 1.3 is shorter than a bond length based estimate of 1.7550000000000001. This may lead to errors. (src/comm.cpp:727)
WARNING: Not all mixed pair coeffs generated from mixing. Use write_data with 'pair ij' option to store all pair coeffs. (src/write_data.cpp:309)

###########################################################################
# Full LJ with Coulomb
######################################################################

# Cutoffs and parameters:
# - Values: Marcel Verkade's Bachelor Thesis
# - Mapping to atom groups: Patrick Onck's paper
# - 1: aliphatic, 2: aromatic, 3: anion, 4: cation
# pair_style	lj/cut/coul/cut <lj_cut_global> <coul_cut_global>
# pair_coeff	<type_1>  <type_2>  <eps>  <sigma>  <r_cut_lj>  <r_cut_coul>

# Problem: Onck's model is much more complex, and Marcel has no sigma reported
# Using sigma=1 randomly

variable		glob_ljeps equal 1.0
variable		glob_ljsig 	equal 1.0
variable		glob_coulcut equal 10.0
variable		att_ljcut equal 2.50
variable		rep_ljcut equal 1.12

pair_style		lj/cut/coul/cut 						${att_ljcut} 	${glob_coulcut}
pair_style		lj/cut/coul/cut 						2.5 	${glob_coulcut}
pair_style		lj/cut/coul/cut 						2.5 	10
pair_coeff		1 1 	${glob_ljeps} 	${glob_ljsig}	${att_ljcut} 	${glob_coulcut}
pair_coeff		1 1 	1 	${glob_ljsig}	${att_ljcut} 	${glob_coulcut}
pair_coeff		1 1 	1 	1	${att_ljcut} 	${glob_coulcut}
pair_coeff		1 1 	1 	1	2.5 	${glob_coulcut}
pair_coeff		1 1 	1 	1	2.5 	10
pair_coeff		1 2 	${glob_ljeps} 	${glob_ljsig}	${att_ljcut} 	${glob_coulcut}
pair_coeff		1 2 	1 	${glob_ljsig}	${att_ljcut} 	${glob_coulcut}
pair_coeff		1 2 	1 	1	${att_ljcut} 	${glob_coulcut}
pair_coeff		1 2 	1 	1	2.5 	${glob_coulcut}
pair_coeff		1 2 	1 	1	2.5 	10
pair_coeff		1 3 	${glob_ljeps} 	${glob_ljsig}	${rep_ljcut} 	${glob_coulcut}
pair_coeff		1 3 	1 	${glob_ljsig}	${rep_ljcut} 	${glob_coulcut}
pair_coeff		1 3 	1 	1	${rep_ljcut} 	${glob_coulcut}
pair_coeff		1 3 	1 	1	1.12 	${glob_coulcut}
pair_coeff		1 3 	1 	1	1.12 	10
pair_coeff		1 4 	${glob_ljeps} 	${glob_ljsig}	${rep_ljcut} 	${glob_coulcut}
pair_coeff		1 4 	1 	${glob_ljsig}	${rep_ljcut} 	${glob_coulcut}
pair_coeff		1 4 	1 	1	${rep_ljcut} 	${glob_coulcut}
pair_coeff		1 4 	1 	1	1.12 	${glob_coulcut}
pair_coeff		1 4 	1 	1	1.12 	10
pair_coeff		2 2 	${glob_ljeps} 	${glob_ljsig}	${att_ljcut} 	${glob_coulcut}
pair_coeff		2 2 	1 	${glob_ljsig}	${att_ljcut} 	${glob_coulcut}
pair_coeff		2 2 	1 	1	${att_ljcut} 	${glob_coulcut}
pair_coeff		2 2 	1 	1	2.5 	${glob_coulcut}
pair_coeff		2 2 	1 	1	2.5 	10
pair_coeff		2 3 	${glob_ljeps} 	${glob_ljsig}	${rep_ljcut} 	${glob_coulcut}
pair_coeff		2 3 	1 	${glob_ljsig}	${rep_ljcut} 	${glob_coulcut}
pair_coeff		2 3 	1 	1	${rep_ljcut} 	${glob_coulcut}
pair_coeff		2 3 	1 	1	1.12 	${glob_coulcut}
pair_coeff		2 3 	1 	1	1.12 	10
pair_coeff		2 4 	${glob_ljeps} 	${glob_ljsig}	${att_ljcut} 	${glob_coulcut}
pair_coeff		2 4 	1 	${glob_ljsig}	${att_ljcut} 	${glob_coulcut}
pair_coeff		2 4 	1 	1	${att_ljcut} 	${glob_coulcut}
pair_coeff		2 4 	1 	1	2.5 	${glob_coulcut}
pair_coeff		2 4 	1 	1	2.5 	10
pair_coeff		3 3 	${glob_ljeps} 	${glob_ljsig}	${rep_ljcut} 	${glob_coulcut}
pair_coeff		3 3 	1 	${glob_ljsig}	${rep_ljcut} 	${glob_coulcut}
pair_coeff		3 3 	1 	1	${rep_ljcut} 	${glob_coulcut}
pair_coeff		3 3 	1 	1	1.12 	${glob_coulcut}
pair_coeff		3 3 	1 	1	1.12 	10
pair_coeff		3 4 	${glob_ljeps} 	${glob_ljsig}	${att_ljcut} 	${glob_coulcut}
pair_coeff		3 4 	1 	${glob_ljsig}	${att_ljcut} 	${glob_coulcut}
pair_coeff		3 4 	1 	1	${att_ljcut} 	${glob_coulcut}
pair_coeff		3 4 	1 	1	2.5 	${glob_coulcut}
pair_coeff		3 4 	1 	1	2.5 	10
pair_coeff		4 4 	${glob_ljeps} 	${glob_ljsig}	${rep_ljcut} 	${glob_coulcut}
pair_coeff		4 4 	1 	${glob_ljsig}	${rep_ljcut} 	${glob_coulcut}
pair_coeff		4 4 	1 	1	${rep_ljcut} 	${glob_coulcut}
pair_coeff		4 4 	1 	1	1.12 	${glob_coulcut}
pair_coeff		4 4 	1 	1	1.12 	10


fix             noDriftRot 	all momentum 10 linear 1 1 1 angular
fix             nvt1 		all nvt temp ${Temp} ${Temp} 0.5
fix             nvt1 		all nvt temp 1 ${Temp} 0.5
fix             nvt1 		all nvt temp 1 1 0.5

# dump          assemble 	all custom 1000 				${outputfile_selfasb} id type xu yu zu vx vy vz
dump            lindump 	all custom ${subsample_rate} 	${outputfile_trajlin} id type xu yu zu vx vy vz
dump            lindump 	all custom 1000 	${outputfile_trajlin} id type xu yu zu vx vy vz
dump            lindump 	all custom 1000 	6_b_trajlin.data id type xu yu zu vx vy vz

run             ${runtime}
run             1000000
Generated 0 of 6 mixed pair_coeff terms from geometric mixing rule
Neighbor list info ...
  update every 1 steps, delay 10 steps, check yes
  max neighbors/atom: 2000, page size: 100000
  master list distance cutoff = 10.3
  ghost atom cutoff = 10.3
  binsize = 5.15, bins = 7 7 7
  1 neighbor lists, perpetual/occasional/extra = 1 0 0
  (1) pair lj/cut/coul/cut, perpetual
      attributes: half, newton on
      pair build: half/bin/newton
      stencil: half/bin/3d
      bin: standard
Per MPI rank memory allocation (min/avg/max) = 7.712 | 7.712 | 7.712 Mbytes
   Step          Temp         Density         Press          TotEng         PotEng         KinEng         E_pair         S/CPU     
         0   1.1904942      0.0023323615  -0.0017268411   21.847774      20.07989       1.7678839     -0.4684444      0            
      1000   1.0135242      0.0023323615  -0.0014772624   21.104956      19.599873      1.5050834     -0.79035206     33420.815    
      2000   0.8298197      0.0023323615  -0.0027980313   20.909589      19.677307      1.2322823     -0.89874043     30247.163    
      3000   0.90790114     0.0023323615   0.00096955834  20.64741       19.299177      1.3482332     -1.1247646      26530.289    
      4000   0.97516029     0.0023323615   0.001971719    20.191709      18.743596      1.448113      -1.649224       20811.559    
      5000   0.9498546      0.0023323615  -0.0024061773   20.17515       18.764616      1.4105341     -1.6700729      18163.87     
      6000   0.95063152     0.0023323615   0.0043369572   19.793004      18.381316      1.4116878     -2.0544773      18156.228    
      7000   0.93886654     0.0023323615  -0.0045261283   20.152736      18.75852       1.3942168     -1.8682154      18075.576    
      8000   0.95957049     0.0023323615  -0.0010328287   19.855523      18.430561      1.4249622     -2.03675        17951.185    
      9000   1.051064       0.0023323615   0.00066715364  20.161082      18.600252      1.56083       -2.0596499      18004.549    
     10000   1.1477998      0.0023323615   0.0034122326   20.078252      18.37377       1.7044827     -2.1940344      18090.905    
     11000   1.0322304      0.0023323615  -0.00096427119  19.906294      18.373432      1.5328622     -2.0766653      17910.958    
     12000   0.92854131     0.0023323615  -2.7247146e-06  20.063256      18.684372      1.3788838     -1.8431142      17961.609    
     13000   0.9011727      0.0023323615  -0.00033412308  19.99834       18.660098      1.3382415     -1.8341377      18237.516    
     14000   0.80352079     0.0023323615   0.00056827352  19.78077       18.587542      1.1932284     -1.9039372      18233.635    
     15000   1.0216924      0.0023323615   0.0045717454   19.777262      18.260049      1.5172132     -2.1760009      18043.596    
     16000   1.0839239      0.0023323615   2.8147334e-05  20.006928      18.397301      1.609627      -2.1903945      17956.439    
     17000   0.9045335      0.0023323615   0.00023415358  19.956426      18.613194      1.3432323     -1.8987381      17939.544    
     18000   1.1556192      0.0023323615  -0.00016411364  20.155079      18.438984      1.7160945     -2.0161631      18056.222    
     19000   0.91036662     0.0023323615  -0.00018092863  19.755299      18.403405      1.3518944     -2.0512387      18067.112    
     20000   1.1954397      0.0023323615   0.0022362277   20.584239      18.809011      1.7752279     -1.7297449      18115.909    
     21000   0.93796201     0.0023323615  -0.0026280563   20.107328      18.714455      1.3928736     -1.8406929      18123.485    
     22000   1.0525945      0.0023323615  -0.00013126158  20.550093      18.98699       1.5631029     -1.6312123      18117.448    
     23000   1.0654229      0.0023323615   0.00078486519  20.148121      18.565968      1.582153      -1.8191656      18301.504    
     24000   1.0616798      0.0023323615  -0.0037098107   20.116254      18.53966       1.5765945     -1.9953782      18190.007    
     25000   1.0826164      0.0023323615   0.0029803476   20.114289      18.506604      1.6076854     -2.0399636      18060.933    
     26000   1.1110151      0.0023323615   0.0015944414   20.200043      18.550186      1.6498574     -1.9936822      18093.401    
     27000   1.0066801      0.0023323615   0.0011892822   19.862699      18.367779      1.4949199     -2.116982       18024.502    
     28000   0.8218578      0.0023323615  -0.0071217031   20.098319      18.87786       1.2204588     -1.7507871      17993.218    
     29000   0.90852454     0.0023323615  -0.0021747643   19.722126      18.372967      1.3491589     -2.0163014      18102.271    
     30000   1.1295902      0.0023323615   0.001082112    19.903689      18.226247      1.6774415     -2.2678543      18084.036    
     31000   1.100912       0.0023323615  -0.0021406687   19.819934      18.185079      1.6348543     -2.2153454      18075.975    
     32000   0.92883587     0.0023323615  -0.0058784744   19.694379      18.315058      1.3793213     -2.2192616      18018.541    
     33000   1.0613182      0.0023323615   0.0010638697   20.068066      18.492008      1.5760576     -2.066441       18118.296    
     34000   1.0335983      0.0023323615   0.00095193987  20.036502      18.501608      1.5348934     -2.0130953      18124.617    
     35000   1.0974975      0.0023323615   0.0011754944   20.062961      18.433177      1.6297837     -2.144752       18296.773    
     36000   0.94566414     0.0023323615  -0.0026725087   19.765465      18.361154      1.4043112     -2.0998054      18034.138    
     37000   1.0487893      0.0023323615   2.7022822e-05  20.150975      18.593523      1.5574521     -1.9558749      17902.775    
     38000   0.90040117     0.0023323615   0.0018110759   20.107284      18.770188      1.3370957     -1.6477505      18160.261    
     39000   1.0936032      0.0023323615  -0.0035110051   20.068871      18.44487       1.6240008     -2.0713016      18385.235    
     40000   1.0352464      0.0023323615  -0.00061096354  20.060439      18.523098      1.5373409     -2.0595838      18195.847    
     41000   0.97823875     0.0023323615  -0.001043733    20.146887      18.694203      1.4526845     -1.9216489      18235.153    
     42000   0.98806613     0.0023323615   0.0023650247   19.998095      18.530816      1.4672782     -1.8554613      18179.684    
     43000   1.0054129      0.0023323615  -0.00010079535  20.181856      18.688818      1.4930382     -1.8593937      18210.441    
     44000   1.098241       0.0023323615   0.00089594081  20.270055      18.639167      1.6308879     -1.9446628      18257.064    
     45000   0.99796832     0.0023323615   0.0015996131   19.971683      18.4897        1.481983      -2.0479284      18380.258    
     46000   0.96194948     0.0023323615   0.00080418207  19.900671      18.472176      1.428495      -1.9815306      18286.673    
     47000   1.0415464      0.0023323615  -0.00062177732  19.875804      18.329107      1.5466964     -2.1400296      18192.872    
     48000   0.98356953     0.0023323615  -0.0022692553   20.030065      18.569464      1.4606007     -1.92014        18268.161    
     49000   1.0480111      0.0023323615   0.0039317524   20.186147      18.62985       1.5562965     -1.8998634      18243.766    
     50000   1.01287        0.0023323615  -0.0027620706   20.117222      18.61311       1.5041119     -1.9256773      18335.668    
     51000   0.83525964     0.0023323615   0.00071087768  19.547138      18.306777      1.2403606     -2.1302691      18366.144    
     52000   0.99695158     0.0023323615   0.0048008109   19.95763       18.477157      1.4804731     -1.9887039      18226.04     
     53000   1.1369355      0.0023323615   0.00076281489  20.128719      18.440369      1.6883493     -2.0368764      18159.052    
     54000   1.0575559      0.0023323615   0.0037249359   19.799555      18.229085      1.5704705     -2.1358721      18201.999    
     55000   1.0204662      0.0023323615   0.0011440021   20.134457      18.619064      1.5153922     -1.8830369      18028.223    
     56000   1.0685827      0.0023323615  -0.0028487068   19.885361      18.298515      1.5868453     -2.1254201      18161.24     
     57000   1.0764874      0.0023323615  -0.00018860631  20.290134      18.69155       1.5985838     -1.920609       18223.923    
     58000   1.0378958      0.0023323615   0.0025861485   19.964263      18.422987      1.5412752     -1.9859951      18255.778    
     59000   1.0932856      0.0023323615   0.0007805009   20.438094      18.814565      1.6235291     -1.7417705      18224.386    
     60000   0.97084706     0.0023323615  -0.0026672807   20.086096      18.644389      1.4417079     -1.9211334      18270.258    
     61000   0.93448691     0.0023323615  -0.00021853268  20.142057      18.754344      1.3877131     -1.6892811      18295.177    
     62000   1.0294314      0.0023323615   0.00021354705  19.921717      18.393011      1.5287056     -2.0782575      18123.024    
     63000   1.1186374      0.0023323615  -0.007205832    20.035569      18.374393      1.6611765     -2.1029493      18132.134    
     64000   1.0289125      0.0023323615   0.00043159052  20.148017      18.620082      1.5279351     -1.883561       18105.761    
     65000   0.91917878     0.0023323615  -0.0015728816   20.016733      18.651752      1.3649805     -1.8993636      18295.576    
     66000   1.0164796      0.0023323615   0.00021800931  20.176416      18.666943      1.5094722     -1.8157369      18183.509    
     67000   1.0400322      0.0023323615   0.00091061855  19.99158       18.447132      1.5444478     -2.0101801      17961.273    
     68000   0.96726772     0.0023323615   0.0022520856   19.978905      18.542512      1.4363926     -1.94122        17998.782    
     69000   1.0945102      0.0023323615   0.0033214398   19.86824       18.242892      1.6253476     -2.2558227      18016.212    
     70000   0.94394407     0.0023323615   0.0031686325   19.844613      18.442856      1.4017569     -1.9959514      17902.213    
     71000   0.89808294     0.0023323615  -0.0029047701   19.851839      18.518186      1.3336532     -1.9710756      17948.473    
     72000   1.0577802      0.0023323615   0.00065801248  20.103205      18.532401      1.5708036     -1.9705993      18113.414    
     73000   0.90913925     0.0023323615   0.0020709694   19.984622      18.634551      1.3500718     -1.9148095      18031.952    
     74000   0.8956912      0.0023323615   0.00062749175  19.840296      18.510194      1.3301014     -1.9362471      18086.198    
     75000   0.96714761     0.0023323615  -0.0041970403   20.079062      18.642848      1.4362142     -1.8040766      17988.908    
     76000   1.037215       0.0023323615  -0.0067504985   20.08996       18.549696      1.5402643     -1.8244109      18196.581    
     77000   0.99527146     0.0023323615  -0.0040846249   20.05511       18.577132      1.4779781     -1.9494655      18083        
     78000   1.0268916      0.0023323615   0.0015829454   20.208111      18.683177      1.524934      -1.9557096      17858.45     
     79000   1.0478197      0.0023323615   0.0016868303   20.032771      18.476758      1.5560123     -1.9429472      18036.126    
     80000   1.0485782      0.0023323615  -0.0028270026   19.975226      18.418087      1.5571387     -2.0232965      18194.053    
     81000   1.0407808      0.0023323615  -0.0015436405   20.155101      18.609541      1.5455595     -1.8238157      18232.019    
     82000   0.9095479      0.0023323615  -0.004081332    20.006075      18.655397      1.3506786     -1.911265       17966.747    
     83000   1.0541647      0.0023323615   0.0036466161   20.113003      18.547569      1.5654346     -1.9792285      17997.419    
     84000   0.97043616     0.0023323615   0.00013286559  20.07399       18.632892      1.4410977     -1.9904162      17982.504    
     85000   0.94757103     0.0023323615   0.00097499888  19.977389      18.570246      1.407143      -1.9016959      18080.936    
     86000   1.1194851      0.0023323615  -0.00016913106  20.209197      18.546762      1.6624354     -1.8909433      18116.86     
     87000   0.99371509     0.0023323615  -0.00050335752  19.777762      18.302095      1.4756669     -2.1008334      18119.152    
     88000   0.92631158     0.0023323615  -0.00066277296  19.897471      18.521899      1.3755727     -1.892735       18191.851    
     89000   0.99765543     0.0023323615  -0.0003923624   20.039814      18.558295      1.4815183     -2.071554       18308.882    
     90000   0.87125019     0.0023323615   0.0015748436   19.762562      18.468755      1.2938065     -2.0248227      18186.12     
     91000   1.0792517      0.0023323615  -0.0050625555   20.333189      18.7305        1.6026887     -1.8891622      18056.904    
     92000   0.92927934     0.0023323615   0.0042976823   20.018116      18.638136      1.3799798     -1.9992747      17939.489    
     93000   1.0090427      0.0023323615   0.00011808855  19.916377      18.417949      1.4984284     -2.1307439      17778.003    
     94000   1.1028517      0.0023323615   0.0014666012   20.153625      18.515891      1.6377347     -1.9236714      18001.649    
     95000   0.98467867     0.0023323615  -0.0034607596   19.669899      18.207651      1.4622478     -2.1511631      18056.13     
     96000   0.96103522     0.0023323615  -0.0067175158   19.873007      18.44587       1.4271373     -2.0365512      18051.891    
     97000   0.88230132     0.0023323615  -0.0052556873   20.1445        18.834282      1.3102175     -1.7596662      18186.253    
     98000   0.9584109      0.0023323615   0.0024610231   19.893837      18.470597      1.4232402     -2.0062719      18290.339    
     99000   1.1618719      0.0023323615  -0.0022449375   20.357152      18.631772      1.7253797     -1.9087761      18141.872    
    100000   1.0429826      0.0023323615   0.00045170424  20.084194      18.535365      1.5488291     -1.9074028      18096.104    
    101000   1.0637885      0.0023323615  -0.00056639624  20.309697      18.729971      1.5797259     -1.8107257      18111.376    
    102000   0.90417701     0.0023323615   0.0019783437   20.275408      18.932705      1.3427029     -1.6506362      18102.114    
    103000   1.0363685      0.0023323615   0.0020527324   20.019408      18.4804        1.5390072     -1.9462483      17972.994    
    104000   0.99657431     0.0023323615   0.0018336332   19.843506      18.363593      1.4799129     -2.0020127      18212.212    
    105000   1.1319218      0.0023323615   0.00062081983  20.30786       18.626956      1.6809039     -1.8783118      18257.869    
    106000   0.98252924     0.0023323615  -0.0017760287   19.97557       18.516514      1.4590559     -1.9739705      18155.93     
    107000   0.89317637     0.0023323615   0.0019207828   19.789117      18.46275       1.3263669     -2.1070376      18032.008    
    108000   0.96009506     0.0023323615   0.0013669869   19.534737      18.108996      1.4257412     -2.3255684      17997.208    
    109000   0.93372066     0.0023323615  -0.00082284414  19.629567      18.242992      1.3865752     -2.2129195      18054.083    
    110000   0.94068199     0.0023323615  -0.00055586278  19.805264      18.408351      1.3969128     -2.0556418      17981.007    
    111000   0.90914616     0.0023323615   0.0018562358   19.833348      18.483266      1.3500821     -2.0942846      18159.531    
    112000   0.96816929     0.0023323615  -0.00082052226  19.90251       18.464779      1.4377314     -2.1028718      18096.153    
    113000   0.97242444     0.0023323615  -0.0039865009   20.000378      18.556328      1.4440503     -1.97868        18009.493    
    114000   0.93051315     0.0023323615   0.00037151658  20.029196      18.647384      1.381812      -1.9438588      18062.884    
    115000   0.91273181     0.0023323615   0.00079335967  19.668874      18.313467      1.3554067     -2.0552982      18151.49     
    116000   1.0120874      0.0023323615   0.00076460353  20.186223      18.683273      1.5029498     -1.8468757      18073.217    
    117000   1.0308604      0.0023323615   0.00020064657  20.226634      18.695807      1.5308277     -1.9027455      18156.228    
    118000   0.96522915     0.0023323615  -0.0018768068   19.969718      18.536352      1.4333653     -1.9568225      18201.571    
    119000   1.0843481      0.0023323615  -0.0040918953   20.105177      18.49492       1.610257      -2.0363638      18099.579    
    120000   0.97080288     0.0023323615  -0.0025058124   20.115983      18.674341      1.4416423     -1.9104985      18076.155    
    121000   0.98726226     0.0023323615  -0.00031493524  19.962475      18.49639       1.4660845     -1.9927912      18029.259    
    122000   0.99389431     0.0023323615   0.0031660351   19.950667      18.474734      1.475933      -2.0887872      17955.851    
    123000   1.1080814      0.0023323615  -0.00077603702  20.168282      18.522781      1.6455009     -1.9492139      18052.29     
    124000   1.0688146      0.0023323615  -0.0013851067   19.97797       18.39078       1.5871896     -2.1671481      18182.87     
    125000   0.88888404     0.0023323615   8.145201e-05   19.828632      18.508639      1.3199928     -1.9689862      17983.463    
    126000   0.92400068     0.0023323615  -0.0026050111   20.104868      18.732727      1.372141      -1.7579705      18304.544    
    127000   1.2357963      0.0023323615  -0.0020651396   20.383411      18.548254      1.8351575     -1.9689606      18118.244    
    128000   1.0957805      0.0023323615  -0.00064357139  20.250424      18.623189      1.6272341     -2.0115114      18108.366    
    129000   0.96254823     0.0023323615  -0.0016662803   19.989707      18.560323      1.4293841     -1.9729308      18033.741    
    130000   0.93713762     0.0023323615  -0.00334444     19.725809      18.33416       1.3916494     -2.1637532      17909.47     
    131000   1.1271796      0.0023323615   0.0006748361   20.151364      18.477503      1.6738617     -2.0773572      17866.096    
    132000   1.0636813      0.0023323615   0.0023072388   19.975721      18.396154      1.5795668     -1.9868828      17987.167    
    133000   1.0451415      0.0023323615  -0.0001610781   20.114853      18.562818      1.5520352     -1.8473747      18035.331    
    134000   0.89118509     0.0023323615   0.0018939636   19.618986      18.295576      1.3234099     -2.1649954      18133.059    
    135000   1.0294577      0.0023323615  -0.0021941352   20.233146      18.704401      1.5287447     -1.9294842      18203.49     
    136000   0.94749997     0.0023323615  -0.0015758933   19.977322      18.570284      1.4070375     -2.0129581      18109.976    
    137000   1.0554248      0.0023323615  -0.0017581831   20.271178      18.703872      1.5673059     -1.889475       17964.266    
    138000   0.887776       0.0023323615   0.0038361968   19.680719      18.362372      1.3183474     -2.1267615      18016.342    
    139000   1.0505229      0.0023323615   0.0037784312   20.092246      18.532219      1.5600265     -1.9689223      17980.275    
    140000   0.93296347     0.0023323615   0.0020833507   19.894957      18.509506      1.3854508     -1.8895904      18144.785    
    141000   0.94282149     0.0023323615  -0.0021987199   19.932041      18.531952      1.4000899     -2.0279389      18047.24     
    142000   1.0797271      0.0023323615  -0.0023571968   19.832971      18.229576      1.6033948     -2.2515591      17997.91     
    143000   1.0871239      0.0023323615   0.0027530395   20.058554      18.444175      1.614379      -2.0189829      17951.13     
    144000   1.0216588      0.0023323615  -0.0014391846   20.057759      18.540596      1.5171633     -1.9174961      18012.409    
    145000   0.9850373      0.0023323615   0.00062742355  20.173749      18.710968      1.4627804     -1.8297731      18172.998    
    146000   1.060699       0.0023323615   0.0051074212   20.307769      18.732631      1.575138      -1.8014709      18251.031    
    147000   0.96786707     0.0023323615  -0.0043348799   19.784839      18.347556      1.4372826     -2.1100775      18313.915    
    148000   1.0356186      0.0023323615   0.0003580092   19.896413      18.358519      1.5378936     -2.1252418      18053.207    
    149000   1.2015637      0.0023323615  -0.001459673    20.154602      18.37028       1.7843221     -2.0110738      18217.757    
    150000   1.027101       0.0023323615   0.00092205114  19.962856      18.437611      1.525245      -2.0733414      18080.281    
    151000   0.94537324     0.0023323615   0.0024461888   20.007489      18.60361       1.4038793     -2.0020774      18146.995    
    152000   1.0407545      0.0023323615   0.0031214741   20.267912      18.722391      1.5455204     -1.7331813      18075.805    
    153000   1.1570187      0.0023323615   0.0074016723   20.236933      18.518761      1.7181728     -1.8757439      18056.467    
    154000   0.89789496     0.0023323615  -0.0046986955   19.899261      18.565887      1.333374      -2.043709       18056.369    
    155000   1.0630615      0.0023323615   0.00033519682  20.170207      18.591561      1.5786463     -1.9754412      18107.263    
    156000   1.0766417      0.0023323615   0.0012394876   20.18141       18.582597      1.5988129     -1.9411888      17950.646    
    157000   0.96992661     0.0023323615  -0.00061245735  19.722972      18.282631      1.440341      -2.1971919      17977.118    
    158000   1.034753       0.0023323615   0.00048827601  19.885806      18.349198      1.5366083     -2.0314327      18065.817    
    159000   0.91856783     0.0023323615   0.0026592663   19.922091      18.558018      1.3640732     -1.9687965      18022.12     
    160000   1.2418712      0.0023323615  -0.0014163196   20.344205      18.500026      1.8441788     -2.0748147      18159.026    
    161000   1.0612641      0.0023323615   0.00075633414  19.82027       18.244292      1.5759772     -2.2584603      18155.898    
    162000   1.0242508      0.0023323615  -0.0046072086   20.157374      18.636362      1.5210125     -1.9237982      18135.264    
    163000   0.99499694     0.0023323615  -2.3812822e-05  19.703667      18.226096      1.4775705     -2.2055777      18092.693    
    164000   0.82319267     0.0023323615  -0.0028978766   19.822118      18.599677      1.2224411     -2.0643964      18151.437    
    165000   1.0254676      0.0023323615  -0.00023929524  19.907907      18.385087      1.5228194     -2.1048424      18206.023    
    166000   1.0323773      0.0023323615   0.0013412928   19.997642      18.464562      1.5330803     -2.0626112      18144.762    
    167000   1.1414784      0.0023323615   0.001710865    20.365033      18.669937      1.6950954     -1.8002586      18226.872    
    168000   1.1615303      0.0023323615  -0.0018554707   20.120835      18.395962      1.7248726     -2.1545927      18163.064    
    169000   0.960381       0.0023323615  -0.0016579128   19.808401      18.382235      1.4261658     -2.1171585      17988.863    
    170000   0.91142585     0.0023323615  -0.0024161201   19.762596      18.409129      1.3534674     -2.0705885      18065.035    
    171000   1.030122       0.0023323615   0.002083183    19.930773      18.401042      1.5297312     -2.0861989      18105.486    
    172000   0.91569453     0.0023323615   0.00019189424  19.891869      18.532063      1.3598064     -2.181307       17947.179    
    173000   0.9446823      0.0023323615  -0.0035440092   20.138062      18.735209      1.4028532     -1.8906003      17940.756    
    174000   0.98138968     0.0023323615   0.00077283045  19.991686      18.534323      1.4573637     -2.0387115      18075.226    
    175000   0.96672739     0.0023323615   0.0011504556   19.930684      18.495094      1.4355902     -1.9864653      18030.001    
    176000   1.0829177      0.0023323615   0.0018165028   19.955607      18.347474      1.6081328     -2.03146        18035.928    
    177000   0.84064493     0.0023323615  -0.00084769484  19.474334      18.225976      1.2483577     -2.1523965      17953.603    
    178000   1.0228123      0.0023323615   0.0045471319   19.931305      18.412429      1.5188762     -2.1155043      18037.916    
    179000   1.0242552      0.0023323615  -0.00038019295  19.847938      18.326919      1.5210189     -2.1549657      18011.67     
    180000   1.0143479      0.0023323615  -0.0010001142   19.875401      18.369094      1.5063066     -2.1113235      18029.086    
    181000   1.131864       0.0023323615   0.0021285217   20.146705      18.465887      1.680818      -2.042233       18097.059    
    182000   0.88735017     0.0023323615  -0.0004249474   20.043628      18.725913      1.317715      -1.7284332      18143.257    
    183000   0.88558452     0.0023323615  -0.0020679239   20.029731      18.714638      1.315093      -1.9279605      18145.457    
    184000   1.1064014      0.0023323615  -0.0033850998   20.286161      18.643155      1.6430061     -1.930591       18291.911    
    185000   1.0704195      0.0023323615  -0.00019750406  20.000905      18.411332      1.5895729     -2.0919556      18241.165    
    186000   0.95484778     0.0023323615   0.00083869711  19.815918      18.397969      1.417949      -2.1683742      18174.444    
    187000   0.93752285     0.0023323615   0.0025170824   19.752387      18.360165      1.3922214     -2.0547142      17990.085    
    188000   1.0832893      0.0023323615  -0.0030464152   20.008674      18.39999       1.6086847     -2.0439603      18092.821    
    189000   0.79725373     0.0023323615  -0.0041935759   19.5811        18.397178      1.1839218     -2.0597226      18012.122    
    190000   1.0328128      0.0023323615  -0.00064500895  20.099804      18.566077      1.5337271     -1.9261708      18095.313    
    191000   0.90698554     0.0023323615  -0.00545663     19.973898      18.627025      1.3468735     -1.8931774      18030.04     
    192000   1.0135859      0.0023323615   0.0024855122   19.952573      18.447398      1.505175      -2.0046291      18137.02     
    193000   1.0333449      0.0023323615  -0.0034839665   20.372253      18.837736      1.5345172     -1.6547243      18000.769    
    194000   0.88460179     0.0023323615  -0.0011094179   19.482202      18.168568      1.3136337     -2.1920648      17895.534    
    195000   0.9287332      0.0023323615  -0.00042491902  19.734298      18.355129      1.3791688     -2.2551843      17931.706    
    196000   0.94414015     0.0023323615  -0.0008138424   19.784029      18.381981      1.4020481     -2.2441103      17964.244    
    197000   0.93893573     0.0023323615  -0.0010044733   19.972899      18.578579      1.3943196     -1.8277281      17890.135    
    198000   0.89372213     0.0023323615   0.00028303443  19.663391      18.336214      1.3271774     -2.1332799      17944.978    
    199000   0.93770473     0.0023323615  -0.00092353689  20.255039      18.862548      1.3924915     -1.6788611      17927.274    
    200000   1.0614789      0.0023323615  -0.0013159288   20.139302      18.563006      1.5762961     -1.9952857      17929.258    
    201000   1.0526184      0.0023323615   0.00026383669  19.923835      18.360697      1.5631384     -2.0991112      17994.324    
    202000   0.88605776     0.0023323615  -0.001600578    20.01188       18.696084      1.3157958     -2.0092338      17966.511    
    203000   0.81400265     0.0023323615   0.0012329523   19.932226      18.723432      1.2087939     -1.8803204      18029.36     
    204000   1.138792       0.0023323615   0.0027745189   20.673392      18.982286      1.6911061     -1.4443457      17848.512    
    205000   1.0718111      0.0023323615  -0.00032339743  20.235931      18.644292      1.5916394     -1.9067169      18074.496    
    206000   1.0962563      0.0023323615   0.0022609712   20.177677      18.549737      1.6279407     -1.9538436      18007.014    
    207000   0.98248321     0.0023323615   0.0045521363   19.736204      18.277216      1.4589876     -2.1998007      17966.74     
    208000   0.9616604      0.0023323615  -0.0012714873   20.010251      18.582185      1.4280657     -1.9854924      17934.96     
    209000   1.0804155      0.0023323615   0.0015389031   20.128178      18.523761      1.604417      -2.062325       17991.651    
    210000   1.0172433      0.0023323615   0.0026137192   19.913869      18.403263      1.5106063     -2.1355322      17968.241    
    211000   1.1307384      0.0023323615   0.0033114566   20.074902      18.395755      1.6791465     -2.0635817      18026.631    
    212000   0.95735588     0.0023323615   0.0015017227   19.687893      18.266219      1.4216735     -2.127274       18094.835    
    213000   0.9154025      0.0023323615  -0.0027605943   19.618387      18.259015      1.3593727     -2.1770631      18079.721    
    214000   1.0361655      0.0023323615   0.0017738948   20.079679      18.540973      1.5387058     -1.9999963      17962.925    
    215000   0.97492797     0.0023323615   0.0010574408   20.132236      18.684468      1.447768      -1.8491171      18129.341    
    216000   0.96434933     0.0023323615   0.001183122    20.01871       18.586651      1.4320587     -1.9369862      18195.502    
    217000   0.94702282     0.0023323615   0.0011051628   19.907498      18.501169      1.4063289     -1.9815362      18188.894    
    218000   1.0452549      0.0023323615  -0.0017631654   19.9127        18.360496      1.5522036     -2.1160754      18068.79     
    219000   0.99184258     0.0023323615   0.00066145298  19.925115      18.452229      1.4728862     -2.1423732      18031.011    
    220000   0.87509399     0.0023323615  -0.0029810013   19.684079      18.384564      1.2995146     -2.1022319      17926.697    
    221000   1.0608935      0.0023323615  -0.00098659131  20.32875       18.753324      1.5754269     -1.8379407      17969.797    
    222000   0.95692954     0.0023323615  -0.0063996377   20.037523      18.616482      1.4210404     -1.8859961      17878.945    
    223000   0.9758364      0.0023323615  -0.0039073041   19.927425      18.478308      1.4491171     -2.054202       18049.355    
    224000   0.99763462     0.0023323615   0.00095189009  19.920034      18.438547      1.4814874     -2.0292958      18018.85     
    225000   0.94889261     0.0023323615  -0.0035196365   19.923902      18.514796      1.4091055     -1.9930791      18099.011    
    226000   0.99759888     0.0023323615  -0.0014962328   20.209438      18.728004      1.4814343     -1.7666524      18154.798    
    227000   0.84975395     0.0023323615   0.0044704647   19.767747      18.505863      1.2618846     -2.150028       18295.411    
    228000   1.0398905      0.0023323615   0.0024530765   20.164899      18.620662      1.5442374     -1.9297834      18155.442    
    229000   0.94502266     0.0023323615   0.00070116472  19.825071      18.421712      1.4033586     -2.0610602      18263.879    
    230000   1.0533412      0.0023323615  -0.001060293    19.941859      18.377647      1.5642117     -2.2627992      18131.725    
    231000   0.95218137     0.0023323615  -0.00058931801  20.104189      18.6902        1.4139893     -1.9536407      17996.128    
    232000   1.0128127      0.0023323615   0.0012368085   19.789595      18.285568      1.5040269     -2.3296964      18062.018    
    233000   1.041035       0.0023323615   0.0024423331   19.800013      18.254076      1.545937      -2.1998661      17990.805    
    234000   0.92266216     0.0023323615   0.006078066    19.980164      18.610011      1.3701533     -1.8410599      18140.201    
    235000   1.0072442      0.0023323615  -0.0026334377   20.154398      18.65864       1.4957576     -1.8571472      18126.703    
    236000   1.0507647      0.0023323615   0.00030546336  20.115233      18.554847      1.5603856     -1.8967159      18163.652    
    237000   0.98086371     0.0023323615   0.0020605609   19.569222      18.112639      1.4565826     -2.2364628      18051.856    
    238000   1.1848958      0.0023323615   0.00070716082  20.134306      18.374735      1.7595702     -2.1002642      18036.146    
    239000   0.84234539     0.0023323615   0.0043795996   19.90642       18.655537      1.2508829     -1.9393261      18060.224    
    240000   0.89805282     0.0023323615   0.001900987    19.844009      18.5104        1.3336084     -2.0025049      18032.216    
    241000   0.99056506     0.0023323615  -0.0032036087   19.79929       18.328301      1.4709891     -2.147513       18052.332    
    242000   1.0136179      0.0023323615   0.0011153575   20.038567      18.533345      1.5052226     -1.9344795      18080.049    
    243000   1.1244091      0.0023323615   0.0011795469   20.503416      18.833668      1.6697474     -1.6546227      18133.475    
    244000   0.96127187     0.0023323615  -0.0052702587   19.973572      18.546084      1.4274887     -1.9911364      18077.21     
    245000   0.96131445     0.0023323615   0.004213341    20.064985      18.637433      1.427552      -1.8403914      18019.472    
    246000   0.96086888     0.0023323615   0.0031706792   20.280513      18.853623      1.4268903     -1.7241823      18041.28     
    247000   1.0733238      0.0023323615   0.007402019    20.031962      18.438076      1.5938859     -2.0112167      18253.859    
    248000   0.93259141     0.0023323615   0.001070816    20.085086      18.700188      1.3848982     -1.8567492      18152.747    
    249000   0.99776989     0.0023323615  -0.0015933822   20.131809      18.65012       1.4816883     -1.7424232      18128.771    
    250000   0.87542886     0.0023323615   0.00026649265  19.86712       18.567108      1.3000119     -2.0389769      18099.376    
    251000   0.89627222     0.0023323615   0.0030859868   19.837278      18.506313      1.3309642     -2.0199002      18158.048    
    252000   1.0011351      0.0023323615   0.0035764682   20.157289      18.670603      1.4866857     -1.8468048      18208.132    
    253000   1.0526487      0.0023323615   0.0016156179   19.993728      18.430544      1.5631833     -2.0289551      18128.765    
    254000   1.0783427      0.0023323615   0.0011921479   19.973018      18.371679      1.6013389     -2.2003613      18014.213    
    255000   1.0232434      0.0023323615   0.00097503718  20.079002      18.559486      1.5195164     -1.9618635      18067.759    
    256000   0.98892331     0.0023323615   0.0022053579   20.030675      18.562124      1.4685511     -1.8692176      18072.084    
    257000   0.93448316     0.0023323615  -0.0058265674   20.167111      18.779404      1.3877075     -1.9020716      18035.136    
    258000   0.95111946     0.0023323615  -0.0019315842   20.178988      18.766576      1.4124124     -1.7643153      18003.506    
    259000   1.181947       0.0023323615   0.0052044436   20.487696      18.732505      1.7551913     -1.7713991      18132.16     
    260000   1.0306499      0.0023323615  -0.0020286622   20.078385      18.54787       1.530515      -2.0001376      18107.348    
    261000   0.96880557     0.0023323615  -0.0020218287   19.846756      18.40808       1.4386763     -2.1798969      18008.249    
    262000   1.0281041      0.0023323615   0.0054582399   20.002896      18.476162      1.5267346     -2.0642297      18038.76     
    263000   1.0368805      0.0023323615  -0.00019794178  19.83228       18.292512      1.5397675     -2.2189524      18054.35     
    264000   1.1176989      0.0023323615  -0.0047197814   20.403009      18.743226      1.6597829     -1.8843038      18068.306    
    265000   1.0102288      0.0023323615   0.0021862867   19.793449      18.29326       1.5001898     -2.1467587      18029.346    
    266000   0.87037539     0.0023323615   0.0034460881   19.534644      18.242137      1.2925075     -2.2279079      18030.402    
    267000   0.92124413     0.0023323615  -0.0014469496   19.994029      18.625981      1.3680475     -1.907007       18210.872    
    268000   0.92913908     0.0023323615   0.0024407492   19.962702      18.582931      1.3797715     -1.8980466      18138.444    
    269000   1.0009352      0.0023323615  -0.0018109686   20.127711      18.641323      1.4863888     -1.9186726      17969.703    
    270000   1.1072403      0.0023323615   0.00061804318  20.034213      18.389961      1.6442518     -2.1456699      18016.128    
    271000   0.97558489     0.0023323615   0.0011712685   19.742149      18.293405      1.4487436     -2.1644234      18117.448    
    272000   1.0461878      0.0023323615  -0.0015330209   20.121496      18.567907      1.5535889     -1.9720863      18014.563    
    273000   1.0260497      0.0023323615   0.002267541    20.076113      18.552429      1.5236838     -1.9803246      18029.838    
    274000   1.0951402      0.0023323615  -0.00086744943  20.091899      18.465616      1.6262832     -2.0178487      18206.345    
    275000   0.88274683     0.0023323615  -0.0003782994   19.697347      18.386468      1.310879      -2.2175106      18146.381    
    276000   1.0603587      0.0023323615  -0.00025736538  20.167511      18.592878      1.5746327     -1.9462593      18147.229    
    277000   1.0775964      0.0023323615  -8.2098771e-05  20.062099      18.461868      1.6002307     -1.9889967      18038.464    
    278000   1.0616256      0.0023323615   0.0013527048   20.288123      18.711609      1.576514      -1.793106       17973.852    
    279000   1.0890755      0.0023323615   0.00047007345  20.138158      18.520881      1.617277      -1.9862416      18072.824    
    280000   1.1269023      0.0023323615  -0.0055732303   20.251262      18.577812      1.6734499     -1.9883014      17974.619    
    281000   1.0190163      0.0023323615  -0.0020054389   20.100715      18.587476      1.5132392     -1.9427441      17986.879    
    282000   0.86867779     0.0023323615   0.0017104559   19.793844      18.503858      1.2899865     -2.0257434      18104.097    
    283000   0.7760365      0.0023323615  -0.00019774112  19.575248      18.422834      1.1524142     -2.0387181      18006.851    
    284000   1.0009309      0.0023323615  -0.0018087368   19.722305      18.235922      1.4863824     -2.2753568      18022.891    
    285000   1.0987762      0.0023323615   0.0017768146   20.061839      18.430157      1.6316826     -2.0547078      18013.406    
    286000   0.98094169     0.0023323615   0.00083380989  20.019013      18.562314      1.4566984     -2.0690583      18043.658    
    287000   0.89820305     0.0023323615   0.0008635789   19.812521      18.47869       1.3338315     -1.977603       18051.937    
    288000   0.91925543     0.0023323615  -0.00066302083  19.797176      18.432082      1.3650943     -2.1331853      17956.995    
    289000   0.97375941     0.0023323615   0.0022735717   19.839121      18.393089      1.4460327     -2.153285       17837.571    
    290000   0.96588501     0.0023323615   0.0023861072   19.644266      18.209927      1.4343392     -2.283163       18059.747    
    291000   1.0421692      0.0023323615  -0.0003780028   20.01347       18.465849      1.5476213     -2.0332532      18097.193    
    292000   0.91533543     0.0023323615   0.00040518638  19.701903      18.34263       1.3592731     -2.1134598      18080.966    
    293000   1.0934302      0.0023323615  -0.00020261568  19.945841      18.322097      1.6237438     -2.1253156      18144.88     
    294000   0.9571376      0.0023323615  -0.00036125774  19.686531      18.265181      1.4213493     -2.2814893      17977.179    
    295000   0.9593315      0.0023323615   0.00050321408  19.992366      18.567759      1.4246073     -1.9369059      18121.004    
    296000   1.1204515      0.0023323615  -0.0015348891   20.27663       18.61276       1.6638705     -1.9590516      18199.397    
    297000   1.026924       0.0023323615   0.0015378647   19.890956      18.365974      1.5249822     -2.2094236      18062.793    
    298000   1.009127       0.0023323615  -9.745077e-08   20.032091      18.533538      1.4985535     -1.9635763      18102.087    
    299000   1.1392088      0.0023323615  -0.001871581    20.316315      18.62459       1.6917251     -1.910686       18144.857    
    300000   0.9699214      0.0023323615  -6.3582319e-05  20.174756      18.734422      1.4403333     -1.7106593      17809.623    
    301000   1.0135532      0.0023323615  -0.001438523    20.20339       18.698264      1.5051266     -1.7943327      18009.399    
    302000   0.96091184     0.0023323615  -0.0021004768   19.911952      18.484998      1.4269541     -1.987231       18083.446    
    303000   0.91863977     0.0023323615  -6.4055872e-05  19.918825      18.554645      1.3641801     -1.9504247      18050.628    
    304000   0.88207898     0.0023323615   0.0015940979   19.903717      18.59383       1.3098873     -2.0553532      17831.354    
    305000   1.1200429      0.0023323615  -0.00018081901  19.962299      18.299035      1.6632637     -2.1270146      18031.627    
    306000   1.069009       0.0023323615   0.0040058365   20.342526      18.755047      1.5874784     -1.8144567      18062.734    
    307000   1.0402475      0.0023323615  -0.001544464    19.981895      18.437128      1.5447676     -2.0370938      18099.304    
    308000   0.97401808     0.0023323615  -9.0174945e-06  19.959503      18.513086      1.4464168     -2.0545279      18057.378    
    309000   0.93029801     0.0023323615  -0.0028575617   19.941676      18.560183      1.3814925     -2.1340292      18128.992    
    310000   1.0180077      0.0023323615   0.0030318779   19.765801      18.254059      1.5117414     -2.2494074      18065.231    
    311000   0.94195995     0.0023323615   0.001075674    19.94166       18.54285       1.3988105     -2.0473552      18108.248    
    312000   1.0251834      0.0023323615  -0.00017367141  20.50744       18.985042      1.5223974     -1.6449135      18182.698    
    313000   0.93959293     0.0023323615   0.0042943099   19.933025      18.537729      1.3952955     -2.0164169      18210.766    
    314000   1.0284841      0.0023323615   0.0010367842   19.81789       18.290591      1.5272989     -2.1859207      18067.331    
    315000   0.97146564     0.0023323615   3.7543074e-05  19.83679       18.394164      1.4426265     -2.1195284      18162.627    
    316000   1.0174058      0.0023323615  -0.0014039399   20.303387      18.792539      1.5108475     -1.6986136      18089.693    
    317000   1.1079595      0.0023323615   0.00013683701  20.28364       18.63832       1.6453199     -1.9210027      18288.161    
    318000   1.026211       0.0023323615  -0.0044386818   20.221306      18.697383      1.5239233     -1.8151956      18316.811    
    319000   1.0615678      0.0023323615  -0.0010115313   20.190506      18.614078      1.5764281     -1.9206497      18259.178    
    320000   0.89679741     0.0023323615  -0.00078760244  20.067552      18.735808      1.3317442     -1.7980344      18212.956    
    321000   1.0461128      0.0023323615  -0.0021352459   20.186014      18.632536      1.5534776     -1.9450165      18080.878    
    322000   1.0116878      0.0023323615   0.0024204938   20.107801      18.605444      1.5023563     -1.9109387      18262.325    
    323000   1.0166157      0.0023323615  -0.0046941621   20.29528       18.785605      1.5096743     -1.8096833      18162.518    
    324000   1.011199       0.0023323615  -0.0014053527   19.896349      18.394718      1.5016305     -2.0880365      18101.408    
    325000   0.9124204      0.0023323615   0.00148781     19.923668      18.568724      1.3549443     -1.8907488      18227.564    
    326000   1.0567007      0.0023323615  -0.0015604233   20.16272       18.59352       1.5692006     -1.9274531      18178.35     
    327000   0.99691959     0.0023323615   0.0016950213   20.041105      18.560679      1.4804256     -1.9347217      18071.014    
    328000   1.057773       0.0023323615   0.0026217472   20.601713      19.030921      1.5707928     -1.7177196      18205.611    
    329000   0.92641922     0.0023323615  -0.0007920962   19.78837       18.412638      1.3757325     -2.0670068      18163.292    
    330000   1.0509565      0.0023323615  -0.00080985008  20.046408      18.485738      1.5606705     -2.1158679      18228.313    
    331000   0.95905836     0.0023323615   0.0014129567   19.708304      18.284103      1.4242017     -2.1694615      18224.499    
    332000   1.031139       0.0023323615  -0.0018113152   20.131227      18.599986      1.5312414     -1.9563756      18214.967    
    333000   0.96201841     0.0023323615   0.0019701242   19.869924      18.441327      1.4285973     -2.0612547      18096.344    
    334000   1.0497021      0.0023323615   0.003685613    19.893508      18.334701      1.5588077     -2.2227225      18203.337    
    335000   0.95289745     0.0023323615  -0.0016805969   20.140179      18.725127      1.4150527     -1.9483334      18210.149    
    336000   1.0416805      0.0023323615  -0.0020182753   20.128834      18.581938      1.5468956     -1.9253409      17969.389    
    337000   1.1541083      0.0023323615   0.0005792007   20.320373      18.606522      1.7138508     -1.8530345      18026.95     
    338000   0.89670242     0.0023323615   0.0017507917   19.934062      18.602459      1.3316031     -1.9442505      18089.538    
    339000   0.94247719     0.0023323615  -0.00086416785  20.238785      18.839206      1.3995786     -1.8658821      18152.668    
    340000   1.1814566      0.0023323615   0.00051451997  20.315647      18.561184      1.754463      -1.9342627      18094.644    
    341000   1.0193884      0.0023323615   0.0012348779   19.733042      18.21925       1.5137917     -2.1896499      17965.851    
    342000   0.99529168     0.0023323615   0.0012045242   19.873636      18.395627      1.4780082     -2.1220346      17995.771    
    343000   1.0215353      0.0023323615   0.00055776113  19.800917      18.283937      1.51698       -2.1651854      18076.587    
    344000   1.0086207      0.0023323615   0.0017837779   19.900769      18.402967      1.4978017     -2.1025932      18019.689    
    345000   1.1058855      0.0023323615  -0.0023753218   20.117859      18.475619      1.6422399     -2.023861       17931.686    
    346000   1.0461533      0.0023323615   0.00058914105  20.067497      18.513959      1.5535376     -2.0789902      17945.488    
    347000   0.97773171     0.0023323615  -0.0012788549   19.877252      18.42532       1.4519316     -2.097459       17949.154    
    348000   0.84779113     0.0023323615  -0.00072308045  19.679963      18.420994      1.2589698     -1.9539219      17963.988    
    349000   0.89017763     0.0023323615  -0.00060867639  19.702648      18.380734      1.3219138     -2.0074301      17982.083    
    350000   0.95748921     0.0023323615   0.0062988027   19.906226      18.484354      1.4218715     -2.1006136      18047.165    
    351000   0.91999273     0.0023323615  -0.0034242728   19.660001      18.293812      1.3661892     -2.1804026      17924.238    
    352000   0.90637873     0.0023323615   0.0029208797   19.669876      18.323904      1.3459724     -2.2364091      18033.435    
    353000   0.93781513     0.0023323615   0.00068178017  20.011316      18.618661      1.3926555     -2.0374405      18215.465    
    354000   1.0235094      0.0023323615   0.0050610935   19.952231      18.432319      1.5199115     -2.1399982      18506.206    
    355000   1.0479694      0.0023323615  -0.002505194    20.188538      18.632303      1.5562345     -1.9905622      18400.941    
    356000   0.94650283     0.0023323615  -0.00086470194  19.82146       18.415904      1.4055567     -2.1179975      18142.756    
    357000   1.0531152      0.0023323615  -0.00040041852  20.05292       18.489044      1.563876      -2.0142046      18292.27     
    358000   1.0120377      0.0023323615   0.004941947    19.900162      18.397286      1.502876      -1.99916        18229.988    
    359000   1.0195981      0.0023323615   0.0040667034   20.129282      18.615179      1.5141031     -1.8771881      18325.313    
    360000   0.92879793     0.0023323615   0.0013563754   19.768919      18.389654      1.3792649     -2.1573591      18133.365    
    361000   1.1189426      0.0023323615   0.0034855885   20.342971      18.681341      1.6616297     -1.8594906      18235.33     
    362000   1.0069542      0.0023323615   0.0016383465   20.04442       18.549093      1.495327      -1.9533667      18127.767    
    363000   1.1092516      0.0023323615   0.003545535    20.006517      18.359278      1.6472386     -2.199917       17924.621    
    364000   0.90517525     0.0023323615  -0.0021140418   19.995356      18.65117       1.3441852     -1.8913998      18032.936    
    365000   1.0371627      0.0023323615  -0.0016967991   20.178011      18.637824      1.5401867     -1.8638814      18292.652    
    366000   0.92744347     0.0023323615   0.0053628223   20.068351      18.691097      1.3772536     -1.7798351      18125.506    
    367000   0.94304164     0.0023323615   0.0037846157   20.178703      18.778286      1.4004168     -1.7771497      18192.749    
    368000   0.98751588     0.0023323615  -0.0037102594   20.073161      18.6067        1.4664611     -1.960819       18109.217    
    369000   1.0287958      0.0023323615  -0.001840269    20.100361      18.5726        1.5277618     -2.0063284      18018.661    
    370000   0.79256234     0.0023323615  -0.0023486434   19.571273      18.394318      1.1769551     -2.0638591      17879.739    
    371000   0.9888556      0.0023323615   0.0019194728   19.792798      18.324347      1.4684506     -2.1488631      18019.39     
    372000   0.95997384     0.0023323615  -0.0037629212   19.809762      18.384201      1.4255612     -2.1478941      18129.617    
    373000   1.0429048      0.0023323615  -0.00011855194  20.005205      18.456491      1.5487136     -2.0095534      17932.566    
    374000   0.83878872     0.0023323615  -9.5483804e-05  19.689029      18.443428      1.2456012     -2.0868516      18052.404    
    375000   0.94640645     0.0023323615   0.00031197094  20.289283      18.883869      1.4054136     -1.6438791      18042.226    
    376000   1.005707       0.0023323615   0.0014842838   19.697356      18.203881      1.493475      -2.1672969      18179.787    
    377000   0.77828748     0.0023323615   0.0032334956   19.666285      18.510528      1.1557569     -1.8927233      17943.64     
    378000   1.0788734      0.0023323615  -0.00044540492  20.407541      18.805414      1.602127      -1.7950314      17872.008    
    379000   1.1532849      0.0023323615  -0.0042272675   20.488489      18.775861      1.712628      -1.8375524      17893.031    
    380000   0.96979097     0.0023323615  -0.0017487321   19.843967      18.403827      1.4401396     -1.9725656      17731.803    
    381000   0.93578261     0.0023323615   0.0049577234   19.9512        18.561563      1.3896372     -1.9402783      17728.626    
    382000   0.9872325      0.0023323615   0.0022023169   19.842528      18.376487      1.4660403     -2.0374439      17979.579    
    383000   1.0513517      0.0023323615   0.00034498741  19.932562      18.371305      1.5612573     -2.1214409      17944.866    
    384000   0.9751146      0.0023323615  -0.0013189332   19.765131      18.317086      1.4480452     -2.161259       17972.677    
    385000   0.92197662     0.0023323615   0.0017962983   19.831871      18.462736      1.3691353     -1.9683723      18033.034    
    386000   1.2500375      0.0023323615   0.0001964253   20.575482      18.719177      1.8563057     -1.8528715      17952.906    
    387000   0.96944724     0.0023323615  -0.0018284383   19.873018      18.433389      1.4396292     -2.1406949      18037.081    
    388000   0.80913099     0.0023323615  -0.001707395    19.987149      18.78559       1.2015595     -1.7764985      18004.997    
    389000   0.89611453     0.0023323615  -0.00036539061  19.738083      18.407353      1.3307301     -2.1185276      18030.988    
    390000   1.0814917      0.0023323615   0.0040333748   19.960923      18.354907      1.6060152     -2.1346817      18081.818    
    391000   1.0113468      0.0023323615  -0.00089183897  19.955496      18.453646      1.50185       -2.0028099      18114.282    
    392000   0.99729141     0.0023323615  -0.00014359535  19.770484      18.289506      1.4809777     -2.232207       18062.672    
    393000   1.023701       0.0023323615   0.0045547134   19.966798      18.446602      1.520196      -2.0682599      18091.299    
    394000   1.0088669      0.0023323615  -0.0012116978   20.25309       18.754923      1.4981673     -1.8580604      18102.34     
    395000   0.96736241     0.0023323615   0.00098529697  19.592347      18.155814      1.4365332     -2.2353561      18192.458    
    396000   0.95838709     0.0023323615  -0.00040761614  19.999824      18.576619      1.4232048     -2.0138426      18121.721    
    397000   1.0526426      0.0023323615  -0.002683389    20.195383      18.632208      1.5631742     -1.9380577      18269.114    
    398000   1.0040569      0.0023323615  -0.00094696377  20.154141      18.663116      1.4910245     -1.8726429      18284.392    
    399000   0.93023269     0.0023323615   0.0044273204   19.880156      18.498761      1.3813955     -1.9852204      18312.409    
    400000   0.9221229      0.0023323615  -9.5823291e-05  20.030529      18.661176      1.3693525     -1.8712659      18149.311    
    401000   1.1299669      0.0023323615  -0.00069680608  20.31385       18.635849      1.6780009     -1.9414157      18184.119    
    402000   0.98713949     0.0023323615   0.002747711    20.092665      18.626763      1.4659021     -1.8792155      18133.013    
    403000   0.91906737     0.0023323615  -0.0018178071   20.268699      18.903884      1.364815      -1.7599598      18215.905    
    404000   1.0410923      0.0023323615   0.0027564163   20.102294      18.556272      1.5460221     -1.9573283      18154.55     
    405000   0.86893611     0.0023323615  -0.0026433784   19.923268      18.632898      1.2903701     -1.895508       18325.337    
    406000   1.1128848      0.0023323615   0.0010736106   20.180006      18.527372      1.6526339     -2.0910707      18349.735    
    407000   0.92280133     0.0023323615   0.00010308278  19.805648      18.435288      1.37036       -2.0139586      18193.025    
    408000   1.0367685      0.0023323615   0.0023817153   19.972186      18.432585      1.5396013     -1.9350436      18311.338    
    409000   1.156375       0.0023323615  -0.00091827523  20.274174      18.556957      1.7172168     -1.8502404      18247.335    
    410000   0.84573113     0.0023323615  -0.0012837014   19.742878      18.486968      1.2559107     -2.0184627      18322.202    
    411000   1.1281739      0.0023323615   0.00089628164  20.132419      18.457081      1.6753382     -1.9439016      18277.417    
    412000   1.0685836      0.0023323615  -0.00021699039  20.066699      18.479853      1.5868466     -1.9801886      18263.622    
    413000   1.0282841      0.0023323615   0.0010631955   19.977638      18.450636      1.527002      -2.076019       18319.356    
    414000   0.94016736     0.0023323615  -0.00041043655  19.741104      18.344956      1.3961485     -2.1080767      18350.642    
    415000   1.0895366      0.0023323615   0.0016433698   20.075085      18.457123      1.6179618     -1.946871       18261.984    
    416000   0.94345672     0.0023323615   0.00059966131  19.909507      18.508473      1.4010332     -1.8927485      18410.692    
    417000   0.92886823     0.0023323615   0.0059837503   20.285915      18.906546      1.3793693     -1.7430042      18350.457    
    418000   1.0953457      0.0023323615   0.0026892088   19.995577      18.368989      1.6265883     -2.1065196      18200.904    
    419000   1.0840209      0.0023323615   0.0024631245   20.12529       18.515519      1.609771      -2.0074373      18268.917    
    420000   1.2455288      0.0023323615  -0.0025262009   20.711945      18.862335      1.8496102     -1.8568068      18315.803    
    421000   0.90894173     0.0023323615  -0.0013449763   19.9768        18.627022      1.3497785     -1.9162518      18292.598    
    422000   1.1557462      0.0023323615  -0.0028349025   20.464299      18.748016      1.7162831     -1.7811852      18274.442    
    423000   1.0652289      0.0023323615  -0.00065086515  20.19616       18.614295      1.5818649     -1.9323293      18098.93     
    424000   1.0082024      0.0023323615   0.00023356881  20.020376      18.523195      1.4971806     -2.0601717      18238.449    
    425000   1.1084862      0.0023323615  -0.00015281107  20.308764      18.662662      1.646102      -1.9518105      18196.67     
    426000   1.0943292      0.0023323615   0.0013916774   20.441287      18.816208      1.6250789     -1.5892538      18161.56     
    427000   1.1532653      0.0023323615  -0.00055029518  20.375959      18.66336       1.712599      -1.7659325      18209.574    
    428000   1.0992987      0.0023323615  -0.0028469144   20.083945      18.451486      1.6324585     -1.9976095      18123.646    
    429000   0.93662618     0.0023323615   0.00063503919  19.829922      18.439032      1.3908899     -2.062504       18004.896    
    430000   1.0327354      0.0023323615   0.00085878338  19.76148       18.227868      1.5336121     -2.2096371      18046.102    
    431000   1.0095268      0.0023323615  -0.0025811332   20.037145      18.537997      1.4991473     -2.0322654      18107.555    
    432000   0.91518762     0.0023323615  -0.0042613759   19.959147      18.600093      1.3590536     -1.9271076      18281.692    
    433000   1.0191437      0.0023323615  -0.00093770738  20.016294      18.502865      1.5134285     -2.00296        18232.249    
    434000   1.0354609      0.0023323615   0.00064189425  20.073395      18.535736      1.5376595     -2.0071891      18000.282    
    435000   0.85982554     0.0023323615   0.0010830877   19.656393      18.379552      1.2768409     -2.1435395      18033.519    
    436000   1.0347411      0.0023323615   0.0031320904   19.778957      18.242366      1.5365905     -2.2768234      18160.41     
    437000   0.94197351     0.0023323615  -0.0014273768   19.765867      18.367037      1.3988307     -2.1904521      18188.529    
    438000   1.0437235      0.0023323615   0.0010912428   19.869911      18.319982      1.5499294     -2.2082404      18213.88     
    439000   1.0181274      0.0023323615  -0.0011529775   20.117219      18.6053        1.5119192     -2.0019298      18180.549    
    440000   0.901632       0.0023323615  -0.0034970537   19.908914      18.56999       1.3389235     -2.0221165      18158.811    
    441000   0.91627887     0.0023323615   0.00024940083  19.953608      18.592934      1.3606741     -1.8448713      18192.458    
    442000   1.0380117      0.0023323615  -0.0022434746   19.862031      18.320584      1.5414474     -2.0948468      18047.514    
    443000   1.1154227      0.0023323615   0.0037749607   20.197172      18.540769      1.6564028     -2.0005027      18265.47     
    444000   1.1263705      0.0023323615  -0.0063906223   20.070192      18.397531      1.6726601     -2.1022619      18138.849    
    445000   1.0179595      0.0023323615   0.0005373923   20.037275      18.525605      1.5116698     -1.8353563      18042.898    
    446000   1.0636763      0.0023323615  -0.00096600194  20.160334      18.580775      1.5795594     -1.9372335      18024.515    
    447000   1.033909       0.0023323615   0.0028422711   19.890089      18.354734      1.5353548     -2.2338691      17927.779    
    448000   0.86294384     0.0023323615   0.0020936918   19.87092       18.589449      1.2814716     -1.9980719      17961.719    
    449000   1.018027       0.0023323615  -0.0006975549   20.11325       18.60148       1.5117701     -1.9443954      17996.274    
    450000   1.1486247      0.0023323615   0.00017762002  20.396239      18.690532      1.7057076     -1.8146918      18096.603    
    451000   1.0834749      0.0023323615   0.0067091071   20.29037       18.681409      1.6089603     -1.8510643      18174.973    
    452000   1.1249684      0.0023323615   0.0034724586   20.202336      18.531757      1.6705781     -1.928318       18142.601    
    453000   1.0246634      0.0023323615   0.002588119    20.102385      18.580759      1.5216252     -1.8747141      18279.469    
    454000   0.84077522     0.0023323615  -0.00037181322  19.891643      18.643092      1.2485512     -1.8818761      18145.672    
    455000   1.0839476      0.0023323615  -0.0018849504   20.221464      18.611801      1.6096622     -1.9246349      18169.021    
    456000   0.97292207     0.0023323615  -0.0018426601   19.940291      18.495502      1.4447893     -2.0039284      18262.011    
    457000   1.0575815      0.0023323615  -0.0049300007   20.307767      18.737258      1.5705086     -1.8061476      18256.83     
    458000   1.1674208      0.0023323615  -0.0010188784   20.42399       18.69037       1.7336199     -1.8905785      18214.601    
    459000   0.92439628     0.0023323615  -0.0027824877   19.763135      18.390406      1.3727285     -2.2187359      18122.494    
    460000   0.90849131     0.0023323615   0.0014113744   19.88132       18.532211      1.3491096     -2.0111239      17997.205    
    461000   1.0509339      0.0023323615  -0.0011513711   19.970204      18.409568      1.5606368     -2.1372769      18106.53     
    462000   0.96216068     0.0023323615   0.00041096333  19.987636      18.558827      1.4288086     -2.0349985      18172.617    
    463000   0.92075463     0.0023323615   1.4624097e-05  20.198747      18.831426      1.3673206     -1.8647923      18246.147    
    464000   0.94161522     0.0023323615   0.0027080831   19.84925       18.450951      1.3982986     -1.9726966      18430.335    
    465000   1.0557375      0.0023323615  -0.0029557589   19.826792      18.259021      1.5677701     -2.2262246      18211.268    
    466000   1.0295242      0.0023323615  -0.0019886051   20.115701      18.586857      1.5288435     -1.9731567      18049.946    
    467000   1.072728       0.0023323615   0.0030748339   19.979784      18.386783      1.593001      -2.1868351      18174.113    
    468000   1.1996147      0.0023323615   0.0018524907   20.310995      18.529567      1.7814279     -2.0128104      18021.456    
    469000   1.0278228      0.0023323615  -0.00013891837  20.049414      18.523098      1.5263169     -2.0251055      18095.546    
    470000   1.0895081      0.0023323615  -0.00081406284  20.086532      18.468613      1.6179195     -2.0936667      18053.367    
    471000   1.0004675      0.0023323615   0.00048079954  20.02994       18.544245      1.4856942     -1.8646182      18196.049    
    472000   0.98206834     0.0023323615  -0.0042417424   20.381939      18.923568      1.4583715     -1.6963337      18268.539    
    473000   1.1027967      0.0023323615   0.0046582621   20.087386      18.449733      1.6376531     -2.1194482      18227.664    
    474000   0.9595547      0.0023323615   0.00041898228  19.717323      18.292384      1.4249387     -2.1934951      18265.436    
    475000   0.98381847     0.0023323615   0.0032543252   20.073019      18.612048      1.4609704     -1.9995218      18261.54     
    476000   0.99064028     0.0023323615  -0.0038155128   20.117379      18.646279      1.4711008     -1.9066867      18207.936    
    477000   1.0726634      0.0023323615   0.0016017951   20.083808      18.490903      1.5929052     -1.9939062      18231.986    
    478000   0.98328225     0.0023323615   0.0016722646   19.931906      18.471732      1.4601741     -2.078078       18190.041    
    479000   0.83870337     0.0023323615  -0.0017863283   19.824701      18.579226      1.2454745     -1.9671972      18133.389    
    480000   0.88812859     0.0023323615  -0.0011965737   19.85378       18.534909      1.318871      -1.9546601      18136.427    
    481000   1.1169786      0.0023323615  -0.0018334679   20.262963      18.604249      1.6587133     -1.9549823      18171.899    
    482000   1.0279843      0.0023323615   0.0051626967   20.008683      18.482126      1.5265567     -2.0271435      18183.728    
    483000   1.0737279      0.0023323615  -0.00072990858  20.136772      18.542286      1.594486      -1.9155736      18023.102    
    484000   0.90204902     0.0023323615   0.0012188791   19.811003      18.47146       1.3395428     -2.0155702      18169.961    
    485000   1.0665927      0.0023323615   0.0018731161   20.191284      18.607394      1.5838901     -1.9517752      18198.093    
    486000   0.96095394     0.0023323615   0.0006756323   20.293449      18.866433      1.4270166     -1.8351651      18277.344    
    487000   0.95620244     0.0023323615   0.0024237953   19.711969      18.292009      1.4199606     -2.195396       18275.644    
    488000   0.91148792     0.0023323615  -0.0055916702   19.580605      18.227045      1.3535596     -2.2951677      18247.295    
    489000   0.96054077     0.0023323615   0.0018799415   19.906013      18.47961       1.426403      -2.0321859      18183.045    
    490000   0.93144264     0.0023323615  -0.00096229514  19.742545      18.359352      1.3831923     -2.1146625      18048.04     
    491000   0.97420535     0.0023323615   0.00053836271  19.972416      18.525721      1.4466949     -1.9827784      18136.618    
    492000   1.0385036      0.0023323615  -0.0035065286   19.889826      18.347648      1.5421779     -2.1005381      18043.156    
    493000   0.9731792      0.0023323615  -0.0038144555   20.25307       18.807899      1.4451711     -1.8081525      18107.164    
    494000   0.97423717     0.0023323615  -0.00011583649  20.02303       18.576288      1.4467422     -1.9863037      18137.046    
    495000   1.0380335      0.0023323615  -0.0034815153   19.986971      18.445491      1.5414797     -2.0400805      18177.058    
    496000   0.85655101     0.0023323615  -0.00016309973  19.764294      18.492316      1.2719782     -2.094532       18164.984    
    497000   1.0392426      0.0023323615  -0.0012160392   20.098948      18.555673      1.5432752     -1.8774492      18263.351    
    498000   0.93019476     0.0023323615   0.0018178372   19.99418       18.612841      1.3813392     -1.9493731      18256.486    
    499000   1.1566359      0.0023323615   0.0015676175   20.319582      18.601978      1.7176042     -1.859356       18192.189    
    500000   1.0949608      0.0023323615   0.0038179636   20.181856      18.555839      1.6260168     -2.0994495      18016.339    
    501000   1.015649       0.0023323615  -0.0019383036   20.410848      18.902609      1.5082388     -1.7129815      18114.844    
    502000   0.93325987     0.0023323615   0.0029269532   19.930269      18.544378      1.3858909     -1.9477077      18186.982    
    503000   1.0924919      0.0023323615   0.0006858508   20.438841      18.81649       1.6223505     -1.842666       18184.424    
    504000   0.96251806     0.0023323615  -0.0014615126   20.300122      18.870783      1.4293393     -1.6085373      18241.032    
    505000   1.1357419      0.0023323615  -0.00025695346  20.259691      18.573114      1.6865767     -2.0181395      18230.244    
    506000   1.0175402      0.0023323615   0.001996952    20.130201      18.619154      1.5110472     -1.9692781      18147.256    
    507000   1.0903061      0.0023323615  -0.0030015214   20.027127      18.408023      1.6191045     -2.0797859      18159.303    
    508000   0.98759158     0.0023323615  -0.00029886233  19.944604      18.478031      1.4665735     -2.1266476      18076.715    
    509000   1.1156918      0.0023323615   0.00031645398  20.286703      18.629901      1.6568023     -1.9305097      18040.54     
    510000   1.1057893      0.0023323615  -0.0040672505   20.366798      18.724701      1.6420971     -1.8493365      18035.009    
    511000   0.89381606     0.0023323615  -0.0022614845   19.990598      18.663281      1.3273168     -1.8936064      18149.008    
    512000   1.1147548      0.0023323615  -0.00311421     19.806639      18.151228      1.6554109     -2.2797985      17989.962    
    513000   1.0740875      0.0023323615   0.00078236623  20.361983      18.766963      1.5950199     -1.7526551      18043.299    
    514000   1.0550459      0.0023323615  -0.00060646079  19.834561      18.267818      1.5667432     -2.280675       17994.532    
    515000   0.97183155     0.0023323615  -0.00045152994  19.687347      18.244177      1.4431698     -2.2046949      17659.797    
    516000   0.96598804     0.0023323615   0.0044703953   20.163432      18.728939      1.4344922     -1.8110055      17922.043    
    517000   0.94978387     0.0023323615  -0.0024826835   19.742599      18.33217       1.410429      -2.1498574      17880.732    
    518000   0.908412       0.0023323615   0.0019887013   19.887796      18.538804      1.3489918     -1.9656172      17830.761    
    519000   1.162149       0.0023323615  -0.0017990999   20.346112      18.620321      1.7257912     -1.9427133      17949.025    
    520000   0.90877809     0.0023323615  -0.00064491365  19.953969      18.604433      1.3495355     -1.9771011      17816.261    
    521000   1.0875219      0.0023323615  -0.0029481586   20.094031      18.479061      1.61497       -2.0241084      17942.491    
    522000   0.9063296      0.0023323615  -0.001460164    19.851395      18.505496      1.3458995     -2.0512189      17867.829    
    523000   0.96013749     0.0023323615  -0.003628271    19.812138      18.386333      1.4258042     -2.1698237      17740.332    
    524000   1.0839997      0.0023323615   0.0015120216   19.965305      18.355566      1.6097396     -2.191419       17730.219    
    525000   0.89141987     0.0023323615   0.00061760198  19.802458      18.478699      1.3237585     -2.1013289      17740.82     
    526000   1.2416066      0.0023323615  -0.00095061821  20.368406      18.524621      1.8437857     -2.0120713      17714.058    
    527000   1.0233975      0.0023323615   0.0043802327   20.097253      18.577508      1.5197453     -1.9067772      17997.929    
    528000   0.94707869     0.0023323615  -0.00048564971  19.86784       18.461428      1.4064119     -2.0385075      17927.709    
    529000   1.0708065      0.0023323615   0.0015177858   20.238517      18.648369      1.5901477     -1.928643       17843.901    
    530000   0.96453515     0.0023323615  -0.000878249    19.887048      18.454713      1.4323347     -2.1012944      17903.218    
    531000   1.0753682      0.0023323615   0.0018236505   19.850014      18.253092      1.5969218     -2.1616968      17794.069    
    532000   0.9067488      0.0023323615  -0.00044817005  19.820341      18.473819      1.346522      -2.0114608      17973.515    
    533000   0.97697783     0.0023323615  -0.003542656    20.183148      18.732336      1.4508121     -1.7001382      18041.649    
    534000   0.99645288     0.0023323615  -0.0031852046   19.9395        18.459768      1.4797325     -2.1226955      17949.474    
    535000   0.8768821      0.0023323615  -0.0015098759   19.893053      18.590883      1.3021699     -1.9888112      17807.561    
    536000   0.79826678     0.0023323615   0.0021802143   19.662834      18.477408      1.1854262     -2.1386268      17773.609    
    537000   0.95622981     0.0023323615  -0.00025012492  19.984872      18.564871      1.4200013     -2.0360345      17897.873    
    538000   0.95917987     0.0023323615  -0.0025979448   20.157269      18.732887      1.4243821     -1.9896726      17978.501    
    539000   1.0135782      0.0023323615   0.0012497508   20.162725      18.657562      1.5051637     -1.8519038      18008.353    
    540000   1.0001978      0.0023323615  -0.00026809078  20.257815      18.772521      1.4852937     -1.6708356      17988.263    
    541000   0.95438897     0.0023323615  -0.002273534    20.116965      18.699698      1.4172676     -1.9267565      17940.911    
    542000   0.97562643     0.0023323615  -0.00057190463  19.946001      18.497196      1.4488052     -2.1129523      18105.853    
    543000   0.97394504     0.0023323615   0.0015221377   19.986109      18.539801      1.4463084     -2.0327401      18129.776    
    544000   0.99988886     0.0023323615  -0.0049550981   19.984354      18.499519      1.484835      -2.1131015      18173.011    
    545000   1.0745844      0.0023323615  -0.0027223554   20.228484      18.632726      1.5957579     -1.8997134      18241.385    
    546000   0.96069098     0.0023323615   0.0022035743   19.895238      18.468612      1.4266261     -1.9976252      18233.914    
    547000   0.96424961     0.0023323615   0.00052346375  19.994934      18.563024      1.4319107     -1.9599587      18218.947    
    548000   1.0424548      0.0023323615   0.0013685313   20.398448      18.850403      1.5480453     -1.6526137      18274.178    
    549000   1.1125096      0.0023323615  -0.00032894913  20.19196       18.539883      1.6520768     -1.9347966      18347.515    
    550000   1.1779123      0.0023323615  -0.0027043594   20.277322      18.528123      1.7491997     -1.9399926      18160.423    
    551000   0.90487189     0.0023323615   0.001782364    19.744234      18.400499      1.3437348     -2.0568802      18215.642    
    552000   1.2032119      0.0023323615   0.0055134914   20.308134      18.521364      1.7867697     -1.9931371      18225.467    
    553000   0.96877311     0.0023323615  -0.0012438861   19.973684      18.535056      1.4386281     -2.0745224      18231.956    
    554000   0.99111767     0.0023323615  -0.00010396397  20.146967      18.675158      1.4718097     -1.9300705      18339.219    
    555000   0.91931451     0.0023323615   0.00051649372  19.987603      18.622421      1.365182      -1.9317518      18219.366    
    556000   1.1315616      0.0023323615  -0.0037430575   20.253046      18.572677      1.6803689     -1.878865       18166.459    
    557000   1.0027569      0.0023323615  -0.0020755518   19.927171      18.438077      1.489094      -2.0663625      18185.646    
    558000   1.0248595      0.0023323615  -0.00038042542  20.100558      18.578641      1.5219163     -1.8358832      18159.878    
    559000   1.1294065      0.0023323615   0.001065171    19.795527      18.118358      1.6771687     -2.3480847      18104.064    
    560000   1.0452777      0.0023323615   0.0039288808   20.137889      18.585651      1.5522374     -2.0181341      18118.346    
    561000   1.1387021      0.0023323615  -0.0028029485   19.986982      18.296009      1.6909727     -2.1237853      18261.663    
    562000   0.98211815     0.0023323615   0.0044920814   19.865494      18.407049      1.4584455     -2.082977       18200.23     
    563000   1.068757       0.0023323615   0.0034011042   20.229318      18.642214      1.5871042     -1.8629133      18218.648    
    564000   0.94866425     0.0023323615  -0.0027836636   20.067365      18.658599      1.4087664     -1.8634783      18216.164    
    565000   0.89501201     0.0023323615  -0.0044478046   19.771822      18.442729      1.3290928     -2.102568       18172.574    
    566000   0.90343051     0.0023323615  -0.00049457621  19.878044      18.53645       1.3415943     -2.0398712      17985.991    
    567000   0.98490029     0.0023323615  -0.0023008414   19.870253      18.407676      1.4625769     -2.1471313      18055.425    
    568000   0.89414567     0.0023323615   0.0004330862   19.973805      18.645999      1.3278063     -1.9692114      18013.962    
    569000   0.91732813     0.0023323615   0.0017587001   19.928224      18.565991      1.3622323     -1.9880028      18151.147    
    570000   0.97632159     0.0023323615  -0.0026276009   20.027393      18.577556      1.4498376     -2.0559597      18065.82     
    571000   0.82438298     0.0023323615  -0.0002630971   19.807808      18.583599      1.2242087     -1.8530529      18221.484    
    572000   1.0665166      0.0023323615  -0.0038351541   20.11429       18.530513      1.5837771     -2.0018985      18185.696    
    573000   1.0200764      0.0023323615   0.0052310583   20.040174      18.525361      1.5148135     -2.0696174      18071.564    
    574000   1.0572422      0.0023323615  -0.0015713573   19.774745      18.20474       1.5700047     -2.2242226      18016.635    
    575000   1.0232348      0.0023323615  -0.0012318025   19.959632      18.440129      1.5195037     -2.1606612      18016.349    
    576000   1.1113669      0.0023323615  -0.0048839584   20.355269      18.704889      1.6503798     -1.9065844      17951.53     
    577000   1.0673087      0.0023323615  -0.0033152261   20.147102      18.562149      1.5849534     -2.0577665      18036.361    
    578000   1.1552857      0.0023323615   0.0028040421   20.437653      18.722054      1.7155993     -1.8985621      18028.698    
    579000   1.0605567      0.0023323615   0.004047767    19.877043      18.302117      1.5749267     -2.1957874      18142.753    
    580000   0.9310281      0.0023323615   0.00081513957  19.909012      18.526436      1.3825767     -1.9452804      17943.924    
    581000   0.99516322     0.0023323615  -0.0014721891   20.022634      18.544817      1.4778174     -1.9561497      17900.332    
    582000   1.1087903      0.0023323615  -0.00015271206  20.191713      18.54516       1.6465537     -2.0053851      18040.247    
    583000   0.90803495     0.0023323615  -0.0032163014   19.840508      18.492077      1.3484319     -2.1278129      18102.34     
    584000   0.79047603     0.0023323615  -0.00028004468  19.700292      18.526435      1.1738569     -2.0837407      18142.565    
    585000   0.99929852     0.0023323615   0.0030786445   20.195474      18.711516      1.4839583     -1.877251       18161.709    
    586000   0.89524768     0.0023323615  -0.0032323489   19.799432      18.469989      1.3294428     -2.0319288      17984.979    
    587000   0.8526013      0.0023323615  -0.0038016272   19.693916      18.427803      1.2661129     -2.0264785      17936.194    
    588000   1.012131       0.0023323615  -0.0017688783   19.771939      18.268924      1.5030146     -2.1528962      17982.498    
    589000   0.90035084     0.0023323615  -0.0010664608   20.079331      18.74231       1.337021      -1.8443854      17943.578    
    590000   1.0513774      0.0023323615   0.0017522488   20.029382      18.468087      1.5612955     -1.9604783      18136.549    
    591000   1.1274986      0.0023323615   0.0025578132   20.258442      18.584107      1.6743354     -1.9133648      18003.948    
    592000   1.0704562      0.0023323615   0.00054423717  19.949754      18.360127      1.5896274     -2.1080399      17987.942    
    593000   1.0172465      0.0023323615  -0.0014229136   19.814645      18.304034      1.510611      -2.17448        18007.053    
    594000   0.91991678     0.0023323615   0.00092445798  20.129108      18.763032      1.3660764     -1.7999333      18030.695    
    595000   0.88552035     0.0023323615   0.0037369986   19.75146       18.436463      1.3149977     -2.0368038      18213.997    
    596000   1.1029622      0.0023323615  -0.0010511121   20.148323      18.510424      1.6378989     -2.0573485      18068.528    
    597000   0.92456299     0.0023323615  -0.0020531056   20.051052      18.678076      1.372976      -1.9350602      18090.328    
    598000   0.94938429     0.0023323615  -0.0010971454   20.080632      18.670796      1.4098357     -1.9049182      18161.137    
    599000   1.0005784      0.0023323615   0.00027904294  19.679642      18.193783      1.4858589     -2.2655467      18153.916    
    600000   0.942086       0.0023323615   0.0049975937   19.906046      18.507048      1.3989977     -1.9734037      18069.585    
    601000   0.93164594     0.0023323615  -0.0028744088   19.942791      18.559296      1.3834942     -1.9989965      17991.064    
    602000   1.0812757      0.0023323615   0.0014447495   20.261814      18.65612       1.6056945     -1.9614645      17948.238    
    603000   0.93088489     0.0023323615   0.0012946922   19.874586      18.492221      1.3823641     -2.0361783      18049.329    
    604000   0.90983049     0.0023323615   0.002387194    20.085728      18.73463       1.3510983     -1.8613465      18091.837    
    605000   1.0908593      0.0023323615   0.0012775127   20.266588      18.646662      1.6199261     -1.921824       18091.916    
    606000   1.1442477      0.0023323615  -0.0015934885   20.386531      18.687323      1.6992078     -1.8752163      18240.245    
    607000   1.1191899      0.0023323615   0.0012646933   20.209608      18.547612      1.6619969     -1.9164057      18300.02     
    608000   0.90875444     0.0023323615  -0.00037670501  20.236847      18.887347      1.3495003     -1.5839306      18261.416    
    609000   1.0285992      0.0023323615  -0.0034764559   20.19992       18.67245       1.5274698     -1.8025633      18170.315    
    610000   0.90338024     0.0023323615   0.0029461354   19.781043      18.439523      1.3415197     -1.9804287      18109.809    
    611000   1.1104424      0.0023323615   0.0015088208   20.408331      18.759324      1.649007      -1.8154296      18203.324    
    612000   0.96480954     0.0023323615  -0.002890727    20.230375      18.797632      1.4327422     -1.7361635      18363.286    
    613000   0.95772188     0.0023323615  -0.0020931918   19.982143      18.559926      1.422217      -2.0701745      18225.268    
    614000   0.92438168     0.0023323615  -0.00044563425  19.706224      18.333517      1.3727068     -2.1027553      18209.624    
    615000   1.004403       0.0023323615  -0.00017594193  20.045414      18.553875      1.4915385     -1.8929456      18129.212    
    616000   1.0090833      0.0023323615   0.00076892879  20.23724       18.738751      1.4984887     -1.6674318      18177.145    
    617000   0.85753981     0.0023323615  -0.0007187395   20.409128      19.135681      1.2734466     -1.4574029      18301.309    
    618000   1.1502817      0.0023323615   0.0010430846   20.361317      18.653148      1.7081683     -1.8904519      18268.599    
    619000   0.88889908     0.0023323615  -0.0012287886   19.945194      18.625179      1.3200151     -1.8912265      18073.423    
    620000   1.0760679      0.0023323615  -0.00040650801  20.170182      18.572221      1.5979608     -1.9928979      18149.81     
    621000   0.91423716     0.0023323615  -0.00056818052  20.013354      18.655712      1.3576422     -1.9285807      18025.121    
    622000   0.93066321     0.0023323615   0.001355907    19.832522      18.450487      1.3820349     -1.9603773      18176.655    
    623000   0.99690272     0.0023323615  -0.00095733096  19.979991      18.49959       1.4804005     -2.0106652      18026.032    
    624000   1.0806087      0.0023323615   3.3467066e-05  20.205538      18.600834      1.6047039     -1.8166472      18141.052    
    625000   0.94546301     0.0023323615  -0.00067490414  19.754932      18.35092       1.4040126     -2.1586097      17928.249    
    626000   0.97651953     0.0023323615  -0.00035560257  19.893148      18.443017      1.4501315     -2.025248       17945.911    
    627000   0.99333324     0.0023323615  -0.00091108003  20.10871       18.63361       1.4750999     -1.9420082      17848.078    
    628000   1.0496448      0.0023323615   0.0025338359   19.929037      18.370314      1.5587225     -2.2100855      17931.529    
    629000   1.0774333      0.0023323615   0.0010489671   20.371636      18.771648      1.5999884     -1.8682636      18031.861    
    630000   0.88261762     0.0023323615  -0.00049346963  19.802334      18.491647      1.3106872     -2.002691       17982.248    
    631000   0.99703776     0.0023323615   0.0020358759   19.830125      18.349524      1.4806011     -2.14374        18032.161    
    632000   1.0090206      0.0023323615   0.00055644159  19.819999      18.321604      1.4983956     -2.1995706      18031.581    
    633000   0.96325776     0.0023323615  -0.0016387864   20.138301      18.707863      1.4304378     -1.8257788      18012.532    
    634000   0.99417429     0.0023323615   0.0020987684   20.140345      18.663996      1.4763488     -1.8184074      18099.553    
    635000   0.99095084     0.0023323615  -0.0026011087   19.678704      18.207142      1.471562      -2.2218078      18090.132    
    636000   1.0468137      0.0023323615   0.0041875477   20.035837      18.481318      1.5545183     -2.106699       18025.417    
    637000   1.0901163      0.0023323615  -0.0024466905   20.150177      18.531354      1.6188226     -2.008641       17807.024    
    638000   0.91567665     0.0023323615  -0.0016507418   19.564612      18.204832      1.3597798     -2.252454       17822.295    
    639000   0.97427804     0.0023323615   0.00064761195  19.922914      18.476111      1.4468029     -2.1160849      17880.05     
    640000   0.80348195     0.0023323615  -0.004131238    19.479807      18.286636      1.1931707     -2.0751127      17715.819    
    641000   1.029117       0.0023323615  -0.002608724    20.292946      18.764707      1.5282388     -1.7963775      17782.551    
    642000   0.94784415     0.0023323615  -0.0011021136   20.10438       18.696831      1.4075486     -1.7591245      17936.011    
    643000   0.84757778     0.0023323615  -0.0002144765   19.725349      18.466696      1.258653      -1.9266664      17872.792    
    644000   1.0939753      0.0023323615  -0.0012823136   20.125004      18.500451      1.6245533     -2.0095403      17812.394    
    645000   0.9329421      0.0023323615  -0.0043081501   20.152595      18.767176      1.385419      -1.8636087      17834.45     
    646000   0.94875818     0.0023323615   0.0010087591   19.652223      18.243317      1.4089059     -2.1662295      17655.87     
    647000   1.0091725      0.0023323615   0.0013771548   20.018967      18.520346      1.4986211     -1.9474254      17494.057    
    648000   1.1734733      0.0023323615  -0.0019846682   20.332349      18.589741      1.7426079     -1.9597181      17880.467    
    649000   1.0285593      0.0023323615   0.00070631429  20.071808      18.544398      1.5274106     -1.954634       17823.587    
    650000   0.99472129     0.0023323615  -0.0018531768   20.002591      18.52543       1.4771611     -1.945534       17883.955    
    651000   0.97579278     0.0023323615   0.00084023861  20.000662      18.55161       1.4490523     -2.0034728      17866.058    
    652000   0.86354533     0.0023323615   0.00033661154  19.804067      18.521703      1.2823648     -1.9976731      17961.418    
    653000   0.9501455      0.0023323615  -0.0014331757   19.861501      18.450535      1.4109661     -1.986551       18073.74     
    654000   0.94478522     0.0023323615  -0.001178162    20.003291      18.600285      1.4030061     -1.9382972      18179.508    
    655000   0.94819973     0.0023323615   0.0016184917   20.036406      18.62833       1.4080766     -1.8566028      17991.93     
    656000   1.1128677      0.0023323615   0.002025162    20.325121      18.672513      1.6526085     -1.7643048      18099.241    
    657000   0.82828826     0.0023323615  -0.00157256     19.454761      18.224753      1.2300081     -2.2248651      17909.848    
    658000   0.94064473     0.0023323615   0.0018923723   19.964482      18.567625      1.3968574     -1.897555       18073.678    
    659000   0.99328226     0.0023323615  -0.00020457946  19.973401      18.498376      1.4750242     -2.0836157      18034.285    
    660000   0.91817183     0.0023323615   0.00073645599  19.967259      18.603774      1.3634852     -1.9434981      18094.575    
    661000   1.0146384      0.0023323615   3.413039e-05   19.955271      18.448533      1.5067381     -2.0622219      18295.314    
    662000   0.83951079     0.0023323615   0.0011104852   19.796297      18.549623      1.2466735     -2.021228       18117.53     
    663000   0.90457083     0.0023323615  -0.00069264657  19.930662      18.587375      1.3432877     -1.8217926      18215.951    
    664000   0.92535037     0.0023323615  -0.0023039463   19.706125      18.33198       1.3741453     -2.1107208      18118.296    
    665000   1.099809       0.0023323615   0.00056327149  20.183319      18.550103      1.6332164     -1.8921854      18145.969    
    666000   1.0462054      0.0023323615   0.0034031632   20.189329      18.635714      1.553615      -1.983273       18189.586    
    667000   0.84575314     0.0023323615   0.0014607227   19.648626      18.392682      1.2559434     -2.1974014      18083.652    
    668000   1.0269227      0.0023323615  -0.0022487975   20.177591      18.652611      1.5249802     -1.9476167      17949.177    
    669000   0.91481761     0.0023323615  -0.0020031312   20.016542      18.658038      1.3585042     -1.9727257      18053.433    
    670000   0.89093791     0.0023323615  -0.00090059212  19.814649      18.491606      1.3230428     -1.9382231      17962.223    
    671000   1.047769       0.0023323615   0.0065996811   19.906575      18.350638      1.5559369     -2.1287764      18021.573    
    672000   1.1126677      0.0023323615  -0.0015167743   20.229545      18.577233      1.6523116     -1.8522531      18083.537    
    673000   0.89492563     0.0023323615   0.0023910487   19.747509      18.418544      1.3289646     -2.1086978      18091.922    
    674000   0.9928936      0.0023323615  -0.0004937488   20.089276      18.614829      1.474447      -1.7754143      18141.137    
    675000   1.12446        0.0023323615  -0.0036176442   20.052247      18.382424      1.669823      -2.0731212      18067.387    
    676000   0.95138196     0.0023323615   0.00044180739  19.739319      18.326517      1.4128022     -2.1550495      17948.605    
    677000   1.1034787      0.0023323615  -0.00044049645  20.224582      18.585916      1.6386659     -1.8684586      18065.104    
    678000   1.0318574      0.0023323615   0.0036481354   19.881301      18.348993      1.5323082     -2.2133675      18056.653    
    679000   0.96929662     0.0023323615  -0.00067399944  19.875723      18.436318      1.4394055     -1.9872126      18074.336    
    680000   0.97928486     0.0023323615  -0.0014634313   20.008972      18.554734      1.454238      -2.0625934      17976.354    
    681000   1.1228276      0.0023323615  -0.0014024292   20.127646      18.460247      1.667399      -2.0470478      17756.386    
    682000   0.93717016     0.0023323615  -0.0015689922   19.969172      18.577474      1.3916977     -2.0198065      17889.918    
    683000   0.90758506     0.0023323615  -0.00091380389  20.051956      18.704192      1.3477638     -1.9465478      18055.294    
    684000   1.1615112      0.0023323615   0.0023999027   20.169506      18.444662      1.7248442     -2.0001084      17967.067    
    685000   1.0310657      0.0023323615  -0.0045597125   19.922066      18.390933      1.5311326     -2.1705666      18145.962    
    686000   0.93297251     0.0023323615   0.0025539611   19.959618      18.574154      1.3854642     -1.9524571      18105.637    
    687000   1.0442954      0.0023323615  -0.00023814202  20.143503      18.592725      1.5507787     -1.9121956      18173.246    
    688000   0.92009539     0.0023323615   0.0026636564   19.785145      18.418804      1.3663417     -2.0294         18131.422    
    689000   0.92511019     0.0023323615  -0.00093324398  19.970342      18.596554      1.3737886     -1.9222265      18262.285    
    690000   1.0377954      0.0023323615   0.0014636243   20.082771      18.541644      1.5411262     -1.9552694      18269.742    
    691000   0.99908014     0.0023323615   0.00034091468  20.354814      18.87118       1.483634      -1.6725106      18283.752    
    692000   1.146511       0.0023323615  -0.0021450363   20.089864      18.387296      1.7025688     -2.2014139      18253.481    
    693000   0.91926015     0.0023323615  -0.0062335675   20.071022      18.70592       1.3651013     -1.9977732      18069.667    
    694000   0.94969703     0.0023323615  -0.0015001137   20.020346      18.610046      1.4103001     -1.9771648      18161.801    
    695000   0.93790267     0.0023323615  -0.0031514252   20.106654      18.713869      1.3927855     -1.8914982      17984.354    
    696000   1.0880394      0.0023323615   0.0031353782   20.321889      18.706151      1.6157385     -1.8505748      17974.097    
    697000   1.1481943      0.0023323615  -0.0020709323   20.032722      18.327654      1.7050685     -2.1815686      17874.863    
    698000   0.99097704     0.0023323615   0.0027359428   19.840455      18.368854      1.4716009     -2.070803       17923.388    
    699000   0.86150084     0.0023323615  -0.0027596125   19.795973      18.516644      1.2793287     -1.863158       17896.034    
    700000   1.0100651      0.0023323615  -0.0016930094   20.212388      18.712441      1.4999466     -1.9085213      18032.425    
    701000   0.92970904     0.0023323615   0.00041811494  19.881203      18.500585      1.3806179     -1.9288146      18032.376    
    702000   1.0238208      0.0023323615   0.0017943207   20.078664      18.55829       1.5203739     -1.9229071      17988.607    
    703000   1.044423       0.0023323615  -0.0013271054   19.958604      18.407636      1.5509681     -2.1000296      18070.484    
    704000   1.0004803      0.0023323615   0.0034755695   20.062162      18.576448      1.4857132     -1.9257728      18014.014    
    705000   0.99950323     0.0023323615   0.0022893375   19.977861      18.493599      1.4842623     -2.06675        18057.182    
    706000   0.94629833     0.0023323615  -0.0017490662   20.003948      18.598695      1.405253      -1.9512625      17991.816    
    707000   0.87819593     0.0023323615   0.0050434873   19.663997      18.359876      1.304121      -2.1172708      18024.457    
    708000   0.92728064     0.0023323615   0.00088797894  19.811424      18.434412      1.3770117     -2.0381302      17874.203    
    709000   1.0669699      0.0023323615   0.0053249999   20.01064       18.42619       1.5844503     -2.0387743      18039.083    
    710000   0.96373124     0.0023323615  -0.0031602686   19.963955      18.532814      1.4311409     -2.0494742      17994.039    
    711000   0.96729128     0.0023323615   0.0034784442   19.891986      18.455559      1.4364276     -1.9846609      18001.227    
    712000   1.0780867      0.0023323615  -0.0013439136   20.137299      18.53634       1.6009587     -1.8747509      18049.189    
    713000   0.909821       0.0023323615  -0.0005575763   19.736364      18.38528       1.3510842     -2.0850514      17870.075    
    714000   0.92030441     0.0023323615   0.0027138614   19.908514      18.541862      1.366652      -1.999224       17890.257    
    715000   0.94209562     0.0023323615   0.0050671608   19.713113      18.314101      1.399012      -2.254908       17718.382    
    716000   1.0143352      0.0023323615   0.00031965559  19.914446      18.408158      1.5062878     -2.1395006      17882.209    
    717000   1.0760053      0.0023323615   0.00058706013  20.035397      18.437529      1.5978679     -2.0244038      17905.521    
    718000   0.98029614     0.0023323615  -0.0018678611   19.925141      18.469402      1.4557398     -1.9802394      17961.231    
    719000   1.146203       0.0023323615   0.0029192261   20.345814      18.643703      1.7021115     -1.8892238      17804.994    
    720000   0.92765794     0.0023323615   0.0014364709   19.655966      18.278394      1.377572      -2.2407189      17802.491    
    721000   1.0357565      0.0023323615  -0.0037139299   20.277928      18.73983       1.5380984     -1.8124415      17758.538    
    722000   0.97875157     0.0023323615  -0.0036825673   19.962214      18.508768      1.4534461     -1.9782471      17739.786    
    723000   0.93544206     0.0023323615   0.0032246859   19.80173       18.412598      1.3891315     -2.1482224      17639.492    
    724000   0.99988138     0.0023323615   0.0010241025   20.063837      18.579013      1.4848239     -1.8943526      17825.116    
    725000   0.98422253     0.0023323615   0.0017896325   20.114159      18.652589      1.4615705     -1.8452033      17819.136    
    726000   0.87632412     0.0023323615  -0.0015060408   19.730551      18.42921       1.3013413     -2.1790982      17797.225    
    727000   0.94074341     0.0023323615   0.0004090398   19.805467      18.408463      1.397004      -2.0971813      17747.603    
    728000   0.9581105      0.0023323615   0.0041262006   19.703439      18.280645      1.4227941     -2.2649751      17873.803    
    729000   0.98574586     0.0023323615   0.00058419736  19.976683      18.51285       1.4638326     -2.0042873      17794.107    
    730000   0.91807597     0.0023323615  -0.0014988976   20.082636      18.719293      1.3633428     -1.8011965      17926.775    
    731000   1.0430673      0.0023323615   0.0018770243   19.878876      18.329921      1.5489549     -2.2934845      17912.69     
    732000   1.1183738      0.0023323615  -0.00079815834  20.030664      18.369879      1.660785      -2.1126351      17810.354    
    733000   1.1906414      0.0023323615  -0.0034402248   20.336159      18.568056      1.7681025     -1.9980877      17833.087    
    734000   0.97768305     0.0023323615  -0.0012172584   20.047896      18.596036      1.4518593     -1.9054499      17785.631    
    735000   0.95201099     0.0023323615   0.00095521955  19.889169      18.475432      1.4137363     -2.0527645      17855.239    
    736000   0.88880232     0.0023323615  -0.0034312877   19.888688      18.568817      1.3198714     -1.9393786      17911.703    
    737000   0.97261942     0.0023323615  -0.00041417151  20.110266      18.665926      1.4443398     -1.9103106      17708.395    
    738000   1.028189       0.0023323615   0.003931037    19.935404      18.408543      1.5268607     -2.1748033      18099.862    
    739000   0.97986459     0.0023323615  -0.0033173222   19.993736      18.538637      1.4550989     -2.0262481      17985.304    
    740000   0.95974732     0.0023323615   0.0019938845   20.12175       18.696525      1.4252248     -1.8367101      18142.456    
    741000   0.86456304     0.0023323615   0.00066124165  19.67363       18.389754      1.2838761     -2.0226181      18121.537    
    742000   1.1132644      0.0023323615  -0.0016433717   20.29051       18.637313      1.6531976     -1.9731263      18233.934    
    743000   0.90254272     0.0023323615   0.00090553983  19.695133      18.354857      1.3402759     -2.1348418      18086.529    
    744000   0.91506132     0.0023323615  -0.0034886863   19.720685      18.361819      1.3588661     -2.1901982      18010.217    
    745000   1.0624759      0.0023323615  -0.00046182303  20.014221      18.436444      1.5777767     -2.0069499      18139.367    
    746000   1.0782986      0.0023323615   0.0014269042   19.989772      18.388498      1.6012734     -2.0474873      18157.708    
    747000   1.0289347      0.0023323615  -0.0071798864   20.323235      18.795267      1.527968      -1.7750751      18216.147    
    748000   1.0632972      0.0023323615  -8.7769684e-05  20.127398      18.548402      1.5789963     -1.938839       18039.168    
    749000   0.99197503     0.0023323615  -0.0050040205   20.388925      18.915842      1.4730829     -1.698104       18021.963    
    750000   1.2386683      0.0023323615  -0.0022403822   20.401266      18.561844      1.8394225     -1.9585281      17986.396    
    751000   0.94525515     0.0023323615  -0.00015200085  19.632708      18.229004      1.4037039     -2.2531144      17944.278    
    752000   1.077535       0.0023323615   0.0029537561   20.131498      18.531359      1.6001394     -2.048253       17988.646    
    753000   0.87011216     0.0023323615  -0.0012989179   19.821635      18.529519      1.2921166     -1.9839083      18077.131    
    754000   1.0074626      0.0023323615   0.0028795143   20.023559      18.527477      1.496082      -1.9715038      18094.159    
    755000   0.86769313     0.0023323615   0.0056890371   19.967588      18.679064      1.2885243     -1.8710028      18331.866    
    756000   0.89831365     0.0023323615   0.0027056193   19.825817      18.491822      1.3339958     -2.0445136      18178.794    
    757000   0.96824857     0.0023323615   0.0013978429   19.921681      18.483831      1.4378491     -2.1835728      17994.47     
    758000   1.0711682      0.0023323615   0.0032695933   19.960376      18.369691      1.5906847     -2.0641401      17956.051    
    759000   0.94052812     0.0023323615  -0.0022521255   19.861061      18.464376      1.3966843     -2.034957       18039.334    
    760000   1.0220437      0.0023323615   0.00079443421  19.785544      18.26781       1.5177349     -2.166762       18024.29     
    761000   1.0939495      0.0023323615   0.0024622925   20.024876      18.400361      1.6245151     -2.1136766      18009.818    
    762000   1.0150634      0.0023323615  -0.0016281375   20.306104      18.798735      1.5073692     -1.7495565      17986.198    
    763000   1.0078768      0.0023323615  -0.0055067922   20.010757      18.51406       1.496697      -1.98725        17988.399    
    764000   0.98623507     0.0023323615   0.0075836796   19.746054      18.281495      1.4645591     -2.2653117      17936.636    
    765000   1.0609602      0.0023323615   0.0030974395   20.143899      18.568373      1.5755258     -1.9509824      18088.909    
    766000   1.0331166      0.0023323615   0.00064921237  20.085466      18.551288      1.5341781     -2.0116497      18189.109    
    767000   0.91534661     0.0023323615  -0.0064306658   20.003862      18.644572      1.3592897     -1.9448872      17998.205    
    768000   1.027672       0.0023323615   0.0020248521   20.193395      18.667303      1.5260929     -1.8725815      18043.077    
    769000   1.0029182      0.0023323615   0.00012119803  20.160115      18.670782      1.4893335     -1.8670156      17907.603    
    770000   0.94466573     0.0023323615   0.0012077972   20.269556      18.866727      1.4028286     -1.6152802      18120.201    
    771000   0.94817768     0.0023323615  -0.0009899913   20.401442      18.993398      1.4080439     -1.686469       18215.712    
    772000   1.0246343      0.0023323615   0.0028921098   20.229987      18.708405      1.5215819     -1.9268279      17963.775    
    773000   0.89552128     0.0023323615  -0.00093596751  19.794067      18.464218      1.3298491     -2.0291347      18047.926    
    774000   0.85593314     0.0023323615   0.0020992134   19.646767      18.375706      1.2710607     -2.0136742      17980.732    
    775000   0.88349416     0.0023323615   0.0045561438   19.904697      18.592708      1.3119888     -1.9709128      18012.012    
    776000   0.94745362     0.0023323615   0.0032053773   19.895235      18.488266      1.4069686     -1.9703288      18089.984    
    777000   0.83922345     0.0023323615  -0.0006946935   19.662553      18.416307      1.2462468     -2.0802167      18066.419    
    778000   0.94810444     0.0023323615   0.0022918002   20.195687      18.787752      1.4079351     -1.6959111      17950.181    
    779000   1.0270481      0.0023323615  -0.00048884337  19.832038      18.306872      1.5251664     -2.0994034      17981.581    
    780000   1.1097601      0.0023323615   0.001079055    20.144226      18.496233      1.6479938     -2.0589646      17964.57     
    781000   0.85564628     0.0023323615   0.0024285989   19.725996      18.455361      1.2706347     -2.0110351      18044.154    
    782000   0.98598371     0.0023323615   0.002336777    20.023674      18.559488      1.4641858     -1.9574591      18033.314    
    783000   1.0258545      0.0023323615   0.0023447793   19.968053      18.444659      1.5233939     -2.1047266      18181.201    
    784000   0.98480856     0.0023323615   0.0014443088   19.95471       18.49227       1.4624407     -2.0557165      18125.005    
    785000   1.0377433      0.0023323615   0.00043647941  19.958198      18.417149      1.5410488     -2.1342935      18078.5      
    786000   0.85572199     0.0023323615   0.0038751767   19.747492      18.476745      1.2707472     -2.1295026      17979.3      
    787000   1.0232639      0.0023323615  -0.00071730026  20.215547      18.696         1.5195469     -1.8119671      17980.719    
    788000   0.85880254     0.0023323615  -0.0012367253   19.971723      18.696402      1.2753218     -1.8884428      18066.906    
    789000   1.1144699      0.0023323615  -0.0048055527   20.144049      18.489062      1.6549878     -1.882225       17961.965    
    790000   0.8169832      0.0023323615  -0.0023794351   19.850944      18.637724      1.2132201     -1.8400203      18096.623    
    791000   1.0039742      0.0023323615  -0.0024093037   20.078477      18.587576      1.4909017     -1.9868063      17970.703    
    792000   0.93983748     0.0023323615  -0.00054999523  20.130788      18.735129      1.3956587     -1.8207481      18090.076    
    793000   1.0851758      0.0023323615   0.0013560353   20.294329      18.682843      1.6114861     -1.8890594      18131.501    
    794000   0.93722375     0.0023323615  -0.0027402749   19.887753      18.495975      1.3917773     -2.0039257      18036.224    
    795000   1.2448987      0.0023323615  -0.0022910852   20.251129      18.402455      1.8486746     -2.1190083      17882.087    
    796000   1.096453       0.0023323615   0.001407012    20.093951      18.465718      1.6282327     -2.0416859      18026.146    
    797000   0.96404639     0.0023323615   0.00050598458  19.856587      18.424978      1.4316089     -2.0882398      17969.389    
    798000   1.072501       0.0023323615  -0.00058065889  20.09847       18.505806      1.592664      -2.1120458      17930.369    
    799000   0.92688459     0.0023323615  -0.0010175697   19.512925      18.136502      1.3764236     -2.3025162      18049.982    
    800000   1.0192131      0.0023323615  -0.0023205499   19.840245      18.326713      1.5135315     -2.2063542      18110.127    
    801000   1.2605832      0.0023323615   0.0048257172   20.426663      18.554697      1.8719661     -2.0001544      18013.809    
    802000   1.0683125      0.0023323615  -0.0016986895   20.103812      18.517367      1.5864441     -1.9468554      18132.611    
    803000   0.98800016     0.0023323615  -0.0048203843   19.991029      18.523849      1.4671802     -1.9662129      18131.534    
    804000   1.1481141      0.0023323615  -0.0024587117   20.209438      18.504489      1.7049495     -2.0024133      18073.508    
    805000   0.95088472     0.0023323615  -0.00031455373  20.01755       18.605486      1.4120638     -1.8215069      18106.093    
    806000   0.85225584     0.0023323615  -0.00018075346  19.7899        18.5243        1.2655999     -1.95669        18101.197    
    807000   1.061453       0.0023323615   0.0031898236   20.156798      18.58054       1.5762578     -1.9841151      18195.2      
    808000   1.1100617      0.0023323615  -0.0014716023   20.392152      18.74371       1.6484416     -1.8823331      18096.849    
    809000   0.97965083     0.0023323615  -0.0018534362   19.995462      18.540681      1.4547815     -2.0438615      18158.415    
    810000   0.98673478     0.0023323615  -0.0010613147   19.915593      18.450292      1.4653012     -2.0300919      17888.439    
    811000   0.96225931     0.0023323615  -0.0010241553   19.895518      18.466563      1.4289551     -1.9892479      17965.288    
    812000   0.91966334     0.0023323615   0.0036466073   20.262361      18.896661      1.3657001     -1.747902       18133        
    813000   0.98475319     0.0023323615   0.0030927846   20.23152       18.769162      1.4623585     -1.8124646      18058.744    
    814000   1.0657415      0.0023323615   0.0017645629   20.463166      18.88054       1.5826261     -1.8178025      18088.896    
    815000   1.009988       0.0023323615   0.00051576818  20.047967      18.548134      1.4998322     -1.9919014      18097.689    
    816000   0.92740325     0.0023323615  -0.0015877768   19.793818      18.416624      1.3771938     -2.0398204      18164.102    
    817000   1.0522269      0.0023323615  -0.00012960486  20.078749      18.516192      1.562557      -2.090346       18100.63     
    818000   0.99343255     0.0023323615   8.0034772e-05  20.030467      18.55522       1.4752473     -1.9687861      18047.876    
    819000   1.0206395      0.0023323615  -0.0063328169   20.309432      18.793782      1.5156497     -1.7540045      18298.058    
    820000   0.87255251     0.0023323615   0.0020957636   19.584009      18.288268      1.2957405     -2.1252164      18192.524    
    821000   1.0595378      0.0023323615  -0.002565724    19.872951      18.299537      1.5734136     -2.1514675      18132.865    
    822000   0.95538616     0.0023323615  -0.001086209    20.134699      18.71595       1.4187484     -1.7937107      18135.774    
    823000   1.021637       0.0023323615  -0.00010762711  20.015338      18.498207      1.5171309     -1.9992549      18061.355    
    824000   0.86384566     0.0023323615   0.0022356708   19.611745      18.328934      1.2828108     -2.1696142      18050.148    
    825000   1.0179758      0.0023323615  -0.0025637614   19.880288      18.368594      1.5116941     -2.0607044      18166.297    
    826000   1.0024529      0.0023323615   0.001440591    19.937004      18.448362      1.4886426     -1.9413584      18136.492    
    827000   0.94967362     0.0023323615  -0.0052953123   20.123409      18.713144      1.4102653     -1.9050252      18117.922    
    828000   0.93171892     0.0023323615  -0.00071690307  20.149883      18.76628       1.3836026     -1.8502319      18115.633    
    829000   0.90133857     0.0023323615  -0.00066835453  19.744976      18.406488      1.3384878     -2.0115834      18133.989    
    830000   0.922943       0.0023323615   0.0025297323   19.715785      18.345215      1.3705704     -2.2196642      18060.936    
    831000   1.0442441      0.0023323615  -0.00013619375  20.26585       18.715148      1.5507024     -1.8860603      18048.206    
    832000   0.99916105     0.0023323615  -1.1156896e-05  19.943354      18.4596        1.4837542     -2.172634       18095.041    
    833000   0.90175444     0.0023323615   0.0015071451   19.906271      18.567166      1.3391053     -1.9605561      18094.48     
    834000   1.0390743      0.0023323615   0.002567041    19.790616      18.247591      1.5430254     -2.1910561      18127.869    
    835000   1.0846837      0.0023323615   0.00094256581  20.35604       18.745285      1.6107553     -1.9448136      18059.387    
    836000   1.049917       0.0023323615   0.001023138    20.118249      18.559122      1.5591267     -1.9733965      18032.48     
    837000   1.1087443      0.0023323615  -0.0044334007   20.269821      18.623336      1.6464852     -1.8851893      18106.094    
    838000   0.93230677     0.0023323615  -0.00059358236  19.922359      18.537884      1.3844756     -1.9902496      18097.721    
    839000   0.83167897     0.0023323615  -0.0037021662   19.644201      18.409158      1.2350433     -2.087643       18001.548    
    840000   1.0187359      0.0023323615  -0.0016517197   20.118382      18.605559      1.5128228     -2.0735786      17936.539    
    841000   1.0617726      0.0023323615   0.00073909577  19.848872      18.27214       1.5767323     -2.298741       18108.261    
    842000   1.0432206      0.0023323615  -0.00056291785  20.178604      18.629421      1.5491826     -1.8841812      17966.934    
    843000   1.0997451      0.0023323615  -0.0028971413   20.125639      18.492517      1.6331214     -2.174533       18032.545    
    844000   1.02312        0.0023323615   0.0030505813   20.084913      18.565579      1.5193332     -1.9522395      17997.91     
    845000   0.99449016     0.0023323615  -0.0028314887   19.912723      18.435905      1.4768179     -2.1676939      18073.792    
    846000   1.1697371      0.0023323615   0.00065599385  20.339358      18.602298      1.7370596     -1.9299158      18184.152    
    847000   1.0037979      0.0023323615   0.001485402    20.145029      18.654389      1.4906399     -1.8409679      18184.049    
    848000   1.0419952      0.0023323615  -0.00043410654  19.938341      18.390978      1.5473628     -2.0126673      18101.71     
    849000   0.95355749     0.0023323615  -0.0021598176   19.939126      18.523093      1.4160329     -1.9480317      18063.614    
    850000   0.95216972     0.0023323615   0.0028112592   19.81445       18.400478      1.413972      -2.1998383      18080.625    
    851000   1.0516042      0.0023323615   0.0025138715   19.847015      18.285383      1.5616322     -2.0505266      18076.143    
    852000   1.0587288      0.0023323615  -0.00018055343  20.104715      18.532502      1.5722122     -2.0224684      18022.719    
    853000   0.99139688     0.0023323615   0.0013867627   19.948314      18.47609       1.4722244     -1.9085527      18272.328    
    854000   1.0136718      0.0023323615   0.0019225025   19.825095      18.319792      1.5053027     -2.2809386      18124.867    
    855000   0.87946107     0.0023323615  -0.0020460021   19.928679      18.622679      1.3059997     -1.9051366      18069.003    
    856000   0.97359323     0.0023323615  -0.00067331316  19.977518      18.531732      1.4457859     -2.0088222      18068.292    
    857000   1.0259956      0.0023323615  -0.00043204033  20.270879      18.747275      1.5236035     -1.9338278      18058.731    
    858000   1.0181868      0.0023323615  -0.0027586537   19.880839      18.368832      1.5120074     -2.1369679      17989.589    
    859000   0.9729424      0.0023323615  -0.002652803    20.219749      18.774929      1.4448195     -1.8442241      17970.344    
    860000   0.96514643     0.0023323615  -0.0010119818   19.883197      18.449955      1.4332425     -2.1152112      18046.144    
    861000   1.0077837      0.0023323615   0.0012932704   20.261975      18.765416      1.4965588     -1.8341091      17989.09     
    862000   1.0555222      0.0023323615   0.0012071295   20.065505      18.498055      1.5674504     -2.128392       18067.926    
    863000   1.1194918      0.0023323615  -0.00012371268  20.043112      18.380666      1.6624453     -2.1252819      18058.322    
    864000   0.86357313     0.0023323615   0.00095151844  19.708227      18.42582       1.2824061     -2.0624848      18211.428    
    865000   0.99429014     0.0023323615  -0.0015512894   20.026829      18.550308      1.4765209     -1.906546       18080.386    
    866000   0.97138173     0.0023323615   0.0030664364   19.832292      18.38979       1.4425019     -2.0534402      17963.077    
    867000   1.0724644      0.0023323615   0.0045330353   20.238086      18.645476      1.5926096     -1.9563913      18044.983    
    868000   0.9702538      0.0023323615   0.0010448038   20.01317       18.572343      1.4408269     -1.928055       18022.803    
    869000   0.93536277     0.0023323615   0.00074643264  20.079529      18.690516      1.3890137     -1.9316814      17974.583    
    870000   1.0412601      0.0023323615  -0.0019727201   20.027875      18.481603      1.5462712     -1.9593235      18090.342    
    871000   0.91131375     0.0023323615  -0.00063501801  19.766681      18.41338       1.3533009     -2.0213393      18223.441    
    872000   1.0465083      0.0023323615   0.0016207453   20.106445      18.55238       1.5540649     -1.9437057      18134.891    
    873000   1.0424095      0.0023323615  -0.00027423856  20.082151      18.534172      1.5479781     -1.9612553      18185.921    
    874000   0.86603941     0.0023323615   0.0011423949   19.691059      18.404991      1.2860685     -2.1311225      18135.069    
    875000   1.1045072      0.0023323615  -0.00077205498  20.092549      18.452356      1.6401931     -2.0617311      18214.811    
    876000   0.95988919     0.0023323615  -0.00010913781  20.321862      18.896427      1.4254354     -1.7185386      18200.94     
    877000   1.1662205      0.0023323615   0.00092896974  20.194814      18.462977      1.7318375     -1.8918415      18254.443    
    878000   0.88822029     0.0023323615  -0.00096276694  19.328349      18.009342      1.3190071     -2.3548902      18122.557    
    879000   1.0197023      0.0023323615  -0.0011900167   20.435642      18.921384      1.5142579     -1.6278548      17936.514    
    880000   0.97854758     0.0023323615   0.004709269    20.150682      18.697539      1.4531432     -1.913826       18129.459    
    881000   1.0198606      0.0023323615   0.00016167582  20.161832      18.647339      1.514493      -1.8584552      18279.834    
    882000   0.89409705     0.0023323615   0.0015862733   19.791885      18.464151      1.3277341     -1.8932253      18204.977    
    883000   1.0070881      0.0023323615   0.0012489629   19.776285      18.280759      1.4955258     -2.119557       17975.58     
    884000   0.98797021     0.0023323615  -0.0032974038   20.187357      18.720221      1.4671358     -1.8239312      18148.057    
    885000   1.0193895      0.0023323615  -0.0020669358   20.026545      18.512752      1.5137934     -2.1195072      18151.411    
    886000   1.015931       0.0023323615  -0.00027271342  20.069379      18.560721      1.5086575     -1.9425773      18120.714    
    887000   1.1060651      0.0023323615   0.0056228782   20.111165      18.468658      1.6425067     -2.0750413      18128.281    
    888000   0.82729336     0.0023323615  -0.00037824304  19.645566      18.417035      1.2285306     -2.086219       18199.062    
    889000   0.99773733     0.0023323615   0.0024897394   20.050498      18.568859      1.4816399     -1.9978679      18131.468    
    890000   1.099807       0.0023323615   0.0063470456   20.106185      18.472972      1.6332135     -2.0581486      18136.947    
    891000   0.93545244     0.0023323615  -0.0021156102   19.81226       18.423113      1.3891469     -1.9893011      18184.347    
    892000   0.93999454     0.0023323615  -0.00065249315  20.062569      18.666677      1.3958919     -1.9707037      18136.895    
    893000   1.0671022      0.0023323615  -0.0013853588   20.286742      18.702095      1.5846468     -1.8293468      18310.048    
    894000   0.97639323     0.0023323615  -0.0013404676   19.951485      18.501541      1.449944      -2.2056858      18087.745    
    895000   0.99053743     0.0023323615   0.0022135478   19.959855      18.488907      1.4709481     -2.0102519      17872.657    
    896000   0.99623428     0.0023323615   0.003263251    19.958791      18.479383      1.4794079     -2.1057422      18093.45     
    897000   0.97991703     0.0023323615   0.002556592    20.061511      18.606334      1.4551768     -1.9642698      18099.989    
    898000   1.0136878      0.0023323615  -0.0034872345   20.190094      18.684767      1.5053264     -1.8956973      18111.764    
    899000   0.94197974     0.0023323615  -0.0020043115   19.689287      18.290447      1.3988399     -2.2549393      17960.455    
    900000   0.91082496     0.0023323615  -0.00061211311  19.568496      18.215921      1.3525751     -2.2250638      18104.445    
    901000   1.0919744      0.0023323615  -0.00025186976  20.171032      18.54945       1.6215819     -1.8939461      18116.794    
    902000   0.94815353     0.0023323615  -0.00044277052  19.956793      18.548785      1.408008      -1.9609802      18014.329    
    903000   0.95684438     0.0023323615  -0.0023881464   20.136656      18.715742      1.4209139     -1.8025622      18051.095    
    904000   0.97472762     0.0023323615   0.0027684478   19.867613      18.420143      1.4474705     -2.0200872      18350.284    
    905000   1.0400772      0.0023323615  -0.00071063388  19.993774      18.449259      1.5445147     -1.9764788      18227.93     
    906000   1.0300891      0.0023323615   0.0013790046   20.155278      18.625596      1.5296823     -1.8895796      18167.031    
    907000   0.83721703     0.0023323615   0.0010001204   20.135871      18.892604      1.2432673     -1.6044479      18196.922    
    908000   0.92281965     0.0023323615  -0.0004055409   20.061932      18.691544      1.3703872     -1.7860072      18053.563    
    909000   0.8993565      0.0023323615  -0.00012685968  19.729384      18.393839      1.3355444     -2.0648144      18224.978    
    910000   0.96264562     0.0023323615  -0.0019208353   20.178923      18.749395      1.4295287     -1.890775       18061.956    
    911000   0.9066711      0.0023323615  -0.0046681134   19.658709      18.312302      1.3464066     -2.1061657      18028.207    
    912000   1.0979758      0.0023323615  -0.00028740898  19.890932      18.260437      1.630494      -2.0963108      18089.404    
    913000   0.99905291     0.0023323615   0.00071147202  20.000767      18.517174      1.4835936     -2.0281223      18084.435    
    914000   1.0650024      0.0023323615   0.0029460465   19.977658      18.396129      1.5815285     -2.1202643      17933.697    
    915000   0.94830396     0.0023323615  -0.00072448729  20.024055      18.615824      1.4082314     -1.8752486      18007.534    
    916000   0.96191863     0.0023323615   0.0013432495   19.825453      18.397004      1.4284492     -2.0265568      18043.912    
    917000   0.80338834     0.0023323615  -0.0016368684   19.773481      18.580449      1.1930317     -1.8869632      18092.847    
    918000   0.92113564     0.0023323615  -0.00017628105  19.941462      18.573575      1.3678864     -1.8859542      18149.846    
    919000   1.1199188      0.0023323615  -0.0027773997   20.117167      18.454088      1.6630795     -1.9484353      18193.002    
    920000   1.0523289      0.0023323615   0.0029235808   20.279015      18.716307      1.5627084     -1.7487179      18159.27     
    921000   0.92345147     0.0023323615  -0.00082887187  20.08756       18.716235      1.3713254     -1.8650046      18164.498    
    922000   1.029707       0.0023323615   0.0022482981   20.099528      18.570413      1.5291149     -2.01011        18104.74     
    923000   1.034244       0.0023323615  -0.0019645298   19.849503      18.313651      1.5358524     -2.1091205      17990.721    
    924000   1.0763945      0.0023323615   0.00087446635  20.048261      18.449815      1.5984459     -1.964721       17931.899    
    925000   1.1431949      0.0023323615   0.0010865447   20.379653      18.682009      1.6976444     -1.8300871      18080.969    
    926000   0.8626673      0.0023323615   0.0010222272   19.747615      18.466554      1.2810609     -1.9180066      18083.259    
    927000   1.0438835      0.0023323615  -0.0023603809   20.35218       18.802013      1.5501671     -1.7274338      18259.897    
    928000   1.0428238      0.0023323615  -0.0003498922   20.194967      18.646374      1.5485933     -1.9579476      18034.572    
    929000   0.9963789      0.0023323615  -0.0010566675   20.023636      18.544014      1.4796227     -1.9098331      18336.833    
    930000   0.99007896     0.0023323615  -0.0017239851   19.989276      18.519009      1.4702672     -1.9232315      18171.959    
    931000   1.0668123      0.0023323615   0.0021360413   20.144392      18.560176      1.5842163     -1.9094938      18163.09     
    932000   1.0096727      0.0023323615  -0.0031690787   20.192048      18.692684      1.499364      -1.8582341      18154.679    
    933000   1.1058744      0.0023323615   0.0015586086   20.099877      18.457654      1.6422234     -2.0337134      18150.242    
    934000   0.98573498     0.0023323615   5.3190523e-05  20.211186      18.74737       1.4638164     -1.8228304      18107.732    
    935000   1.0074362      0.0023323615   0.0015317695   20.176956      18.680914      1.4960427     -1.9494477      18054.955    
    936000   0.96258943     0.0023323615   0.0014516247   19.972246      18.542801      1.4294453     -2.0617556      18073.272    
    937000   0.90500401     0.0023323615   0.0024395391   19.821152      18.477221      1.343931      -2.1251024      18098.378    
    938000   1.0413148      0.0023323615   0.0011214802   19.988156      18.441804      1.5463525     -2.0782402      18089.961    
    939000   1.0590466      0.0023323615  -0.0018043645   19.995872      18.423188      1.5726842     -2.094703       18129.677    
    940000   1.0061756      0.0023323615  -0.00089672105  20.019189      18.525018      1.4941708     -2.0114018      18172.882    
    941000   1.1044855      0.0023323615  -0.0027348685   20.253052      18.612891      1.6401609     -1.8958158      18171.532    
    942000   0.89977869     0.0023323615  -0.00072160397  19.748875      18.412704      1.3361713     -1.9878295      18203.476    
    943000   1.0606974      0.0023323615   0.0022709668   20.300262      18.725126      1.5751356     -1.8729761      18187.933    
    944000   1.0726916      0.0023323615  -0.0028664202   20.194464      18.601517      1.592947      -1.8762249      18209.202    
    945000   1.0315415      0.0023323615  -0.0010659713   19.992466      18.460627      1.5318391     -1.9804479      18197.702    
    946000   0.97497535     0.0023323615   0.00050583017  19.799952      18.352114      1.4478384     -2.1643813      18067.439    
    947000   1.0100786      0.0023323615   0.0027900102   19.895938      18.395971      1.4999667     -2.0486177      18149.156    
    948000   1.038294       0.0023323615   0.00061645222  20.270044      18.728178      1.5418666     -1.7953034      18172.372    
    949000   1.0147394      0.0023323615   0.0050922965   20.062994      18.556106      1.506888      -2.0705205      18139.36     
    950000   0.99685479     0.0023323615   0.0012352039   20.309601      18.829272      1.4803294     -1.7948391      18040.87     
    951000   0.9323869      0.0023323615  -0.0012195967   19.861514      18.47692       1.3845945     -2.0615941      17957.356    
    952000   1.132938       0.0023323615   0.00040192593  20.428875      18.746462      1.6824129     -1.8284317      17857.303    
    953000   0.95250307     0.0023323615   0.0010351167   19.771909      18.357442      1.4144671     -2.1014675      18027.614    
    954000   0.94009908     0.0023323615   0.0026734667   19.875296      18.479249      1.3960471     -2.0559074      17859.974    
    955000   1.0496169      0.0023323615   0.0022206099   19.894653      18.335972      1.5586811     -2.257581       17935.924    
    956000   1.0591294      0.0023323615   0.00038980677  19.96153       18.388723      1.5728071     -2.1344691      17932.005    
    957000   1.1004387      0.0023323615  -0.00057850659  20.299721      18.665569      1.6341514     -1.9359677      18067.504    
    958000   1.1015571      0.0023323615  -0.0018590705   20.190659      18.554847      1.6358123     -1.9021004      17897.767    
    959000   0.93150816     0.0023323615   0.00086839882  19.946261      18.562971      1.3832896     -1.8208439      17930.404    
    960000   0.97044971     0.0023323615   0.002051082    19.919276      18.478158      1.4411178     -1.9785805      18023.786    
    961000   1.1772892      0.0023323615  -0.0017469337   20.426397      18.678123      1.7482745     -1.8960451      17941.637    
    962000   1.0736414      0.0023323615   0.0016604342   20.242742      18.648385      1.5943574     -1.8666845      17925.735    
    963000   1.0217395      0.0023323615  -0.0010992519   20.144155      18.626872      1.5172832     -1.9738441      17883.737    
    964000   0.82634179     0.0023323615  -0.0036136012   19.690543      18.463426      1.2271176     -2.1346287      18044.323    
    965000   0.8877304      0.0023323615   0.0016186924   19.904294      18.586014      1.3182796     -1.9381217      17995.69     
    966000   1.0404485      0.0023323615  -0.0047218273   20.024338      18.479272      1.545066      -2.0274798      17993.601    
    967000   0.99655871     0.0023323615   0.0037035626   20.039304      18.559415      1.4798897     -1.8751481      18076.876    
    968000   1.0084595      0.0023323615  -0.0015472069   20.102812      18.60525       1.4975623     -1.9160541      17960.598    
    969000   1.022604       0.0023323615   1.1511241e-05  19.694404      18.175837      1.518567      -2.2151038      18017.806    
    970000   1.1543864      0.0023323615   0.0049755755   20.265297      18.551033      1.7142638     -1.9625082      17928.829    
    971000   0.963424       0.0023323615  -0.0016225278   19.805288      18.374604      1.4306846     -2.1052378      17954.181    
    972000   1.0070739      0.0023323615   0.00078402107  19.968966      18.473462      1.4955047     -1.9417375      18344.898    
    973000   0.87010461     0.0023323615  -0.0010833292   19.886524      18.594419      1.2921054     -1.8860903      19513.121    
    974000   0.93745816     0.0023323615   0.0053502825   19.942652      18.550527      1.3921254     -1.9528916      19145.736    
    975000   1.0716258      0.0023323615   0.004411801    20.246124      18.65476       1.5913644     -1.8324869      19307.953    
    976000   1.0228206      0.0023323615   0.0064643003   20.207789      18.6889        1.5188886     -1.7408337      19833.681    
    977000   1.028053       0.0023323615  -0.0018363823   20.443929      18.91727       1.5266588     -1.7103166      18895.376    
    978000   1.041375       0.0023323615  -0.007050068    20.264241      18.717799      1.5464419     -1.8636493      18399.1      
    979000   1.0565623      0.0023323615  -0.0017486555   20.264595      18.6956        1.568995      -1.8612922      18145.969    
    980000   0.93849766     0.0023323615  -0.0005783943   19.655181      18.261512      1.393669      -2.2385236      18218.272    
    981000   0.99811366     0.0023323615  -0.00010939428  20.041736      18.559537      1.4821988     -1.8884756      18705.831    
    982000   1.0130847      0.0023323615   0.0023044863   20.021434      18.517003      1.5044309     -1.8921558      18115.495    
    983000   0.93587324     0.0023323615   0.0028787397   19.667292      18.27752       1.3897718     -2.1548763      18105.187    
    984000   1.0418884      0.0023323615  -0.0038843995   20.094677      18.547472      1.5472042     -1.9018872      18595.525    
    985000   0.95967524     0.0023323615  -0.0010960919   19.755587      18.330469      1.4251177     -2.2864279      18702.81     
    986000   1.029373       0.0023323615   0.0037042648   20.146974      18.618355      1.5286189     -1.9800072      18135.979    
    987000   0.95594096     0.0023323615  -0.0040078214   19.89694       18.477368      1.4195723     -1.9788761      18228.443    
    988000   0.98258195     0.0023323615   0.00068247348  19.835163      18.376029      1.4591342     -2.0265506      18625.857    
    989000   0.83856008     0.0023323615  -0.0041583578   19.934606      18.689345      1.2452617     -1.8268482      18014.759    
    990000   0.9132331      0.0023323615   0.00048846305  20.034952      18.678801      1.3561512     -1.8675695      18315.215    
    991000   1.1114523      0.0023323615   0.0010163601   20.095511      18.445005      1.6505067     -2.0357707      19288.007    
    992000   1.1036217      0.0023323615   0.00088654304  20.149523      18.510644      1.6388783     -1.8918111      19567.055    
    993000   1.0307175      0.0023323615  -0.0005577776   20.320253      18.789637      1.5306154     -1.815089       19319.961    
    994000   1.0287631      0.0023323615  -0.0014292107   20.1885        18.660787      1.5277132     -1.8845725      19439.19     
    995000   0.88045445     0.0023323615   0.0024803655   19.983144      18.675669      1.3074749     -1.9325914      19485.648    
    996000   0.95743986     0.0023323615   0.0053460807   20.309325      18.887527      1.4217982     -1.7833016      19752.152    
    997000   1.066517       0.0023323615   0.00020443261  20.097893      18.514115      1.5837778     -2.0656812      19459.712    
    998000   0.89409059     0.0023323615   0.00076326276  19.838112      18.510387      1.3277245     -2.0342695      19207.566    
    999000   1.1785675      0.0023323615  -0.00098300602  20.170617      18.420444      1.7501727     -2.2075205      18660.048    
   1000000   0.94807142     0.0023323615  -0.0022212591   19.78666       18.378774      1.4078861     -2.158365       18961.886    
Loop time of 55.1815 on 1 procs for 1000000 steps with 100 atoms

Performance: 7828708.089 tau/day, 18122.009 timesteps/s
99.5% CPU use with 1 MPI tasks x 1 OpenMP threads

MPI task timing breakdown:
Section |  min time  |  avg time  |  max time  |%varavg| %total
---------------------------------------------------------------
Pair    | 46.228     | 46.228     | 46.228     |   0.0 | 83.78
Bond    | 1.2592     | 1.2592     | 1.2592     |   0.0 |  2.28
Neigh   | 3.7789     | 3.7789     | 3.7789     |   0.0 |  6.85
Comm    | 1.4066     | 1.4066     | 1.4066     |   0.0 |  2.55
Output  | 0.21254    | 0.21254    | 0.21254    |   0.0 |  0.39
Modify  | 1.9418     | 1.9418     | 1.9418     |   0.0 |  3.52
Other   |            | 0.3541     |            |       |  0.64

Nlocal:            100 ave         100 max         100 min
Histogram: 1 0 0 0 0 0 0 0 0 0
Nghost:            342 ave         342 max         342 min
Histogram: 1 0 0 0 0 0 0 0 0 0
Neighs:           4851 ave        4851 max        4851 min
Histogram: 1 0 0 0 0 0 0 0 0 0

Total # of neighbors = 4851
Ave neighs/atom = 48.51
Ave special neighs/atom = 1.98
Neighbor list builds = 97711
Dangerous builds = 78517

write_data      ${outputfile_assembled} nofix nocoeff
write_data      7_assembled.data nofix nocoeff
System init for write_data ...
Generated 0 of 6 mixed pair_coeff terms from geometric mixing rule

Total wall time: 0:00:56
