LAMMPS (23 Jun 2022 - Update 1)
OMP_NUM_THREADS environment is not set. Defaulting to 1 thread. (src/comm.cpp:98)
  using 1 OpenMP thread(s) per MPI task


variable        runtime equal 1000000
variable		subsample_rate equal 1000

variable		outputfile_created string '3_created.data'
variable		outputfile_relaxed string '5_relaxed.data'
variable		outputfile_selfasb string '6_a_self_assemble.lammpstrj'
variable		outputfile_trajlin string '6_b_trajlin.data'
variable		outputfile_assembled string '7_assembled.data'

units           lj
atom_style      full
dimension       3
boundary        p p p
timestep        0.005

read_data       ${outputfile_created}
read_data       3_created.data
Reading data file ...
  orthogonal box = (0 0 0) to (35 35 35)
  1 by 1 by 1 MPI processor grid
  reading atoms ...
  100 atoms
  reading velocities ...
  100 velocities
  scanning bonds ...
  1 = max bonds/atom
  reading bonds ...
  99 bonds
Finding 1-2 1-3 1-4 neighbors ...
  special bond factors lj:    0        0        0       
  special bond factors coul:  0        0        0       
     2 = max # of 1-2 neighbors
     2 = max # of 1-3 neighbors
     4 = max # of 1-4 neighbors
     6 = max # of special neighbors
  special bonds CPU = 0.000 seconds
  read_data CPU = 0.005 seconds

bond_style      fene
bond_coeff      * 30.0 1.5 1.0 1.0
special_bonds   fene
Finding 1-2 1-3 1-4 neighbors ...
  special bond factors lj:    0        1        1       
  special bond factors coul:  0        1        1       
     2 = max # of 1-2 neighbors
     6 = max # of special neighbors
  special bonds CPU = 0.000 seconds

variable        Temp equal 1.0
variable        velSeed equal 926458

velocity        all create ${Temp} ${velSeed}
velocity        all create 1 ${velSeed}
velocity        all create 1 926458

### Output
thermo_style    custom step temp density press etotal pe ke epair spcpu
thermo          1000

###########################################################################
# Soft relaxation (to remove overlaps of particles)
######################################################################

pair_style      soft 1.0
pair_coeff      * * 0.0
variable        prefactor equal ramp(0,300)
fix             rampSoft all adapt 1 pair soft a * * v_prefactor

minimize        0.0 1.0e-8 1000 100000
WARNING: Using 'neigh_modify every 1 delay 0 check yes' setting during minimization (src/min.cpp:187)
Generated 0 of 6 mixed pair_coeff terms from geometric mixing rule
Neighbor list info ...
  update every 1 steps, delay 0 steps, check yes
  max neighbors/atom: 2000, page size: 100000
  master list distance cutoff = 1.3
  ghost atom cutoff = 1.3
  binsize = 0.65, bins = 54 54 54
  1 neighbor lists, perpetual/occasional/extra = 1 0 0
  (1) pair soft, perpetual
      attributes: half, newton on
      pair build: half/bin/newton
      stencil: half/bin/3d
      bin: standard
WARNING: Communication cutoff 1.3 is shorter than a bond length based estimate of 1.7550000000000001. This may lead to errors. (src/comm.cpp:727)
Per MPI rank memory allocation (min/avg/max) = 8.346 | 8.346 | 8.346 Mbytes
   Step          Temp         Density         Press          TotEng         PotEng         KinEng         E_pair         S/CPU     
         0   1              0.0023323615  -0.0039617958   21.524174      20.039174      1.485          0              0            
       362   1              0.0023323615   0.0023090379   21.485548      20.000548      1.485          0              71465.672    
Loop time of 0.0050679 on 1 procs for 362 steps with 100 atoms

99.4% CPU use with 1 MPI tasks x 1 OpenMP threads

Minimization stats:
  Stopping criterion = force tolerance
  Energy initial, next-to-last, final = 
      20.0391741078675   20.0005480767337   20.0005480767337
  Force two-norm initial, final = 11.878422 7.9509778e-09
  Force max component initial, final = 6.6117807 1.3572772e-09
  Final line search alpha, max atom move = 1 1.3572772e-09
  Iterations, force evaluations = 362 738

MPI task timing breakdown:
Section |  min time  |  avg time  |  max time  |%varavg| %total
---------------------------------------------------------------
Pair    | 0.0002141  | 0.0002141  | 0.0002141  |   0.0 |  4.22
Bond    | 0.0023238  | 0.0023238  | 0.0023238  |   0.0 | 45.85
Neigh   | 0.0013669  | 0.0013669  | 0.0013669  |   0.0 | 26.97
Comm    | 0.00018682 | 0.00018682 | 0.00018682 |   0.0 |  3.69
Output  | 0          | 0          | 0          |   0.0 |  0.00
Modify  | 0          | 0          | 0          |   0.0 |  0.00
Other   |            | 0.0009763  |            |       | 19.26

Nlocal:            100 ave         100 max         100 min
Histogram: 1 0 0 0 0 0 0 0 0 0
Nghost:             20 ave          20 max          20 min
Histogram: 1 0 0 0 0 0 0 0 0 0
Neighs:              0 ave           0 max           0 min
Histogram: 1 0 0 0 0 0 0 0 0 0

Total # of neighbors = 0
Ave neighs/atom = 0
Ave special neighs/atom = 1.98
Neighbor list builds = 17
Dangerous builds = 0

fix             nvtSoft all nvt temp ${Temp} ${Temp} 0.5
fix             nvtSoft all nvt temp 1 ${Temp} 0.5
fix             nvtSoft all nvt temp 1 1 0.5
run             100000
Generated 0 of 6 mixed pair_coeff terms from geometric mixing rule
WARNING: Communication cutoff 1.3 is shorter than a bond length based estimate of 1.7550000000000001. This may lead to errors. (src/comm.cpp:727)
Per MPI rank memory allocation (min/avg/max) = 7.221 | 7.221 | 7.221 Mbytes
   Step          Temp         Density         Press          TotEng         PotEng         KinEng         E_pair         S/CPU     
       362   1              0.0023323615   0.0023090379   21.485548      20.000548      1.485          0              0            
      1000   0.90989032     0.0023323615  -0.0021940042   21.776974      20.425787      1.3511871      0.00036425437  77813.922    
      2000   0.86546688     0.0023323615   0.0034714157   21.677128      20.39191       1.2852183      0.0025814786   76668.537    
      3000   0.98199538     0.0023323615   0.0028144228   21.866132      20.407869      1.4582631      0.0011756043   74225.296    
      4000   1.004495       0.0023323615  -0.0014058211   21.945624      20.453949      1.4916751      0.011986179    74118.644    
      5000   1.1222705      0.0023323615   0.0044495116   21.986385      20.319813      1.6665718      0.0050317639   74643.053    
      6000   1.0538243      0.0023323615   0.0023957538   21.985713      20.420784      1.564929       0.012100514    75477.639    
      7000   1.0210598      0.0023323615  -0.00038820026  21.904665      20.388391      1.5162738      0              77142.518    
      8000   0.94819751     0.0023323615   0.0024943091   21.747889      20.339816      1.4080733      0              77095.088    
      9000   0.92364502     0.0023323615   0.0020053029   21.724166      20.352554      1.3716129      1.7780894e-05  76143.949    
     10000   0.86685188     0.0023323615   0.00078277366  21.644879      20.357604      1.287275       0.0098636418   76286.478    
     11000   1.0057103      0.0023323615   0.00010113276  21.8558        20.362321      1.4934798      0.020705341    76065.445    
     12000   0.97901664     0.0023323615  -0.0026996968   21.871206      20.417366      1.4538397      0.0052928539   76008.733    
     13000   0.97718436     0.0023323615  -6.1641422e-06  21.963706      20.512587      1.4511188      0.025022446    75824.709    
     14000   1.0530014      0.0023323615  -0.0009993112   21.947994      20.384287      1.5637071      0.0020860456   75127.969    
     15000   0.99094527     0.0023323615   0.0011068478   21.895146      20.423592      1.4715537      0.0015091113   75816.126    
     16000   0.91285091     0.0023323615  -0.00025424173  21.87524       20.519657      1.3555836      0.0047853639   75592.715    
     17000   0.82806978     0.0023323615  -0.00054698156  21.701984      20.472301      1.2296836      0              75727.6      
     18000   1.043278       0.0023323615  -6.6143919e-05  22.003299      20.454031      1.5492679      0.0034319132   76728.358    
     19000   1.0879249      0.0023323615  -0.0017804642   21.998985      20.383416      1.6155685      0.015376175    75139.107    
     20000   1.1144506      0.0023323615   0.0025198298   22.190904      20.535944      1.6549592      0              76221.871    
     21000   1.0427751      0.0023323615   0.0011345349   22.099492      20.550971      1.548521       0.00040047813  76435.682    
     22000   1.0586695      0.0023323615   0.0017882747   22.05673       20.484606      1.5721242      0              76226.298    
     23000   1.0058426      0.0023323615  -0.0055245362   21.954628      20.460951      1.4936763      0.0027619031   75471.419    
     24000   0.98273442     0.0023323615   0.0015147357   21.862067      20.402707      1.4593606      0              75878.896    
     25000   0.95835343     0.0023323615   0.0017808774   21.937761      20.514606      1.4231548      0.00020839942  75434.977    
     26000   0.93993778     0.0023323615  -0.0021777292   21.884849      20.489042      1.3958076      0.0088889834   76059.584    
     27000   0.9308188      0.0023323615  -0.00011239942  21.842252      20.459986      1.3822659      0.021612409    75286.635    
     28000   1.0149581      0.0023323615   0.0041996387   21.906846      20.399633      1.5072129      0.0064059022   75654.937    
     29000   0.92841138     0.0023323615  -2.5398808e-05  21.987185      20.608494      1.3786909      0.0046112484   75688.957    
     30000   1.021043       0.0023323615   0.001589158    22.097958      20.581709      1.5162489      0.016799508    73411.327    
     31000   1.0465985      0.0023323615  -0.0021744286   22.037917      20.483718      1.5541987      0.0057879149   76089.91     
     32000   0.98907108     0.0023323615  -0.0015558606   22.044089      20.575318      1.4687705      0.009448173    75460.752    
     33000   1.0918536      0.0023323615  -0.0025643847   22.039275      20.417873      1.6214025      0              74704.397    
     34000   0.99801543     0.0023323615   0.0016279766   21.932339      20.450286      1.4820529      0.017384617    76985.672    
     35000   1.0352271      0.0023323615  -0.0052971711   22.076004      20.538692      1.5373122      0.00010473809  75572.732    
     36000   1.1141579      0.0023323615  -0.00093279925  22.222491      20.567966      1.6545245      0.00033678641  76702.298    
     37000   1.0369415      0.0023323615   0.00013065175  22.217841      20.677983      1.5398581      0.013788831    76005.607    
     38000   1.0515596      0.0023323615   0.0021717558   22.070766      20.5092        1.561566       0.0067894678   76382.629    
     39000   1.0238495      0.0023323615   0.00026414509  22.040141      20.519725      1.5204165      0.00044464649  75609.89     
     40000   1.0749111      0.0023323615  -0.0026849368   22.039327      20.443084      1.596243       0.012651334    73863.918    
     41000   0.99070886     0.0023323615  -0.0030385564   22.03241       20.561207      1.4712027      0.00092855646  77005.811    
     42000   0.95315224     0.0023323615   0.0019788197   21.965263      20.549832      1.4154311      0.020233689    75307.823    
     43000   1.0644183      0.0023323615  -0.0011168725   22.287172      20.706511      1.5806611      0.039694129    75623.413    
     44000   1.0253747      0.0023323615  -0.006676522    22.066233      20.543552      1.5226814      0              74841.796    
     45000   0.94179556     0.0023323615  -0.0047206018   21.970644      20.572077      1.3985664      0.019869988    75264.78     
     46000   1.0083495      0.0023323615  -0.0017646918   21.972114      20.474715      1.497399       0.00026040605  75411.665    
     47000   0.98767959     0.0023323615  -0.00080218158  22.091674      20.62497       1.4667042      0.024266258    75160.104    
     48000   1.1473449      0.0023323615  -0.0025885687   22.080512      20.376705      1.7038072      0.00065962995  75561.922    
     49000   1.0679312      0.0023323615   0.0017688272   21.970482      20.384604      1.5858779      0.014142422    76463.964    
     50000   0.9581935      0.0023323615   0.0014398836   21.955202      20.532284      1.4229173      0.0055011948   76005.55     
     51000   1.0215759      0.0023323615  -0.00093292688  21.934681      20.41764       1.5170402      0              75639.109    
     52000   0.98079591     0.0023323615   0.0040701936   21.977374      20.520892      1.4564819      0.0020862422   76330.407    
     53000   1.0090927      0.0023323615   0.0013324753   22.095438      20.596935      1.4985027      0              75446.49     
     54000   0.97519627     0.0023323615   0.0013260734   22.070151      20.621984      1.4481665      0.026885444    76516.193    
     55000   1.1805087      0.0023323615  -0.001586238    22.424088      20.671033      1.7530554      0.024690954    76318.499    
     56000   0.98387121     0.0023323615   0.0037155145   22.104425      20.643376      1.4610487      0.01435493     75688.556    
     57000   1.0723812      0.0023323615  -0.0037916262   22.122726      20.53024       1.592486       0.013635549    76173.535    
     58000   1.0152349      0.0023323615   0.00021908047  22.082827      20.575203      1.5076238      0.00077375639  76243.059    
     59000   1.1424502      0.0023323615  -0.0052108657   22.30072       20.604182      1.6965385      0.013308184    77019.476    
     60000   1.0359703      0.0023323615  -0.00097887545  22.188218      20.649802      1.538416       0.00011346294  75339.601    
     61000   1.1646839      0.0023323615  -0.002085017    22.239945      20.51039       1.7295556      0.012918477    77618.774    
     62000   1.101836       0.0023323615   0.0010338878   22.171386      20.53516       1.6362265      0.001396566    76212.907    
     63000   0.96616435     0.0023323615   0.00097550571  21.903821      20.469067      1.4347541      0.013027663    77660.988    
     64000   1.0068907      0.0023323615  -0.0020278726   22.061652      20.566419      1.4952327      0.013750276    76286.071    
     65000   0.98723233     0.0023323615   0.0022441476   22.031073      20.565033      1.46604        0.0066686189   76786.026    
     66000   1.0273881      0.0023323615  -0.0003515278   22.183579      20.657908      1.5256713      0              74457.796    
     67000   0.96528212     0.0023323615  -0.00014822656  21.9396        20.506156      1.4334439      0.010365557    76783.19     
     68000   1.069702       0.0023323615   9.4754668e-05  22.081119      20.492611      1.5885075      0.00049153926  74054.469    
     69000   1.1229502      0.0023323615   0.0011504079   22.200329      20.532748      1.6675811      0.0068454249   76911.522    
     70000   1.0062775      0.0023323615  -0.00085311964  22.094021      20.599699      1.4943221      0.013222355    75167.008    
     71000   1.0906935      0.0023323615   0.00015260357  22.145362      20.525682      1.6196798      0.018338513    76120.434    
     72000   1.010401       0.0023323615  -6.0487182e-06  22.154105      20.653659      1.5004455      0.0013793953   74773.958    
     73000   1.1177599      0.0023323615  -0.0034084797   22.254435      20.594562      1.6598735      0.00011231735  77478.989    
     74000   0.9768019      0.0023323615   0.00016143893  22.07312       20.622569      1.4505508      0.0084515956   75523.442    
     75000   1.1360996      0.0023323615   0.002159116    22.161595      20.474487      1.6871079      0.0089909162   76101.462    
     76000   0.97379329     0.0023323615  -0.00068458621  21.988928      20.542845      1.446083       0              75629.538    
     77000   0.94876793     0.0023323615  -0.0016073976   21.923496      20.514575      1.4089204      0.017745108    75730.818    
     78000   0.83947996     0.0023323615  -0.00062768559  21.726727      20.480099      1.2466277      0.0054510099   76187.719    
     79000   1.0090614      0.0023323615  -0.00080262643  22.068192      20.569736      1.4984562      0.00023011166  76722.695    
     80000   1.1217643      0.0023323615  -0.0038177864   22.367902      20.702082      1.66582        0.032902439    75846.954    
     81000   1.0240158      0.0023323615   0.00023547123  22.031597      20.510933      1.5206635      0.0068767308   75484.716    
     82000   1.003236       0.0023323615  -0.0022802982   21.894199      20.404393      1.4898055      0.019136282    74879.814    
     83000   1.0554159      0.0023323615   0.004011718    22.104562      20.537269      1.5672927      0.0080869707   74403.068    
     84000   0.83527346     0.0023323615  -0.0034122221   21.874648      20.634267      1.2403811      0.0030083664   75657.284    
     85000   1.036002       0.0023323615   0.0013573923   21.962923      20.42446       1.5384629      0.015709144    76145.468    
     86000   0.9432002      0.0023323615  -0.0032183248   21.913588      20.512936      1.4006523      0.013730309    76122.352    
     87000   0.95566008     0.0023323615  -0.00049614223  21.91653       20.497375      1.4191552      0.0035862035   75290.784    
     88000   0.93373351     0.0023323615  -0.00097093893  21.870485      20.483891      1.3865943      0.0018212145   74938.33     
     89000   0.9684944      0.0023323615  -0.00047342045  21.973429      20.535215      1.4382142      0.00087524744  75387.912    
     90000   0.98293324     0.0023323615  -0.0032204602   22.050919      20.591263      1.4596559      0.015353933    76698.639    
     91000   1.0832827      0.0023323615   0.0048517083   22.11977       20.511095      1.6086749      0.0052867789   77464.38     
     92000   0.85899662     0.0023323615  -0.0013049519   21.765697      20.490087      1.27561        0.0024124001   76398.822    
     93000   0.96176266     0.0023323615  -4.4223672e-05  21.874222      20.446004      1.4282176      0.0045653365   77022.27     
     94000   0.96019503     0.0023323615   0.00024459347  21.944954      20.519064      1.4258896      3.8053462e-05  76443.932    
     95000   0.94702149     0.0023323615  -0.0033658915   21.86315       20.456823      1.4063269      0              77023.818    
     96000   0.91119348     0.0023323615  -0.0013197298   21.825018      20.471896      1.3531223      0.00043282989  75931.073    
     97000   1.0016687      0.0023323615  -0.0019514304   22.013024      20.525546      1.487478       0.0048369955   75378.803    
     98000   1.02143        0.0023323615  -0.0057874974   22.177965      20.661142      1.5168235      0              74512.828    
     99000   1.032786       0.0023323615   0.0018228259   21.975336      20.441649      1.5336871      7.1595851e-05  77542.372    
    100000   1.0594928      0.0023323615   0.0036169719   22.011024      20.437677      1.5733468      0.00032948157  75835.715    
    100362   1.1904942      0.0023323615  -0.00089755607  22.316856      20.548972      1.7678839      0.00063845255  75391.301    
Loop time of 1.31806 on 1 procs for 100000 steps with 100 atoms

Performance: 32775366.630 tau/day, 75868.904 timesteps/s
99.4% CPU use with 1 MPI tasks x 1 OpenMP threads

MPI task timing breakdown:
Section |  min time  |  avg time  |  max time  |%varavg| %total
---------------------------------------------------------------
Pair    | 0.049417   | 0.049417   | 0.049417   |   0.0 |  3.75
Bond    | 0.12798    | 0.12798    | 0.12798    |   0.0 |  9.71
Neigh   | 0.80078    | 0.80078    | 0.80078    |   0.0 | 60.75
Comm    | 0.05428    | 0.05428    | 0.05428    |   0.0 |  4.12
Output  | 0.0010772  | 0.0010772  | 0.0010772  |   0.0 |  0.08
Modify  | 0.25123    | 0.25123    | 0.25123    |   0.0 | 19.06
Other   |            | 0.0333     |            |       |  2.53

Nlocal:            100 ave         100 max         100 min
Histogram: 1 0 0 0 0 0 0 0 0 0
Nghost:             60 ave          60 max          60 min
Histogram: 1 0 0 0 0 0 0 0 0 0
Neighs:             36 ave          36 max          36 min
Histogram: 1 0 0 0 0 0 0 0 0 0

Total # of neighbors = 36
Ave neighs/atom = 0.36
Ave special neighs/atom = 1.98
Neighbor list builds = 9821
Dangerous builds = 8265
unfix           nvtSoft
unfix           rampSoft
reset_timestep  0

write_data      ${outputfile_relaxed}
write_data      5_relaxed.data
System init for write_data ...
Generated 0 of 6 mixed pair_coeff terms from geometric mixing rule
WARNING: Communication cutoff 1.3 is shorter than a bond length based estimate of 1.7550000000000001. This may lead to errors. (src/comm.cpp:727)
WARNING: Not all mixed pair coeffs generated from mixing. Use write_data with 'pair ij' option to store all pair coeffs. (src/write_data.cpp:309)

###########################################################################
# Full LJ with Coulomb
######################################################################

# Cutoffs and parameters:
# - Values: Marcel Verkade's Bachelor Thesis
# - Mapping to atom groups: Patrick Onck's paper
# - 1: aliphatic, 2: aromatic, 3: anion, 4: cation
# pair_style	lj/cut/coul/cut <lj_cut_global> <coul_cut_global>
# pair_coeff	<type_1>  <type_2>  <eps>  <sigma>  <r_cut_lj>  <r_cut_coul>

# Problem: Onck's model is much more complex, and Marcel has no sigma reported
# Using sigma=1 randomly

variable		glob_ljeps equal 1.0
variable		glob_ljsig 	equal 1.0
variable		glob_coulcut equal 10.0
variable		att_ljcut equal 2.50
variable		rep_ljcut equal 1.12

pair_style		lj/cut/coul/cut 						${att_ljcut} 	${glob_coulcut}
pair_style		lj/cut/coul/cut 						2.5 	${glob_coulcut}
pair_style		lj/cut/coul/cut 						2.5 	10
pair_coeff		1 1 	${glob_ljeps} 	${glob_ljsig}	${att_ljcut} 	${glob_coulcut}
pair_coeff		1 1 	1 	${glob_ljsig}	${att_ljcut} 	${glob_coulcut}
pair_coeff		1 1 	1 	1	${att_ljcut} 	${glob_coulcut}
pair_coeff		1 1 	1 	1	2.5 	${glob_coulcut}
pair_coeff		1 1 	1 	1	2.5 	10
pair_coeff		1 2 	${glob_ljeps} 	${glob_ljsig}	${att_ljcut} 	${glob_coulcut}
pair_coeff		1 2 	1 	${glob_ljsig}	${att_ljcut} 	${glob_coulcut}
pair_coeff		1 2 	1 	1	${att_ljcut} 	${glob_coulcut}
pair_coeff		1 2 	1 	1	2.5 	${glob_coulcut}
pair_coeff		1 2 	1 	1	2.5 	10
pair_coeff		1 3 	${glob_ljeps} 	${glob_ljsig}	${rep_ljcut} 	${glob_coulcut}
pair_coeff		1 3 	1 	${glob_ljsig}	${rep_ljcut} 	${glob_coulcut}
pair_coeff		1 3 	1 	1	${rep_ljcut} 	${glob_coulcut}
pair_coeff		1 3 	1 	1	1.12 	${glob_coulcut}
pair_coeff		1 3 	1 	1	1.12 	10
pair_coeff		1 4 	${glob_ljeps} 	${glob_ljsig}	${rep_ljcut} 	${glob_coulcut}
pair_coeff		1 4 	1 	${glob_ljsig}	${rep_ljcut} 	${glob_coulcut}
pair_coeff		1 4 	1 	1	${rep_ljcut} 	${glob_coulcut}
pair_coeff		1 4 	1 	1	1.12 	${glob_coulcut}
pair_coeff		1 4 	1 	1	1.12 	10
pair_coeff		2 2 	${glob_ljeps} 	${glob_ljsig}	${att_ljcut} 	${glob_coulcut}
pair_coeff		2 2 	1 	${glob_ljsig}	${att_ljcut} 	${glob_coulcut}
pair_coeff		2 2 	1 	1	${att_ljcut} 	${glob_coulcut}
pair_coeff		2 2 	1 	1	2.5 	${glob_coulcut}
pair_coeff		2 2 	1 	1	2.5 	10
pair_coeff		2 3 	${glob_ljeps} 	${glob_ljsig}	${rep_ljcut} 	${glob_coulcut}
pair_coeff		2 3 	1 	${glob_ljsig}	${rep_ljcut} 	${glob_coulcut}
pair_coeff		2 3 	1 	1	${rep_ljcut} 	${glob_coulcut}
pair_coeff		2 3 	1 	1	1.12 	${glob_coulcut}
pair_coeff		2 3 	1 	1	1.12 	10
pair_coeff		2 4 	${glob_ljeps} 	${glob_ljsig}	${att_ljcut} 	${glob_coulcut}
pair_coeff		2 4 	1 	${glob_ljsig}	${att_ljcut} 	${glob_coulcut}
pair_coeff		2 4 	1 	1	${att_ljcut} 	${glob_coulcut}
pair_coeff		2 4 	1 	1	2.5 	${glob_coulcut}
pair_coeff		2 4 	1 	1	2.5 	10
pair_coeff		3 3 	${glob_ljeps} 	${glob_ljsig}	${rep_ljcut} 	${glob_coulcut}
pair_coeff		3 3 	1 	${glob_ljsig}	${rep_ljcut} 	${glob_coulcut}
pair_coeff		3 3 	1 	1	${rep_ljcut} 	${glob_coulcut}
pair_coeff		3 3 	1 	1	1.12 	${glob_coulcut}
pair_coeff		3 3 	1 	1	1.12 	10
pair_coeff		3 4 	${glob_ljeps} 	${glob_ljsig}	${att_ljcut} 	${glob_coulcut}
pair_coeff		3 4 	1 	${glob_ljsig}	${att_ljcut} 	${glob_coulcut}
pair_coeff		3 4 	1 	1	${att_ljcut} 	${glob_coulcut}
pair_coeff		3 4 	1 	1	2.5 	${glob_coulcut}
pair_coeff		3 4 	1 	1	2.5 	10
pair_coeff		4 4 	${glob_ljeps} 	${glob_ljsig}	${rep_ljcut} 	${glob_coulcut}
pair_coeff		4 4 	1 	${glob_ljsig}	${rep_ljcut} 	${glob_coulcut}
pair_coeff		4 4 	1 	1	${rep_ljcut} 	${glob_coulcut}
pair_coeff		4 4 	1 	1	1.12 	${glob_coulcut}
pair_coeff		4 4 	1 	1	1.12 	10


fix             noDriftRot 	all momentum 10 linear 1 1 1 angular
fix             nvt1 		all nvt temp ${Temp} ${Temp} 0.5
fix             nvt1 		all nvt temp 1 ${Temp} 0.5
fix             nvt1 		all nvt temp 1 1 0.5

# dump          assemble 	all custom 1000 				${outputfile_selfasb} id type xu yu zu vx vy vz
dump            lindump 	all custom ${subsample_rate} 	${outputfile_trajlin} id type xu yu zu vx vy vz
dump            lindump 	all custom 1000 	${outputfile_trajlin} id type xu yu zu vx vy vz
dump            lindump 	all custom 1000 	6_b_trajlin.data id type xu yu zu vx vy vz

run             ${runtime}
run             1000000
Generated 0 of 6 mixed pair_coeff terms from geometric mixing rule
Neighbor list info ...
  update every 1 steps, delay 10 steps, check yes
  max neighbors/atom: 2000, page size: 100000
  master list distance cutoff = 10.3
  ghost atom cutoff = 10.3
  binsize = 5.15, bins = 7 7 7
  1 neighbor lists, perpetual/occasional/extra = 1 0 0
  (1) pair lj/cut/coul/cut, perpetual
      attributes: half, newton on
      pair build: half/bin/newton
      stencil: half/bin/3d
      bin: standard
Per MPI rank memory allocation (min/avg/max) = 7.712 | 7.712 | 7.712 Mbytes
   Step          Temp         Density         Press          TotEng         PotEng         KinEng         E_pair         S/CPU     
         0   1.1904942      0.0023323615  -0.0013611047   21.951172      20.183288      1.7678839     -0.36504576     0            
      1000   1.198523       0.0023323615   0.0022691368   21.656147      19.87634       1.7798067     -0.56750877     33698.307    
      2000   1.0540936      0.0023323615   0.001302898    21.276288      19.710959      1.565329      -0.85916422     31163.669    
      3000   1.0026272      0.0023323615   0.0048278866   20.878667      19.389765      1.4889013     -1.1226725      25705.404    
      4000   1.0429799      0.0023323615   0.0025600196   20.492468      18.943643      1.5488251     -1.4901069      19832.254    
      5000   1.0920313      0.0023323615   0.0015913269   20.846505      19.224838      1.6216665     -1.2800742      18259.702    
      6000   0.97608959     0.0023323615  -0.00059223059  20.609915      19.160422      1.449493      -1.3755347      18415.495    
      7000   1.0359761      0.0023323615  -0.0021641218   20.432673      18.894249      1.5384245     -1.6248294      18524.664    
      8000   1.0113583      0.0023323615   0.00068731725  20.358312      18.856445      1.5018671     -1.6425454      18390.492    
      9000   0.97869369     0.0023323615   0.0031897622   20.146169      18.692808      1.4533601     -1.763516       18287.839    
     10000   0.89691443     0.0023323615  -0.0028172324   20.506004      19.174086      1.3319179     -1.5223518      18318.909    
     11000   1.0272214      0.0023323615   0.0014923349   20.523231      18.997807      1.5254237     -1.5513516      18424.715    
     12000   1.0164669      0.0023323615  -0.0018266106   20.409551      18.900098      1.5094534     -1.5772289      18380.644    
     13000   1.0069969      0.0023323615  -0.0017747032   20.392576      18.897185      1.4953904     -1.604412       18361.752    
     14000   1.0036906      0.0023323615   0.002388891    20.351416      18.860935      1.4904806     -1.628318       18307.542    
     15000   0.96246932     0.0023323615   0.00015599762  20.302526      18.873259      1.4292669     -1.6221709      18360.469    
     16000   1.0145852      0.0023323615   0.0027804881   20.333634      18.826975      1.506659      -1.6220913      18405.312    
     17000   0.91179491     0.0023323615  -0.0016963171   20.32316       18.969144      1.3540154     -1.5096316      18309.312    
     18000   1.029313       0.0023323615  -9.3149236e-07  20.618844      19.090315      1.5285297     -1.3648645      18328.853    
     19000   0.90277232     0.0023323615  -0.0014845873   20.432955      19.092338      1.3406169     -1.3463689      18509.703    
     20000   1.0262884      0.0023323615  -0.0014313926   20.451486      18.927447      1.5240383     -1.4916789      18395.681    
     21000   0.9353865      0.0023323615  -0.0034696229   20.35186       18.962811      1.3890489     -1.6423126      18480.717    
     22000   0.94216727     0.0023323615  -0.0034875088   20.607601      19.208482      1.3991184     -1.4354405      18487.679    
     23000   1.3335763      0.0023323615  -0.0045162535   20.914081      18.93372       1.9803608     -1.6021338      18363.397    
     24000   1.0689849      0.0023323615  -0.0026524682   20.583922      18.99648       1.5874426     -1.7557078      18429.028    
     25000   1.0814067      0.0023323615  -0.0041932961   20.449182      18.843293      1.6058889     -1.7265189      18381.446    
     26000   1.1854869      0.0023323615   0.00072362611  20.669641      18.909193      1.7604481     -1.5182105      18322.679    
     27000   0.82247759     0.0023323615   0.00046698781  20.059952      18.838573      1.2213792     -1.6285765      18283.796    
     28000   1.197559       0.0023323615   0.0012439563   20.829921      19.051546      1.7783752     -1.3545102      18229.492    
     29000   0.99269257     0.0023323615  -0.0019995338   20.329119      18.854971      1.4741485     -1.6156346      18423.405    
     30000   1.0578078      0.0023323615   0.0035450803   20.352057      18.781212      1.5708446     -1.5908925      18219.117    
     31000   1.090161       0.0023323615  -0.00031307774  20.636599      19.01771       1.6188891     -1.4997347      18270.699    
     32000   1.1824213      0.0023323615  -0.0015555218   20.879686      19.123791      1.7558956     -1.5740933      18325.898    
     33000   0.98077146     0.0023323615  -0.0043434105   20.452837      18.996391      1.4564456     -1.5126977      18440.826    
     34000   0.96307761     0.0023323615  -0.0021415603   20.599375      19.169205      1.4301702     -1.3858254      18434.678    
     35000   1.0062757      0.0023323615  -0.0013872269   20.57231       19.077991      1.4943194     -1.3313173      18569.599    
     36000   0.94122268     0.0023323615   0.0011563238   20.362825      18.965109      1.3977157     -1.6138159      18472.149    
     37000   1.1017338      0.0023323615  -0.00032024422  20.449954      18.81388       1.6360746     -1.7147187      18415.665    
     38000   0.94884593     0.0023323615   0.0023468236   20.046361      18.637325      1.4090362     -1.8510823      18468.683    
     39000   0.97355184     0.0023323615   0.0017922028   20.262379      18.816654      1.4457245     -1.7077893      18377.28     
     40000   1.0138212      0.0023323615  -0.0030887119   20.60164       19.096116      1.5055245     -1.6202407      18431.604    
     41000   0.97961014     0.0023323615   0.00052840367  20.213043      18.758322      1.4547211     -1.7379339      18443.978    
     42000   1.0833689      0.0023323615   0.0021686987   20.512521      18.903718      1.6088028     -1.64485        18398.892    
     43000   0.91175099     0.0023323615   0.0030350709   20.288579      18.934629      1.3539502     -1.5389355      18505.726    
     44000   1.2081265      0.0023323615   0.0039740595   20.642439      18.848371      1.7940678     -1.6407491      18556.262    
     45000   1.0550798      0.0023323615   0.0021688016   20.624104      19.057311      1.5667936     -1.6862053      18245.554    
     46000   0.86169172     0.0023323615   0.00047678155  20.432426      19.152814      1.2796122     -1.4991316      18210.64     
     47000   0.86786185     0.0023323615  -0.00074959637  20.485641      19.196866      1.2887748     -1.2994891      18400.198    
     48000   0.92597402     0.0023323615   0.0010491805   20.519517      19.144446      1.3750714     -1.3724839      18506.23     
     49000   0.97633481     0.0023323615  -0.0010036974   20.611325      19.161468      1.4498572     -1.5061865      18475.096    
     50000   1.0638911      0.0023323615  -0.0061669169   20.595661      19.015782      1.5798782     -1.5023022      18385.611    
     51000   0.87435315     0.0023323615  -0.002287351    20.300743      19.002329      1.2984144     -1.5070614      18472.402    
     52000   0.95526482     0.0023323615  -0.0025205676   20.601402      19.182834      1.4185683     -1.3438606      18508.025    
     53000   1.0273221      0.0023323615   0.0033701084   20.336691      18.811117      1.5255733     -1.6933911      18551.268    
     54000   0.82856099     0.0023323615   0.0012422328   20.272427      19.042014      1.2304131     -1.4837747      18524.107    
     55000   0.98776464     0.0023323615  -0.00078819516  20.33427       18.86744       1.4668305     -1.6477283      18522.351    
     56000   0.96923826     0.0023323615   0.0013001236   20.622114      19.182795      1.4393188     -1.3985062      18542.032    
     57000   1.0155499      0.0023323615  -0.0015788033   20.306057      18.797965      1.5080917     -1.662558       18343.735    
     58000   1.2120566      0.0023323615   0.0018120701   20.787096      18.987192      1.7999041     -1.5815133      18424.218    
     59000   0.98636182     0.0023323615  -0.0025473565   20.665026      19.200279      1.4647473     -1.3772262      18581.975    
     60000   0.99038262     0.0023323615  -0.0013486844   20.425945      18.955227      1.4707182     -1.5905907      18493.876    
     61000   1.2230437      0.0023323615  -0.001895816    20.789017      18.972797      1.8162199     -1.5527536      18477.169    
     62000   1.0223285      0.0023323615  -0.0014496701   20.442942      18.924785      1.5181578     -1.576966       18631.736    
     63000   0.92068577     0.0023323615  -0.0045231944   20.407033      19.039815      1.3672184     -1.553148       18507.153    
     64000   1.1638081      0.0023323615   0.00099420786  20.271206      18.542951      1.7282551     -1.8717323      18425.609    
     65000   0.95065044     0.0023323615  -0.0026932278   20.323389      18.911673      1.4117159     -1.4754597      18457.553    
     66000   0.96625151     0.0023323615   0.00037866746  20.38871       18.953827      1.4348835     -1.6255812      18445.934    
     67000   1.2131603      0.0023323615  -0.00071895088  20.73486       18.933316      1.8015431     -1.556173       18515.359    
     68000   0.99404483     0.0023323615   7.2620597e-05  20.366446      18.89029       1.4761566     -1.6255114      18559.768    
     69000   0.98062369     0.0023323615   0.00036855375  20.596172      19.139946      1.4562262     -1.3744357      18415.9      
     70000   0.90829819     0.0023323615   0.00022611725  20.639883      19.291061      1.3488228     -1.2317592      18559.94     
     71000   0.9166059      0.0023323615   0.0045519406   20.442148      19.080988      1.3611598     -1.4546339      18497.821    
     72000   0.89937129     0.0023323615  -0.0014585876   20.420591      19.085025      1.3355664     -1.511873       18515.132    
     73000   1.0278173      0.0023323615   0.003554593    20.61619       19.089881      1.5263086     -1.6335178      18481.298    
     74000   1.0138741      0.0023323615   0.0023546195   20.555592      19.049989      1.505603      -1.5233704      18587.785    
     75000   1.0761382      0.0023323615  -0.00081839259  20.780049      19.181983      1.5980652     -1.3417512      18531.33     
     76000   1.1092692      0.0023323615  -0.0040962943   20.930753      19.283488      1.6472647     -1.3345228      18615.949    
     77000   0.98103377     0.0023323615  -0.0018607638   20.296389      18.839554      1.4568352     -1.6521637      18539.945    
     78000   1.1757504      0.0023323615   0.00046595487  20.940036      19.194047      1.7459893     -1.375041       18502.398    
     79000   0.85497864     0.0023323615  -0.0011103953   20.358376      19.088733      1.2696433     -1.4597392      18344.989    
     80000   0.81905179     0.0023323615   0.00084152945  20.296785      19.080493      1.2162919     -1.5629537      18443.535    
     81000   0.97740604     0.0023323615   0.00067254138  20.217022      18.765574      1.451448      -1.7516998      18436.953    
     82000   1.0105949      0.0023323615   0.0035849096   20.134565      18.633832      1.5007334     -1.8058058      18480.33     
     83000   1.0093622      0.0023323615  -0.0018823294   20.520078      19.021175      1.4989029     -1.5640318      18412.941    
     84000   0.90110468     0.0023323615  -0.0007313361   20.21113       18.87299       1.3381404     -1.5903338      18532.774    
     85000   0.93183522     0.0023323615  -0.001934674    20.318324      18.934549      1.3837753     -1.635442       18501.424    
     86000   0.9873769      0.0023323615   0.0035754298   20.547294      19.081039      1.4662547     -1.4842082      18501.675    
     87000   1.0825335      0.0023323615   0.002338778    20.650391      19.042828      1.6075623     -1.4731497      18476.375    
     88000   1.0238141      0.0023323615  -0.0046227414   20.167996      18.647632      1.5203639     -1.9605462      18411.236    
     89000   0.91019494     0.0023323615   0.0052816784   20.243985      18.892346      1.3516395     -1.7084867      18423.773    
     90000   1.0449291      0.0023323615   0.00085193897  20.410454      18.858734      1.5517197     -1.6244378      18521.928    
     91000   1.0672473      0.0023323615  -0.0023709217   20.300334      18.715472      1.5848623     -1.7485552      18422.015    
     92000   1.0348309      0.0023323615  -0.0023781018   20.259713      18.722989      1.5367239     -1.8093743      18293.245    
     93000   1.1091783      0.0023323615  -0.0025376215   20.47697       18.82984       1.6471298     -1.8673936      18238.289    
     94000   0.90045929     0.0023323615   0.001661384    20.127619      18.790437      1.3371821     -1.7077071      18361.33     
     95000   1.0753931      0.0023323615   6.4211775e-05  20.314936      18.717977      1.5969588     -1.7037749      18520.842    
     96000   0.87222994     0.0023323615  -0.00076592996  20.276071      18.980809      1.2952615     -1.4077313      18482.475    
     97000   1.0545483      0.0023323615  -0.002247138    20.794504      19.228499      1.5660042     -1.324822       18620.478    
     98000   0.99704937     0.0023323615   0.0022236965   20.405782      18.925164      1.4806183     -1.5243982      18637.038    
     99000   0.92436923     0.0023323615   0.00438465     20.105373      18.732685      1.3726883     -1.8001251      18472.788    
    100000   0.89878034     0.0023323615  -0.0031256269   20.413865      19.079176      1.3346888     -1.5026408      18366.198    
    101000   1.1034111      0.0023323615  -0.0035352523   20.455487      18.816921      1.6385655     -1.6718059      18552.42     
    102000   0.96745318     0.0023323615  -0.003493507    20.319143      18.882475      1.436668      -1.7035774      18429.784    
    103000   1.0745859      0.0023323615  -0.0018054701   20.559642      18.963882      1.59576       -1.6350813      18438.574    
    104000   0.94635098     0.0023323615   0.004081515    20.136093      18.730762      1.4053312     -1.6965543      18267.803    
    105000   1.079725       0.0023323615   0.0021372614   20.5712        18.967808      1.6033916     -1.4710574      18505.438    
    106000   1.066426       0.0023323615  -0.00025939393  20.374836      18.791194      1.5836427     -1.6222382      18400.093    
    107000   0.90389558     0.0023323615   0.0039770429   20.15524       18.812955      1.3422849     -1.6320603      18440.161    
    108000   1.0358134      0.0023323615  -0.0043642614   20.61239       19.074207      1.5381829     -1.5631066      18419.72     
    109000   1.0731581      0.0023323615   0.0027542295   20.406919      18.813279      1.5936398     -1.7329144      18415.567    
    110000   1.0639599      0.0023323615   0.0007548971   20.540768      18.960787      1.5799805     -1.5629549      18420.943    
    111000   1.0988603      0.0023323615   0.001261383    20.341336      18.709529      1.6318076     -1.7246428      18352.95     
    112000   0.97771715     0.0023323615  -0.00043499265  20.202042      18.750132      1.45191       -1.67366        18362.124    
    113000   0.92939371     0.0023323615  -0.0022104608   20.166181      18.786031      1.3801497     -1.7431851      18457.99     
    114000   0.90676026     0.0023323615  -0.0018798086   20.343346      18.996807      1.346539      -1.5358189      18299.976    
    115000   0.84871622     0.0023323615   0.0030239115   20.17107       18.910726      1.2603436     -1.524611       18362.948    
    116000   1.0184682      0.0023323615   0.00058197063  20.57319       19.060764      1.5124253     -1.4858385      18376.759    
    117000   0.95358489     0.0023323615  -0.0039496322   20.525878      19.109804      1.4160736     -1.5168472      18450.705    
    118000   1.0701553      0.0023323615  -0.0011682804   20.735177      19.145997      1.5891806     -1.3188088      18242.929    
    119000   0.96307671     0.0023323615  -0.00070361722  20.590498      19.160329      1.4301689     -1.4829075      18286.224    
    120000   1.085949       0.0023323615   0.0022522519   20.775296      19.162662      1.6126342     -1.3963236      18360.921    
    121000   1.0083149      0.0023323615  -0.0036285548   20.684783      19.187436      1.4973476     -1.4078405      18415.903    
    122000   1.0521631      0.0023323615  -0.0012663372   20.445128      18.882666      1.5624622     -1.5922288      18495.062    
    123000   1.1041881      0.0023323615   0.0015319963   20.573661      18.933942      1.6397193     -1.5663673      18446.759    
    124000   1.1500382      0.0023323615  -0.0019512673   20.619069      18.911262      1.7078067     -1.6635257      18372.433    
    125000   1.0585442      0.0023323615   0.0019621753   20.360262      18.788323      1.5719381     -1.6629691      18373.041    
    126000   1.023151       0.0023323615   0.0041462574   20.380967      18.861588      1.5193792     -1.6392542      18272.495    
    127000   1.0934429      0.0023323615   0.0038520401   20.415173      18.791411      1.6237628     -1.6330206      18419.852    
    128000   1.0756657      0.0023323615   0.0048434366   20.55753       18.960166      1.5973636     -1.4452958      18331.011    
    129000   0.95018471     0.0023323615   0.0014140696   20.648477      19.237453      1.4110243     -1.3026095      18491.231    
    130000   0.96859885     0.0023323615  -0.00069109454  20.412603      18.974234      1.4383693     -1.5876335      18522.423    
    131000   0.95719038     0.0023323615   0.0014509279   20.146002      18.724575      1.4214277     -1.7406171      18438.591    
    132000   0.79971589     0.0023323615  -0.0037945227   20.023889      18.836311      1.1875781     -1.8320925      18372.304    
    133000   0.98558677     0.0023323615  -0.0034476112   20.418171      18.954575      1.4635964     -1.6141382      18318.361    
    134000   1.0197084      0.0023323615   0.00074967491  20.723629      19.209362      1.514267      -1.319689       18583.199    
    135000   0.98746763     0.0023323615   0.0006008016   20.418472      18.952082      1.4663894     -1.5023619      18456.351    
    136000   0.93576505     0.0023323615   0.00054843567  20.586751      19.19714       1.3896111     -1.5032929      18548.803    
    137000   1.0943404      0.0023323615  -0.0011901316   20.486722      18.861626      1.6250955     -1.5503955      18477.962    
    138000   0.98670852     0.0023323615  -0.0015294443   20.537982      19.07272       1.4652622     -1.5430112      18467.877    
    139000   0.98980026     0.0023323615   0.0014306514   20.77844       19.308587      1.4698534     -1.2341231      18659.772    
    140000   1.0764761      0.0023323615   0.0022252803   20.703764      19.105197      1.598567      -1.3269806      18789.686    
    141000   1.1034035      0.0023323615  -0.003174419    20.720061      19.081507      1.6385542     -1.4029632      18581.632    
    142000   0.90478008     0.0023323615   0.0021459284   20.266057      18.922459      1.3435984     -1.546014       18419.036    
    143000   1.0597052      0.0023323615   0.0030532688   20.588795      19.015132      1.5736623     -1.5312641      18460.553    
    144000   1.0137363      0.0023323615  -0.0009728439   20.467865      18.962466      1.5053985     -1.6207204      18414.371    
    145000   0.96589873     0.0023323615  -0.0012301353   20.468358      19.033999      1.4343596     -1.4904075      18508.979    
    146000   0.83130731     0.0023323615  -0.00097159298  20.297072      19.06258       1.2344913     -1.4986783      18449.832    
    147000   0.97456177     0.0023323615  -0.0022463684   20.600183      19.152959      1.4472242     -1.5004602      18358.547    
    148000   1.1439261      0.0023323615   0.00061564783  20.648877      18.950147      1.6987303     -1.5928287      18422.001    
    149000   1.0201128      0.0023323615  -0.00025691214  20.566934      19.052066      1.5148675     -1.4931467      18515.73     
    150000   0.95103724     0.0023323615  -0.0018749107   20.473072      19.060781      1.4122903     -1.4764645      18377.148    
    151000   1.0462475      0.0023323615  -0.0023794393   20.640217      19.08654       1.5536775     -1.3723007      18388.026    
    152000   1.0424773      0.0023323615  -0.00038738744  20.289374      18.741295      1.5480788     -1.7226019      18431.883    
    153000   0.97987471     0.0023323615  -0.00095154572  20.569077      19.113963      1.4551139     -1.4636063      18320.191    
    154000   0.98611903     0.0023323615   0.004264807    20.235256      18.770869      1.4643868     -1.7432177      18442.959    
    155000   1.1830974      0.0023323615   0.0022229428   20.519242      18.762342      1.7568996     -1.7443547      18266.597    
    156000   1.0345723      0.0023323615   0.00031662148  20.642595      19.106256      1.5363398     -1.3853006      18460.14     
    157000   1.0455951      0.0023323615  -4.9524538e-05  20.59437       19.041661      1.5527088     -1.4836907      18276.015    
    158000   1.0121534      0.0023323615   0.0007078596   20.523267      19.020219      1.5030478     -1.5680012      18173.785    
    159000   0.82477348     0.0023323615   0.00072927983  20.105999      18.881211      1.2247886     -1.6031789      18485.46     
    160000   1.0188672      0.0023323615  -0.0013187933   20.461121      18.948103      1.5130178     -1.5520321      18394.959    
    161000   1.052224       0.0023323615   0.00011860621  20.648951      19.086399      1.5625526     -1.3161946      18552.427    
    162000   1.0201304      0.0023323615   0.0011793082   20.681035      19.166141      1.5148936     -1.5055544      18607.089    
    163000   1.1099164      0.0023323615   0.0011109365   20.73793       19.089704      1.6482259     -1.4790048      18454.584    
    164000   0.98212291     0.0023323615  -0.00035512005  20.46394       19.005488      1.4584525     -1.4376377      18466.452    
    165000   1.0333861      0.0023323615  -0.0027326374   20.874908      19.34033       1.5345783     -1.2359472      18624.411    
    166000   1.0342358      0.0023323615   0.0023050141   20.467541      18.931701      1.5358402     -1.5486809      18632.553    
    167000   0.99981455     0.0023323615  -0.0019843927   20.770162      19.285438      1.4847246     -1.2599822      18470.535    
    168000   0.9719605      0.0023323615  -0.00022628497  20.508308      19.064946      1.4433613     -1.4161917      18451.094    
    169000   0.99483117     0.0023323615  -0.0015022014   20.639927      19.162603      1.4773243     -1.3960941      18403.068    
    170000   0.90737976     0.0023323615   0.00058059624  20.111061      18.763602      1.3474589     -1.6947136      18442.887    
    171000   1.1703353      0.0023323615   0.00083575461  20.760884      19.022936      1.7379479     -1.4127918      18385.292    
    172000   1.0587467      0.0023323615  -0.00025557396  20.58933       19.017091      1.5722388     -1.4438646      18329.83     
    173000   1.0395045      0.0023323615   0.00088325387  20.615654      19.07199       1.5436642     -1.6272661      18326.265    
    174000   1.0514461      0.0023323615  -0.0001385434   20.726838      19.165441      1.5613974     -1.4564935      18400.778    
    175000   1.2295444      0.0023323615   3.4094851e-05  21.151948      19.326074      1.8258735     -1.35133        18396.529    
    176000   1.0680889      0.0023323615   0.0011472459   20.606487      19.020375      1.586112      -1.4150078      18426.235    
    177000   0.87206724     0.0023323615  -0.0026441027   20.583508      19.288488      1.2950198     -1.2830189      18481.623    
    178000   0.9534074      0.0023323615  -0.00018790492  20.64411       19.2283        1.41581       -1.3458814      18450.446    
    179000   1.0362952      0.0023323615  -0.0038983276   20.450313      18.911414      1.5388984     -1.5268186      18290.081    
    180000   1.0085353      0.0023323615   0.0020150608   20.53149       19.033815      1.4976749     -1.4428812      18295.234    
    181000   0.99311113     0.0023323615  -0.0019841111   20.549978      19.075208      1.47477       -1.3172943      18441.449    
    182000   0.90094527     0.0023323615   0.0020418796   20.256718      18.918814      1.3379037     -1.5735062      18373.819    
    183000   1.0370085      0.0023323615  -0.00076290873  20.653212      19.113254      1.5399576     -1.4770879      18353.018    
    184000   1.1360615      0.0023323615   0.0012059462   20.590672      18.90362       1.6870513     -1.4882521      18410.794    
    185000   0.97400157     0.0023323615  -0.0014825078   20.392564      18.946172      1.4463923     -1.5894304      18410.248    
    186000   0.92571797     0.0023323615   0.0052085965   20.207044      18.832353      1.3746912     -1.6946771      18353.575    
    187000   0.93392456     0.0023323615  -0.0010918661   20.203207      18.816329      1.386878      -1.6266232      18366.529    
    188000   1.2422091      0.0023323615   0.0021556222   20.659943      18.815262      1.8446805     -1.664284       18366.243    
    189000   0.97869486     0.0023323615  -0.0020743933   20.390067      18.936705      1.4533619     -1.6403194      18595.147    
    190000   1.0379698      0.0023323615   0.0015632734   20.573844      19.032459      1.5413852     -1.4675675      18481.856    
    191000   0.91277713     0.0023323615  -0.0018209159   20.382492      19.027018      1.355474      -1.5033881      18628.256    
    192000   0.86757388     0.0023323615  -0.0031199056   20.088151      18.799803      1.2883472     -1.7150302      18405.546    
    193000   1.0872577      0.0023323615   0.0053110978   20.696934      19.082356      1.6145777     -1.4279709      18457.204    
    194000   0.9705748      0.0023323615  -0.0026544353   20.403089      18.961786      1.4413036     -1.5877772      18462.267    
    195000   1.0813991      0.0023323615   0.0022924261   20.323403      18.717525      1.6058776     -1.6917111      18494.65     
    196000   1.1045448      0.0023323615  -0.0071042028   20.922259      19.28201       1.640249      -1.3002873      18883.658    
    197000   0.83816136     0.0023323615  -0.0042185815   20.18369       18.939021      1.2446696     -1.6354882      18847.619    
    198000   0.9624226      0.0023323615  -0.0004127015   20.613672      19.184474      1.4291976     -1.3401345      18400.792    
    199000   0.91083751     0.0023323615  -0.0031541027   20.205366      18.852772      1.3525937     -1.554065       18383.968    
    200000   0.98443065     0.0023323615  -0.0011931449   20.388162      18.926283      1.4618795     -1.6355239      18419.869    
    201000   1.049327       0.0023323615   0.0017890925   20.442569      18.884319      1.5582506     -1.5474003      18499.672    
    202000   0.99150594     0.0023323615  -0.0022456311   20.541067      19.06868       1.4723863     -1.6453763      18498.506    
    203000   1.1186588      0.0023323615  -0.0018588141   20.519757      18.858549      1.6612083     -1.6579397      18579.083    
    204000   1.056115       0.0023323615   0.00055826413  20.732837      19.164506      1.5683307     -1.4017493      18385.011    
    205000   0.89915673     0.0023323615  -0.00029541675  20.520186      19.184938      1.3352477     -1.2352553      18456.307    
    206000   0.98017394     0.0023323615   0.0036193104   20.536634      19.081076      1.4555583     -1.4132922      18634.248    
    207000   1.0712484      0.0023323615   0.0015194694   20.787415      19.196611      1.5908039     -1.3739663      18513.586    
    208000   1.0411996      0.0023323615  -0.00025200618  20.602588      19.056407      1.5461814     -1.4710705      18428.507    
    209000   0.91915565     0.0023323615  -0.00048221015  20.274563      18.909617      1.3649461     -1.5170541      18482.232    
    210000   0.96079829     0.0023323615   0.0018640907   20.274023      18.847237      1.4267855     -1.5837502      18489.974    
    211000   1.0391106      0.0023323615   0.0037317706   20.398294      18.855215      1.5430792     -1.6539423      18501.078    
    212000   0.99305681     0.0023323615  -0.00086348197  20.292182      18.817493      1.4746894     -1.7035091      18409.86     
    213000   0.98732311     0.0023323615   0.0026219351   20.370123      18.903948      1.4661748     -1.5503442      18539.559    
    214000   1.0686369      0.0023323615  -0.0020095742   20.645134      19.058208      1.5869258     -1.4493179      18423.297    
    215000   0.92993454     0.0023323615  -0.0026865164   20.193995      18.813042      1.3809528     -1.6664175      18287.273    
    216000   1.0315331      0.0023323615   0.0022736222   20.767579      19.235753      1.5318266     -1.3002739      18567.875    
    217000   0.95003821     0.0023323615   0.0011706738   20.443921      19.033114      1.4108067     -1.4660116      18618.984    
    218000   1.1735161      0.0023323615  -0.00098011618  21.10038       19.357709      1.7426714     -1.1830641      18585.182    
    219000   1.0821723      0.0023323615  -0.0022575646   20.58335       18.976324      1.6070258     -1.5379612      18549.196    
    220000   0.91113114     0.0023323615  -7.309105e-05   20.385819      19.03279       1.3530297     -1.5633734      18479.03     
    221000   1.0329486      0.0023323615   0.00036962902  20.651319      19.11739       1.5339287     -1.4264094      18396.244    
    222000   0.94898333     0.0023323615   0.0015892545   20.588056      19.178816      1.4092403     -1.3275332      18405.617    
    223000   0.9484585      0.0023323615  -0.00088656151  20.470307      19.061846      1.4084609     -1.6206633      18370.221    
    224000   0.97761166     0.0023323615  -0.0042671685   20.513749      19.061996      1.4517533     -1.4607582      18305.568    
    225000   0.9794464      0.0023323615  -0.0029589611   20.327561      18.873083      1.4544779     -1.5477161      18389.011    
    226000   1.0423094      0.0023323615   0.0024816029   20.615061      19.067232      1.5478294     -1.3985301      18326.073    
    227000   1.0527141      0.0023323615   0.0014230405   20.810305      19.247025      1.5632805     -1.11429        19291.739    
    228000   0.96689136     0.0023323615   8.0054591e-05  20.637754      19.201921      1.4358337     -1.29856        20154.79     
    229000   1.0183869      0.0023323615  -0.0015537139   20.661894      19.14959       1.5123045     -1.3832136      19061.014    
    230000   0.89990702     0.0023323615  -0.0019255708   20.285628      18.949266      1.3363619     -1.4965441      18348.257    
    231000   1.0229835      0.0023323615   0.0024604942   20.765752      19.246621      1.5191305     -1.2695882      18328.607    
    232000   1.0578412      0.0023323615  -0.0032259386   20.913268      19.342374      1.5708942     -1.2450682      18543.627    
    233000   0.89823751     0.0023323615  -0.0019918639   20.434165      19.100283      1.3338827     -1.4288777      18237.236    
    234000   0.90754019     0.0023323615   0.0028612682   20.401251      19.053554      1.3476972     -1.3697041      18387.548    
    235000   1.0313405      0.0023323615   0.00075898932  20.779647      19.248106      1.5315406     -1.2998074      18328.611    
    236000   1.0048498      0.0023323615  -0.0012216147   20.598875      19.106673      1.4922019     -1.4692719      18213.205    
    237000   0.91982536     0.0023323615   0.0019396091   20.386255      19.020315      1.3659407     -1.5154736      18274.138    
    238000   0.96806267     0.0023323615  -0.00067184382  20.565432      19.127859      1.4375731     -1.4279314      18141.381    
    239000   0.98037182     0.0023323615  -0.00056729365  20.440211      18.984359      1.4558521     -1.4709725      18181.75     
    240000   1.1488544      0.0023323615  -0.0029648562   20.977721      19.271672      1.7060488     -1.2686259      18165.265    
    241000   0.94467453     0.0023323615   0.0028335652   20.578579      19.175738      1.4028417     -1.4914404      18318.973    
    242000   1.0750726      0.0023323615   0.0030009536   20.631189      19.034706      1.5964828     -1.4906694      18187.688    
    243000   0.94138164     0.0023323615  -0.0035161003   20.446324      19.048372      1.3979517     -1.381125       18209.52     
    244000   0.96777179     0.0023323615  -0.0037967142   20.460093      19.022952      1.4371411     -1.6075805      18182.665    
    245000   1.0297987      0.0023323615  -0.0012462004   20.525008      18.995757      1.5292511     -1.5843567      18303.873    
    246000   0.95766842     0.0023323615  -0.0019926033   20.625101      19.202963      1.4221376     -1.4583317      18234.927    
    247000   0.94265076     0.0023323615  -0.0025664819   20.548489      19.148652      1.3998364     -1.4099604      18254.075    
    248000   0.9610627      0.0023323615  -0.0042162433   20.505085      19.077907      1.4271781     -1.5236374      18185.577    
    249000   0.99862654     0.0023323615  -0.0019769041   20.598417      19.115457      1.4829604     -1.3905073      18063.427    
    250000   0.99476655     0.0023323615   0.00090191397  20.36687       18.889641      1.4772283     -1.5658157      18190.803    
    251000   0.975182       0.0023323615  -0.0018593507   20.447697      18.999552      1.4481453     -1.4827997      18130.622    
    252000   0.87592793     0.0023323615   0.0040337783   20.348363      19.04761       1.300753      -1.504855       18093.873    
    253000   1.0010988      0.0023323615   0.0041929652   20.597457      19.110826      1.4866318     -1.4968907      18215.831    
    254000   0.94909468     0.0023323615  -0.0019161935   20.144791      18.735385      1.4094056     -1.7884253      18259.168    
    255000   1.0674974      0.0023323615  -0.0021570407   20.612498      19.027264      1.5852337     -1.5860612      18219.409    
    256000   0.95326855     0.0023323615  -0.00088613691  20.597731      19.182127      1.4156038     -1.4483326      18256.129    
    257000   1.0370413      0.0023323615   0.00099012946  20.3908        18.850794      1.5400063     -1.6599784      17985.297    
    258000   1.0311049      0.0023323615  -0.00011304723  20.325312      18.794121      1.5311908     -1.8460999      18032.363    
    259000   1.0946525      0.0023323615   0.00053317683  20.496335      18.870776      1.6255589     -1.6228299      18105.926    
    260000   1.0220604      0.0023323615  -0.0016411077   20.539905      19.022146      1.5177596     -1.5480026      18116.061    
    261000   1.0047374      0.0023323615   0.0070521333   20.647026      19.154991      1.492035      -1.350529       18281.582    
    262000   0.91636729     0.0023323615  -0.0055039165   20.331584      18.970779      1.3608054     -1.5139978      18433.568    
    263000   0.92840383     0.0023323615   0.0027277873   20.585758      19.207079      1.3786797     -1.3881918      18361.651    
    264000   1.120849       0.0023323615   0.0037981297   20.53678       18.872319      1.6644608     -1.5669536      18492.704    
    265000   0.94373544     0.0023323615  -0.0024438306   20.447354      19.045907      1.4014471     -1.365622       18995.699    
    266000   0.93928137     0.0023323615  -0.0017738687   20.265501      18.870668      1.3948328     -1.6236176      18721.557    
    267000   0.96994806     0.0023323615   6.7536152e-06  20.499301      19.058928      1.4403729     -1.620564       18314.368    
    268000   0.96137049     0.0023323615  -0.0012921587   20.329448      18.901813      1.4276352     -1.6766358      18009.035    
    269000   0.98794043     0.0023323615  -0.00080367559  20.570592      19.1035        1.4670915     -1.5094468      18131.333    
    270000   0.9201995      0.0023323615   0.0012971081   20.324649      18.958153      1.3664963     -1.5023364      18164.409    
    271000   0.98984918     0.0023323615   0.0011587073   20.554883      19.084957      1.469926      -1.5198875      18101.319    
    272000   1.0651453      0.0023323615  -0.0045983573   20.263043      18.681303      1.5817408     -1.9082998      18195.131    
    273000   1.0691784      0.0023323615  -0.0052611742   20.538156      18.950426      1.58773       -1.6141297      18146.104    
    274000   1.0857016      0.0023323615   0.00049264925  20.518123      18.905856      1.6122669     -1.7630116      18152.503    
    275000   0.91928631     0.0023323615   0.00064719637  20.365765      19.000625      1.3651402     -1.484339       18103.689    
    276000   0.804875       0.0023323615   0.00034655152  20.180764      18.985525      1.1952394     -1.5319721      18364.431    
    277000   1.060057       0.0023323615  -0.0024770108   20.691942      19.117757      1.5741846     -1.3384808      18343.944    
    278000   1.0058896      0.0023323615  -0.0013938007   20.667254      19.173508      1.493746      -1.465218       18315.709    
    279000   1.0714685      0.0023323615  -0.00072537704  20.623769      19.032639      1.5911307     -1.5729282      18204.011    
    280000   0.93704461     0.0023323615   0.0014320601   20.615222      19.223711      1.3915112     -1.3797857      18357.004    
    281000   1.0042995      0.0023323615  -0.0017641026   20.510028      19.018643      1.4913848     -1.5432917      18186.103    
    282000   0.98679844     0.0023323615   0.0036523964   20.226739      18.761344      1.4653957     -1.7038004      18137.896    
    283000   1.0020504      0.0023323615  -0.00033411014  20.489772      19.001727      1.4880448     -1.4846517      18106.369    
    284000   1.0399781      0.0023323615  -0.00073386155  20.503575      18.959208      1.5443675     -1.5060692      18323.039    
    285000   1.0432951      0.0023323615  -0.0012707881   20.681119      19.131826      1.5492933     -1.3676847      18256.36     
    286000   1.0711936      0.0023323615  -0.00099822296  20.771775      19.181052      1.5907225     -1.4050971      18313.854    
    287000   0.98856982     0.0023323615  -0.0023355909   20.380503      18.912477      1.4680262     -1.4763597      18393.271    
    288000   1.1053987      0.0023323615   0.0020368734   20.775956      19.134438      1.6415171     -1.4656687      18192.859    
    289000   1.0404745      0.0023323615  -0.00034035117  20.508876      18.963771      1.5451047     -1.629966       18143.64     
    290000   1.0171038      0.0023323615  -0.0044528025   20.541638      19.031239      1.5103991     -1.5269379      18159.026    
    291000   1.0649321      0.0023323615   0.0006419757   20.377908      18.796484      1.5814242     -1.6657508      18074.417    
    292000   1.0543864      0.0023323615  -0.0018130719   20.47981       18.914047      1.5657638     -1.6385774      17987.372    
    293000   1.0289837      0.0023323615   0.00044197284  20.550422      19.022381      1.5280408     -1.5992329      18058.329    
    294000   0.99359875     0.0023323615  -0.0022773015   20.404644      18.92915       1.4754941     -1.6022283      18213.521    
    295000   1.129659       0.0023323615   0.001514983    20.786406      19.108862      1.6775436     -1.4057676      18184.169    
    296000   1.0264567      0.0023323615   0.00085365392  20.367796      18.843508      1.5242882     -1.6857223      18294.117    
    297000   0.96213839     0.0023323615   0.00076398699  20.257944      18.829168      1.4287755     -1.6278707      18115.432    
    298000   0.96731541     0.0023323615  -0.0014794752   20.756993      19.320529      1.4364634     -1.2568569      18369.886    
    299000   1.0211832      0.0023323615   0.00047703632  20.583871      19.067414      1.516457      -1.4472534      18265.279    
    300000   0.98709122     0.0023323615  -0.0031939223   20.317496      18.851665      1.4658305     -1.7200483      18144.772    
    301000   0.92753469     0.0023323615  -0.0037643893   20.275533      18.898144      1.377389      -1.6241674      18298.775    
    302000   0.9993816      0.0023323615  -0.0033614324   20.175153      18.691071      1.4840817     -1.6471955      18260.855    
    303000   1.0135799      0.0023323615  -0.0002484461   20.13348       18.628314      1.5051662     -1.8954346      18345.05     
    304000   0.88922029     0.0023323615  -0.0055047798   20.370109      19.049617      1.3204921     -1.52677        18292.749    
    305000   0.85655057     0.0023323615  -0.0020839294   20.346649      19.074671      1.2719776     -1.4693723      18492.385    
    306000   1.0743763      0.0023323615  -0.0033481972   20.337937      18.742488      1.5954488     -1.7690704      18278.92     
    307000   0.97178864     0.0023323615  -0.005475703    20.48732       19.044213      1.4431061     -1.4727619      18328.577    
    308000   1.0112358      0.0023323615  -0.0013594947   20.551395      19.04971       1.5016852     -1.5104314      18451.892    
    309000   0.90481651     0.0023323615   0.00036153047  20.464649      19.120997      1.3436525     -1.3857103      18314.93     
    310000   0.91922404     0.0023323615   0.00210497     20.43536       19.070313      1.3650477     -1.3449345      18469.189    
    311000   1.0426852      0.0023323615  -0.0017049182   20.454455      18.906067      1.5483875     -1.6829953      18478.674    
    312000   1.1251181      0.0023323615   0.0055428238   20.647421      18.97662       1.6708004     -1.6418066      18371.499    
    313000   1.0005923      0.0023323615   0.00099934354  20.525905      19.040026      1.4858796     -1.4560099      18536.833    
    314000   1.145231       0.0023323615  -0.0011968183   20.733281      19.032613      1.700668      -1.5300092      18410.261    
    315000   0.92028353     0.0023323615   0.0027934432   20.341566      18.974945      1.366621      -1.6191254      18246.234    
    316000   0.9784731      0.0023323615   0.0020802741   20.422142      18.969109      1.4530326     -1.5994036      18383.778    
    317000   1.0120319      0.0023323615  -0.0013422196   20.343766      18.840898      1.5028674     -1.6184252      18441.708    
    318000   0.78078392     0.0023323615   0.0019535333   20.028993      18.869529      1.1594641     -1.6508555      18518.055    
    319000   1.1643049      0.0023323615   0.00055573036  20.610413      18.881421      1.7289927     -1.6097949      18492.122    
    320000   0.8921628      0.0023323615   0.0029300466   20.38177       19.056908      1.3248618     -1.556215       18494.763    
    321000   1.0125713      0.0023323615   0.0033018307   20.430175      18.926506      1.5036684     -1.6401502      18279.429    
    322000   1.0481541      0.0023323615   0.0031856356   20.561094      19.004585      1.5565088     -1.4695713      18248.936    
    323000   1.0061434      0.0023323615  -0.00027811163  20.452694      18.958572      1.494123      -1.4991547      18422.681    
    324000   1.0837178      0.0023323615   0.0036430476   20.424026      18.814705      1.6093209     -1.5856048      18443.238    
    325000   0.97982751     0.0023323615   0.002330958    20.492615      19.037571      1.4550438     -1.5246319      18351.894    
    326000   1.0048863      0.0023323615   0.0030821769   20.526356      19.0341        1.4922562     -1.4529831      18669.866    
    327000   0.92403664     0.0023323615   0.00040347448  20.459875      19.087681      1.3721944     -1.4791444      18659.504    
    328000   1.0042059      0.0023323615   0.001444563    20.233975      18.74273       1.4912457     -1.7281135      18442.158    
    329000   1.0599501      0.0023323615  -0.0041702929   20.587933      19.013907      1.5740259     -1.5027776      18281.753    
    330000   1.0337093      0.0023323615  -0.0015669078   20.583549      19.04849       1.5350584     -1.4116437      18325.539    
    331000   1.0659173      0.0023323615  -0.00016036931  20.523511      18.940624      1.5828873     -1.5034839      18536.275    
    332000   1.1175599      0.0023323615  -0.00094118501  20.582485      18.922908      1.6595765     -1.6207052      18451.135    
    333000   1.0723836      0.0023323615  -0.00081184667  20.528771      18.936281      1.5924896     -1.5480542      18209.345    
    334000   1.1207508      0.0023323615  -0.003537721    20.812927      19.148612      1.664315      -1.3835226      18380.058    
    335000   1.0903791      0.0023323615  -0.0064107232   21.024625      19.405412      1.619213      -1.1341154      18380.898    
    336000   0.85102874     0.0023323615  -0.001349375    20.673435      19.409658      1.2637777     -1.1459457      18443.123    
    337000   0.96640973     0.0023323615  -0.0045842295   20.83299       19.397871      1.4351184     -1.2092373      18386.433    
    338000   0.89172247     0.0023323615   0.0019126828   20.558144      19.233936      1.3242079     -1.2396661      18377.107    
    339000   1.1463145      0.0023323615  -0.0011696769   20.649837      18.94756       1.702277      -1.4993825      18357.132    
    340000   1.0575156      0.0023323615  -0.0014338304   20.677303      19.106893      1.5704107     -1.4254076      18413.566    
    341000   0.88037458     0.0023323615   0.00051253065  20.568607      19.261251      1.3073563     -1.2321578      18668.113    
    342000   0.87958024     0.0023323615   0.0020918478   20.477994      19.171817      1.3061767     -1.3482709      18563.482    
    343000   0.93336213     0.0023323615   0.00031697308  20.13648       18.750437      1.3860428     -1.5849912      18526.593    
    344000   1.0806514      0.0023323615   0.00030256048  20.733152      19.128385      1.6047674     -1.3755983      18519.993    
    345000   1.0100657      0.0023323615  -0.00050740109  20.481265      18.981317      1.4999475     -1.4356611      18517.306    
    346000   1.197123       0.0023323615  -0.002780244    20.665008      18.88728       1.7777277     -1.7099591      18272.542    
    347000   1.0657509      0.0023323615   0.0018280764   20.682581      19.099941      1.5826401     -1.4527629      18416.114    
    348000   1.1380355      0.0023323615  -0.00056659046  20.656588      18.966605      1.6899827     -1.5547394      18323.641    
    349000   0.91754599     0.0023323615   0.0031508947   20.45448       19.091924      1.3625558     -1.4415402      18413.454    
    350000   1.1462213      0.0023323615  -0.00063605718  20.782594      19.080455      1.7021386     -1.4428765      18287.115    
    351000   0.94963138     0.0023323615   0.0069625349   20.069488      18.659286      1.4102026     -1.7080536      18271.897    
    352000   1.1512966      0.0023323615   0.00089389155  20.512828      18.803153      1.7096755     -1.561297       18123.504    
    353000   0.96585199     0.0023323615  -0.002594107    20.58789       19.1536        1.4342902     -1.3138524      18259.713    
    354000   1.0391772      0.0023323615   0.0044889617   20.577677      19.034499      1.5431781     -1.5728555      18304.047    
    355000   1.057264       0.0023323615  -0.0014408694   20.712407      19.14237       1.5700371     -1.4161718      18157.4      
    356000   1.0043287      0.0023323615   0.002732588    20.43473       18.943301      1.4914281     -1.6201789      18267.332    
    357000   0.90936815     0.0023323615   0.0030507313   20.391211      19.040799      1.3504117     -1.5765229      18076.46     
    358000   1.2221296      0.0023323615   6.6609411e-05  20.768129      18.953266      1.8148625     -1.5254826      18192.401    
    359000   0.96874032     0.0023323615   0.0020457765   20.490806      19.052226      1.4385794     -1.6428788      18335.968    
    360000   0.94904732     0.0023323615  -0.0025195111   20.671099      19.261763      1.4093353     -1.2907357      18496.22     
    361000   1.0437248      0.0023323615  -0.004347877    20.405654      18.855722      1.5499313     -1.6479949      18436.585    
    362000   1.0009265      0.0023323615   0.0038479314   20.184187      18.697812      1.4863758     -1.8078148      18420.148    
    363000   1.2446819      0.0023323615   0.0050204851   21.059904      19.211552      1.8483527     -1.5654051      18168.763    
    364000   0.91451959     0.0023323615   0.0011830719   20.318644      18.960582      1.3580616     -1.4302352      18353.581    
    365000   0.96201247     0.0023323615  -0.0025240142   20.548385      19.119797      1.4285885     -1.4152643      18405.362    
    366000   0.98276158     0.0023323615   0.0043021531   20.664031      19.20463       1.4594009     -1.4274922      18181.267    
    367000   0.90854524     0.0023323615  -0.0044933318   20.238013      18.888823      1.3491897     -1.5291444      18235.003    
    368000   1.0899795      0.0023323615   0.0013934825   20.627826      19.009207      1.6186195     -1.4705833      18183.145    
    369000   1.0657938      0.0023323615  -0.0041492934   20.649949      19.067245      1.5827038     -1.5093278      18131.86     
    370000   0.86287281     0.0023323615  -0.00052737349  20.057083      18.775717      1.2813661     -1.5817576      18008.492    
    371000   1.0092865      0.0023323615   0.0038444616   20.517194      19.018404      1.4987905     -1.5668132      18101.929    
    372000   0.89431465     0.0023323615  -0.0012387145   20.130262      18.802204      1.3280572     -1.7369309      18089.292    
    373000   0.81168726     0.0023323615   0.0029770906   20.042313      18.836957      1.2053556     -1.6363498      18159.884    
    374000   0.91441219     0.0023323615  -0.0029120613   20.466211      19.108309      1.3579021     -1.3471904      18219.396    
    375000   1.0071727      0.0023323615   0.0027090316   20.436295      18.940644      1.4956515     -1.5504147      18217.773    
    376000   1.0828695      0.0023323615  -0.0013786918   20.630355      19.022294      1.6080611     -1.5457699      18016.538    
    377000   1.0185543      0.0023323615  -0.0056849242   20.462893      18.95034       1.5125531     -1.5420481      18252.527    
    378000   1.0074179      0.0023323615   0.0038168149   20.358018      18.862003      1.4960156     -1.7088244      18352.363    
    379000   0.89474566     0.0023323615  -0.0012710504   20.39424       19.065543      1.3286973     -1.3714408      18345.809    
    380000   1.0039783      0.0023323615  -0.0061620102   20.864242      19.373334      1.4909078     -1.2184889      18489.638    
    381000   0.76820646     0.0023323615   0.00019616374  20.104789      18.964002      1.1407866     -1.5272305      18341.292    
    382000   0.9192457      0.0023323615  -0.001078136    20.460308      19.095228      1.3650799     -1.3176934      18320.547    
    383000   0.98867604     0.0023323615  -0.0024933278   20.639175      19.170991      1.4681839     -1.3632168      18571.381    
    384000   1.0013211      0.0023323615   0.0016042701   20.136994      18.650032      1.4869618     -1.8078146      18154.629    
    385000   1.0591332      0.0023323615   0.00035663466  20.643625      19.070812      1.5728127     -1.3647082      18178.754    
    386000   1.1162141      0.0023323615  -0.0033470181   20.584868      18.92729       1.6575779     -1.6489116      18238.715    
    387000   0.99986062     0.0023323615   0.0011254017   20.189374      18.704581      1.484793      -1.7994396      18182.337    
    388000   0.94679474     0.0023323615   0.0029480072   20.431958      19.025968      1.4059902     -1.5570728      18124.143    
    389000   1.099921       0.0023323615   0.0020375571   20.644572      19.011189      1.6333827     -1.6308958      18257.725    
    390000   1.0699587      0.0023323615   0.0040235642   20.63353       19.044641      1.5888886     -1.5717603      18136.437    
    391000   1.0015406      0.0023323615   0.0042584383   20.41656       18.929272      1.4872877     -1.5765518      17853.594    
    392000   0.91831782     0.0023323615   0.0018241888   20.275244      18.911542      1.363702      -1.5849536      18293.825    
    393000   0.98872721     0.0023323615  -0.0018183096   20.462493      18.994233      1.4682599     -1.4585972      18352.201    
    394000   1.0250478      0.0023323615  -0.0033107385   20.39132       18.869125      1.5221959     -1.7136505      18257.859    
    395000   0.99587152     0.0023323615  -0.0014392422   20.27399       18.795121      1.4788692     -1.6352094      18208.963    
    396000   0.99311133     0.0023323615  -0.00057212931  20.410197      18.935427      1.4747703     -1.5459713      18171.939    
    397000   1.028192       0.0023323615  -0.0055376126   20.588675      19.06181       1.5268651     -1.4558437      18342.121    
    398000   0.91680356     0.0023323615  -3.4966694e-06  20.331384      18.969931      1.3614533     -1.6049458      18070.55     
    399000   1.0143932      0.0023323615  -0.004898669    20.717955      19.211581      1.5063738     -1.4444476      18026.126    
    400000   1.1481864      0.0023323615   0.00053027757  20.538469      18.833413      1.7050568     -1.653997       18076.771    
    401000   0.95155275     0.0023323615   0.004885835    20.266021      18.852965      1.4130558     -1.5765213      18180.488    
    402000   0.94719704     0.0023323615   0.0015346397   20.286246      18.879658      1.4065876     -1.5942099      18140.788    
    403000   1.0210686      0.0023323615  -0.0014258291   20.576291      19.060004      1.5162868     -1.4398752      18135.564    
    404000   0.97652867     0.0023323615  -0.0039030838   20.524668      19.074523      1.4501451     -1.4993483      18261.573    
    405000   1.0236878      0.0023323615  -0.0013144798   20.667421      19.147244      1.5201764     -1.2997581      18451.356    
    406000   0.93248762     0.0023323615   0.0024015455   20.211833      18.827089      1.3847441     -1.7199734      18253.217    
    407000   0.97968871     0.0023323615   0.0033715547   20.552588      19.09775       1.4548377     -1.56923        18192.318    
    408000   0.96913531     0.0023323615  -0.0050558588   20.336891      18.897725      1.4391659     -1.6536491      18190.482    
    409000   1.0096183      0.0023323615  -0.0004183206   20.911677      19.412393      1.4992832     -1.1721316      18383.277    
    410000   1.0002679      0.0023323615  -0.001125657    20.463718      18.978321      1.4853978     -1.4818288      18450.664    
    411000   1.1481315      0.0023323615  -0.0023955307   20.686438      18.981463      1.7049753     -1.5548405      18315.753    
    412000   0.89912275     0.0023323615  -0.0025788504   20.311516      18.976319      1.3351973     -1.6027612      18351.567    
    413000   1.1505611      0.0023323615  -0.0067802198   20.643921      18.935338      1.7085832     -1.5688254      18188.572    
    414000   0.8598194      0.0023323615  -0.0012781399   20.262965      18.986133      1.2768318     -1.4621214      18327.221    
    415000   0.98266144     0.0023323615  -0.00023343829  20.465059      19.005807      1.4592522     -1.4939601      18187.651    
    416000   0.87051781     0.0023323615   0.00068574745  20.318007      19.025288      1.2927189     -1.5922126      18427.232    
    417000   0.95524658     0.0023323615  -0.00044875233  20.361106      18.942565      1.4185412     -1.655529       18287.725    
    418000   1.0188066      0.0023323615  -0.00050283181  20.601471      19.088543      1.5129277     -1.5213971      18261.54     
    419000   0.87595657     0.0023323615   0.0017938144   20.259736      18.958941      1.3007955     -1.6583081      18120.277    
    420000   0.96873697     0.0023323615  -0.00063817111  20.221088      18.782513      1.4385744     -1.7382048      18060.417    
    421000   1.0011453      0.0023323615   0.0013584687   20.58165       19.094949      1.4867008     -1.3743815      18204.037    
    422000   0.89711179     0.0023323615  -0.0038226612   20.37277       19.040559      1.332211      -1.3826791      18426.412    
    423000   0.97041072     0.0023323615   0.00094069827  20.588685      19.147625      1.4410599     -1.3592278      18426.004    
    424000   0.88330877     0.0023323615  -0.0025993579   20.162103      18.850389      1.3117135     -1.6112953      18317.185    
    425000   1.1118774      0.0023323615  -0.0033338109   20.5663        18.915162      1.6511379     -1.6308661      18203.427    
    426000   0.83195409     0.0023323615  -0.0015168941   20.413202      19.17775       1.2354518     -1.366025       18242.966    
    427000   0.91472964     0.0023323615   0.00053327777  20.264631      18.906257      1.3583735     -1.4941333      18274.419    
    428000   0.94587914     0.0023323615   0.0078512861   20.270967      18.866337      1.4046305     -1.5780954      18370.373    
    429000   0.88409426     0.0023323615  -0.005248023    20.227902      18.915022      1.31288       -1.6714752      18187.426    
    430000   1.0398382      0.0023323615  -0.00075772127  20.465854      18.921694      1.5441597     -1.5788697      18201.644    
    431000   1.1503333      0.0023323615   0.00052163528  20.738186      19.029941      1.7082449     -1.4898405      18275.45     
    432000   1.1459507      0.0023323615  -0.0018317402   20.829226      19.127489      1.7017369     -1.3249214      18346.119    
    433000   1.1926456      0.0023323615  -0.0024276744   20.563148      18.79207       1.7710788     -1.6670858      18183.181    
    434000   1.1914752      0.0023323615  -0.0057779321   20.682067      18.912726      1.7693406     -1.7187554      18121.59     
    435000   1.0852624      0.0023323615  -0.0021346967   20.68134       19.069726      1.6116146     -1.5151775      18249.226    
    436000   0.93169726     0.0023323615  -0.00042463441  20.573072      19.189502      1.3835704     -1.4174215      18390.878    
    437000   1.0960528      0.0023323615   0.00013489498  20.638597      19.010958      1.6276385     -1.3968072      18407.358    
    438000   1.0454498      0.0023323615  -0.00078737906  20.655677      19.103184      1.5524929     -1.4351252      18411.053    
    439000   1.0109681      0.0023323615   0.0042383775   20.227361      18.726073      1.5012876     -1.935132       18169.541    
    440000   1.1140284      0.0023323615  -0.00078145567  20.758802      19.10447       1.6543322     -1.4989714      18195.874    
    441000   1.0145911      0.0023323615   0.00015765496  20.504354      18.997686      1.5066678     -1.6202831      18320.281    
    442000   1.0830743      0.0023323615  -0.00048963807  20.651579      19.043214      1.6083654     -1.4660865      18190.525    
    443000   0.85300306     0.0023323615  -0.0018344111   20.309024      19.042314      1.2667095     -1.4738584      18095.825    
    444000   0.93568597     0.0023323615   0.0019830162   20.208091      18.818597      1.3894937     -1.7352061      18177.363    
    445000   0.94978411     0.0023323615   0.0027076138   20.526922      19.116493      1.4104294     -1.5477419      18239.289    
    446000   0.95248578     0.0023323615   0.00078176215  20.378878      18.964437      1.4144414     -1.5708779      18193.472    
    447000   0.82762015     0.0023323615  -0.00044273767  20.200113      18.971098      1.2290159     -1.6048305      18089.43     
    448000   1.0453481      0.0023323615  -0.0031759364   20.4887        18.936358      1.5523419     -1.5933208      18198.01     
    449000   0.98392475     0.0023323615  -0.0025556209   20.232747      18.771619      1.4611283     -1.7545898      18111.317    
    450000   0.94918498     0.0023323615   0.0036779095   20.208336      18.798797      1.4095397     -1.6917042      18059.838    
    451000   1.1156048      0.0023323615   0.003510274    20.613825      18.957152      1.6566731     -1.5151916      18254.964    
    452000   0.94210339     0.0023323615   0.0014059494   20.10156       18.702537      1.3990235     -1.6255278      18241.869    
    453000   1.0757185      0.0023323615  -0.00039324345  20.555095      18.957653      1.597442      -1.552973       18334.152    
    454000   0.85456319     0.0023323615  -0.0026070853   20.480183      19.211157      1.2690263     -1.4451756      18276.32     
    455000   0.96269192     0.0023323615  -0.0017353991   20.565675      19.136077      1.4295975     -1.4826322      18343.803    
    456000   0.99907618     0.0023323615   0.001905854    20.488032      19.004404      1.4836281     -1.4521852      18270.157    
    457000   1.0376691      0.0023323615  -0.00023350077  20.614732      19.073793      1.5409386     -1.4327061      18434.743    
    458000   0.94783257     0.0023323615  -0.0018779736   20.619764      19.212233      1.4075314     -1.2769351      18417.432    
    459000   0.92973993     0.0023323615   0.0049751909   20.678912      19.298248      1.3806638     -1.2823631      18518.175    
    460000   1.0117071      0.0023323615   0.0017802865   20.882074      19.379689      1.502385      -1.0715484      18523.904    
    461000   0.93197385     0.0023323615   0.00053511713  20.470025      19.086044      1.3839812     -1.3347119      18449.259    
    462000   1.1006022      0.0023323615   4.0167587e-05  20.638242      19.003848      1.6343942     -1.6231362      18415.322    
    463000   1.1487948      0.0023323615   0.00099619088  20.610404      18.904444      1.7059602     -1.6306653      18273.81     
    464000   0.96294958     0.0023323615   0.00094804041  20.516936      19.086956      1.4299801     -1.4843532      18297.058    
    465000   1.1658644      0.0023323615  -0.0029410673   20.484735      18.753427      1.7313086     -1.7007329      18326.854    
    466000   0.92509417     0.0023323615   0.0015448569   20.323644      18.949879      1.3737648     -1.6919703      18098.765    
    467000   1.0066634      0.0023323615   0.0023684005   20.59328       19.098384      1.4948951     -1.4482093      18113.102    
    468000   1.0623426      0.0023323615   0.0007098297   20.356893      18.779314      1.5775787     -1.7380066      18352.336    
    469000   1.1550683      0.0023323615  -0.0031004774   20.451607      18.73633       1.7152764     -1.6659623      18223.148    
    470000   1.0472869      0.0023323615  -0.0018161046   20.44838       18.893159      1.5552211     -1.6024267      18417.382    
    471000   1.0458619      0.0023323615   0.0057357196   20.182802      18.629697      1.5531049     -1.7563558      18552.386    
    472000   0.91514059     0.0023323615   0.00060870782  20.452675      19.093691      1.3589838     -1.5591421      18495.02     
    473000   0.96783368     0.0023323615   0.0014446551   20.441932      19.004699      1.437233      -1.4174749      18634.369    
    474000   0.98404685     0.0023323615  -0.0073263578   20.637712      19.176402      1.4613096     -1.3505194      18491.854    
    475000   1.1702534      0.0023323615   0.0011045846   20.861845      19.124019      1.7378263     -1.3154135      18598.103    
    476000   0.94525388     0.0023323615   0.00076652404  20.323028      18.919326      1.403702      -1.6086544      18230.374    
    477000   0.99607063     0.0023323615   0.0002673683   20.370948      18.891783      1.4791649     -1.6234297      18240.815    
    478000   0.92128648     0.0023323615  -0.0031198185   20.203476      18.835366      1.3681104     -1.6848699      18225.567    
    479000   0.99146756     0.0023323615  -0.0034224521   20.359085      18.886755      1.4723293     -1.5934309      18221.128    
    480000   0.94651132     0.0023323615  -0.00068987178  20.3035        18.89793       1.4055693     -1.5967339      18289.438    
    481000   0.89892273     0.0023323615   0.0021863073   20.325922      18.991022      1.3349003     -1.5314398      18268.526    
    482000   1.02169        0.0023323615  -0.002105473    20.60518       19.08797       1.5172097     -1.526433       18333.573    
    483000   1.0969433      0.0023323615  -0.002573998    20.586604      18.957644      1.6289607     -1.5626764      18329.136    
    484000   0.89582386     0.0023323615  -0.0018402447   20.37346       19.043161      1.3302984     -1.4160367      18244.526    
    485000   0.98128285     0.0023323615  -0.0018534299   20.255254      18.798049      1.457205      -1.6174868      18266.042    
    486000   1.0448206      0.0023323615   0.0024618185   20.337667      18.786109      1.5515586     -1.7084663      18019.019    
    487000   1.0620899      0.0023323615  -0.0012338162   20.429751      18.852547      1.5772036     -1.7380353      18288.113    
    488000   0.93258803     0.0023323615   0.003311364    20.622842      19.237948      1.3848932     -1.3823912      18207.614    
    489000   0.98183213     0.0023323615   0.00080194508  20.301473      18.843452      1.4580207     -1.5863107      18346.119    
    490000   1.0710407      0.0023323615   0.0029667328   20.469844      18.879348      1.5904954     -1.555352       18392.061    
    491000   1.0125683      0.0023323615  -0.0017505669   20.60813       19.104466      1.5036639     -1.4821167      18480.857    
    492000   0.96343363     0.0023323615  -0.0017916376   20.385902      18.955203      1.4306989     -1.5986548      18317.904    
    493000   0.93071103     0.0023323615  -0.0021849764   20.164622      18.782516      1.3821059     -1.7706791      18253.652    
    494000   1.0119768      0.0023323615  -0.0063866381   20.545202      19.042416      1.5027855     -1.5274209      18405.719    
    495000   1.1510502      0.0023323615  -0.0059182699   20.457454      18.748145      1.7093096     -1.6684475      18359.638    
    496000   0.94616322     0.0023323615   0.0052810396   20.297071      18.892019      1.4050524     -1.777652       18301.705    
    497000   0.89680597     0.0023323615   0.0014116598   20.281558      18.949801      1.3317569     -1.5132078      18314.133    
    498000   0.98136417     0.0023323615  -0.00035474793  20.603295      19.14597       1.4573258     -1.2684846      18341.922    
    499000   1.0911937      0.0023323615   0.0012517337   20.588605      18.968183      1.6204227     -1.4833889      18289.045    
    500000   0.9667077      0.0023323615  -0.0024088442   20.334044      18.898483      1.4355609     -1.6567884      18381.128    
    501000   0.97072886     0.0023323615   0.0036042844   20.248529      18.806997      1.4415324     -1.6290159      18239.799    
    502000   1.2115278      0.0023323615  -0.0021958402   20.663565      18.864447      1.7991188     -1.5783231      18284.757    
    503000   0.95221262     0.0023323615   0.00071748594  20.212225      18.798189      1.4140357     -1.7641762      18262.606    
    504000   1.1947006      0.0023323615   0.0032762085   20.344594      18.570464      1.7741303     -1.9431078      18139.733    
    505000   0.99572843     0.0023323615  -0.0039492526   20.589461      19.110804      1.4786567     -1.4067576      18299.299    
    506000   0.94841461     0.0023323615  -0.0023210888   20.224287      18.815892      1.4083957     -1.6794028      18189.527    
    507000   0.96927762     0.0023323615  -0.0045912309   20.201788      18.762411      1.4393773     -1.7799572      18156.542    
    508000   1.1057132      0.0023323615  -0.0022448176   20.737874      19.09589       1.6419841     -1.5727994      18252.45     
    509000   0.98219335     0.0023323615  -0.0010516804   20.082871      18.624314      1.4585571     -1.7883787      18242.799    
    510000   1.0062473      0.0023323615  -0.00037380342  20.169997      18.67572       1.4942773     -1.8014648      18226.725    
    511000   1.0168165      0.0023323615  -0.000939733    20.389691      18.879719      1.5099725     -1.6112584      18282.607    
    512000   1.1466744      0.0023323615   0.0010151069   20.321007      18.618195      1.7028115     -1.7859519      18242.386    
    513000   0.99297589     0.0023323615  -0.0013122616   20.520624      19.046055      1.4745692     -1.4601203      18214.03     
    514000   1.01294        0.0023323615  -0.00097043222  20.49015       18.985934      1.5042159     -1.4425743      18207.627    
    515000   1.1312591      0.0023323615  -0.00062122001  20.805882      19.125962      1.6799198     -1.3921936      18236.892    
    516000   0.94692197     0.0023323615  -0.0012762491   20.509777      19.103598      1.4061791     -1.4716332      18336.248    
    517000   1.054314       0.0023323615   0.00066941565  20.559593      18.993936      1.5656562     -1.4527065      18397.431    
    518000   0.89376593     0.0023323615  -0.0014601064   20.279547      18.952305      1.3272424     -1.4864965      18354.931    
    519000   0.92977249     0.0023323615   0.00010105988  20.505243      19.124531      1.3807121     -1.4518061      18420.032    
    520000   1.0531312      0.0023323615   0.00011003737  20.486155      18.922255      1.5638998     -1.5357509      18484.779    
    521000   1.0662382      0.0023323615   0.0020538004   20.477518      18.894155      1.5833638     -1.6067687      18387.341    
    522000   0.94456326     0.0023323615   0.0010299816   20.853569      19.450893      1.4026764     -1.2634145      18244.106    
    523000   0.90903148     0.0023323615   0.0024510258   20.44405       19.094138      1.3499118     -1.3822079      18448.273    
    524000   0.96385599     0.0023323615   0.0033630296   20.500074      19.068748      1.4313261     -1.505          18519.003    
    525000   0.95634986     0.0023323615  -0.00023584902  20.630999      19.21082       1.4201795     -1.2705841      18577.824    
    526000   1.0302522      0.0023323615  -0.00083013469  20.502615      18.97269       1.5299246     -1.4737376      18565.039    
    527000   1.0197831      0.0023323615   0.00052692839  20.466419      18.952042      1.5143779     -1.5090843      18471.421    
    528000   1.0112712      0.0023323615  -0.00080126908  20.453753      18.952015      1.5017377     -1.6652142      18280.246    
    529000   1.113837       0.0023323615   0.0034554907   20.570865      18.916818      1.6540479     -1.624107       18350.112    
    530000   0.94718634     0.0023323615  -0.0026764154   20.393831      18.987259      1.4065717     -1.5352421      18427.647    
    531000   0.95422876     0.0023323615  -0.0024428078   20.363417      18.946387      1.4170297     -1.5074864      18278.462    
    532000   1.0666177      0.0023323615   0.00016698896  20.835768      19.25184       1.5839272     -1.2910015      18244.71     
    533000   1.0955823      0.0023323615   0.00032684741  20.60171       18.97477       1.6269397     -1.5363473      18458.546    
    534000   0.92212807     0.0023323615   0.0019504561   20.426461      19.057101      1.3693602     -1.5150499      18200.419    
    535000   0.97670389     0.0023323615  -0.0035964863   20.356166      18.905761      1.4504053     -1.4993543      18288.992    
    536000   0.85711        0.0023323615  -0.0004471036   19.928997      18.656189      1.2728083     -1.7773346      18150.427    
    537000   0.98293879     0.0023323615   0.0027421921   20.264743      18.805079      1.4596641     -1.7557227      18120.208    
    538000   1.0640299      0.0023323615   7.5406417e-05  20.365155      18.785071      1.5800843     -1.71463        18224.822    
    539000   1.1159269      0.0023323615  -0.0014356667   20.756322      19.09917       1.6571514     -1.4738061      18301.127    
    540000   0.97034977     0.0023323615   0.002805873    20.276003      18.835034      1.4409694     -1.5682221      18048.787    
    541000   0.83239103     0.0023323615  -0.0027518831   20.268529      19.032429      1.2361007     -1.5341198      18128.992    
    542000   0.99877712     0.0023323615   0.0016486584   20.463888      18.980704      1.483184      -1.4740762      18281.579    
    543000   1.0359372      0.0023323615  -0.0016512597   20.549501      19.011134      1.5383667     -1.5175899      18318.119    
    544000   0.95638887     0.0023323615  -0.00022774493  20.261816      18.841578      1.4202375     -1.5432921      18286.696    
    545000   0.95542312     0.0023323615  -0.00044342532  20.507676      19.088873      1.4188033     -1.556839       18159.911    
    546000   0.96636502     0.0023323615  -0.0026912604   20.263366      18.828314      1.435052      -1.7294077      18196.763    
    547000   1.0889838      0.0023323615   0.0045283846   20.413518      18.796377      1.617141      -1.5936573      18158.811    
    548000   0.95536344     0.0023323615  -0.0024298472   20.263732      18.845017      1.4187147     -1.5772328      18089.433    
    549000   1.0026822      0.0023323615   0.0029346375   20.411495      18.922512      1.4889831     -1.5048892      18107.043    
    550000   1.0002436      0.0023323615  -4.5186462e-05  20.234533      18.749171      1.4853618     -1.6527717      18242.022    
    551000   0.98213107     0.0023323615  -0.0020538317   20.45066       18.992196      1.4584646     -1.5382222      18320.792    
    552000   0.94815019     0.0023323615  -0.0016264708   20.274755      18.866752      1.408003      -1.5964032      18182.019    
    553000   1.023568       0.0023323615  -0.00032845598  20.50158       18.981582      1.5199984     -1.4222942      18348.068    
    554000   0.99199451     0.0023323615  -0.00044210461  20.443965      18.970854      1.4731118     -1.5594602      18449.143    
    555000   1.0235491      0.0023323615  -0.0012242032   20.62353       19.10356       1.5199705     -1.4534886      18232.778    
    556000   1.0258809      0.0023323615   0.00023452334  20.603484      19.080051      1.5234331     -1.3875915      18334.112    
    557000   0.94260546     0.0023323615  -0.0038030435   20.59335       19.193581      1.3997691     -1.2629745      18248.823    
    558000   1.0417642      0.0023323615   0.0017963053   20.469761      18.922741      1.5470198     -1.7142595      18259.312    
    559000   0.96005771     0.0023323615   0.0042852867   19.960349      18.534663      1.4256857     -1.9471596      18245.023    
    560000   1.0094098      0.0023323615  -0.001278779    20.476143      18.977169      1.4989735     -1.4470967      18459.908    
    561000   1.0248824      0.0023323615   0.0022442914   20.437465      18.915514      1.5219504     -1.5357793      18406.167    
    562000   0.95813511     0.0023323615  -0.0014909999   20.686136      19.263305      1.4228306     -1.4379081      18258.67     
    563000   1.0116172      0.0023323615  -0.0013400645   20.583768      19.081516      1.5022515     -1.4714494      18379.479    
    564000   1.0151807      0.0023323615   0.0014133378   20.736938      19.229395      1.5075433     -1.4258773      18273.68     
    565000   0.96454666     0.0023323615  -0.0040734094   20.721518      19.289166      1.4323518     -1.3261032      18331.018    
    566000   0.90528202     0.0023323615  -0.0010300824   20.494296      19.149953      1.3443438     -1.4073112      18221.807    
    567000   0.91285081     0.0023323615  -0.0010809309   20.427933      19.07235       1.3555835     -1.4331765      18275.885    
    568000   0.94107953     0.0023323615  -0.0016070035   20.426221      19.028718      1.3975031     -1.5354011      18332.751    
    569000   1.1128106      0.0023323615  -0.002731248    20.942718      19.290194      1.6525238     -1.1890395      18516.581    
    570000   1.1779687      0.0023323615  -0.0006634331   20.828069      19.078786      1.7492835     -1.2906225      18454.822    
    571000   0.97207972     0.0023323615  -0.00039182201  20.606224      19.162686      1.4435384     -1.2984723      18389.903    
    572000   0.84755454     0.0023323615   0.0007498561   19.973002      18.714384      1.2586185     -1.627322       18366.797    
    573000   1.0111173      0.0023323615   0.0012955418   20.419109      18.9176        1.5015092     -1.4963716      18401.959    
    574000   1.1308498      0.0023323615  -0.0027431537   20.498059      18.818747      1.679312      -1.7220539      18341.494    
    575000   0.96869639     0.0023323615   0.0013433513   20.362294      18.92378       1.4385141     -1.6333068      18118.507    
    576000   1.0901269      0.0023323615   0.00036316127  20.491426      18.872588      1.6188385     -1.6677362      18128.761    
    577000   0.87551119     0.0023323615  -0.00069639949  20.077086      18.776952      1.3001341     -1.6655152      18123.616    
    578000   0.95532469     0.0023323615   0.00024888645  20.05708       18.638423      1.4186572     -1.789292       18087.119    
    579000   1.2152646      0.0023323615   0.0021679835   20.50555       18.700882      1.804668      -1.8677161      18084.642    
    580000   0.87623403     0.0023323615  -0.0013729931   20.173913      18.872706      1.3012075     -1.5844065      18105.177    
    581000   0.98513625     0.0023323615  -0.0041940091   20.25217       18.789243      1.4629273     -1.6899433      18132.216    
    582000   1.2090803      0.0023323615   0.0030844297   20.479712      18.684228      1.7954843     -1.7500366      18165.824    
    583000   0.91690461     0.0023323615  -0.00043238689  20.224241      18.862637      1.3616033     -1.5320974      18184.761    
    584000   0.91753763     0.0023323615   0.00041116628  20.47451       19.111967      1.3625434     -1.3926146      18232.742    
    585000   0.97429633     0.0023323615  -0.0051164715   20.441222      18.994392      1.4468301     -1.4293498      18369.9      
    586000   0.89153932     0.0023323615   0.0016012473   20.405564      19.081628      1.3239359     -1.4523902      18325.538    
    587000   1.0302686      0.0023323615   0.0045592555   20.619342      19.089393      1.5299489     -1.3917945      18127.112    
    588000   0.94899512     0.0023323615   0.00080634093  20.538         19.128742      1.4092578     -1.3685031      18222.23     
    589000   1.2161386      0.0023323615   0.002740297    20.859354      19.053388      1.8059658     -1.4026447      18274.837    
    590000   1.0420546      0.0023323615   0.001024328    20.659654      19.112203      1.5474511     -1.4309051      18121.895    
    591000   1.0126259      0.0023323615   0.002846753    20.679431      19.175682      1.5037494     -1.3303061      18288.539    
    592000   1.11553        0.0023323615  -0.0013254807   20.677214      19.020652      1.6565621     -1.4911316      18339.303    
    593000   0.9571715      0.0023323615   0.0011237769   20.143542      18.722142      1.4213997     -1.7066946      18331.829    
    594000   1.2409486      0.0023323615   0.0025963574   20.839616      18.996807      1.8428087     -1.4357044      18512.968    
    595000   0.91418695     0.0023323615  -0.0026703942   20.61533       19.257762      1.3575676     -1.3754756      18585.601    
    596000   0.92897366     0.0023323615  -0.0021168221   20.331141      18.951615      1.3795259     -1.5432029      18441.109    
    597000   0.81118349     0.0023323615  -0.0027446749   20.62518       19.420573      1.2046075     -1.1869837      18503.863    
    598000   0.95122224     0.0023323615   0.0024463879   20.629724      19.217159      1.412565      -1.2728746      18859.167    
    599000   1.0644831      0.0023323615   0.0012274137   20.637775      19.057018      1.5807574     -1.5350168      18431.533    
    600000   0.89456214     0.0023323615  -0.0075778249   20.31306       18.984635      1.3284248     -1.6110362      18173.345    
    601000   0.99983242     0.0023323615   0.0027615597   20.28694       18.802189      1.4847511     -1.633677       18006.163    
    602000   0.88721653     0.0023323615  -0.00073037005  20.35124       19.033723      1.3175166     -1.5115185      18105.387    
    603000   0.8674897      0.0023323615  -0.0014842599   20.032285      18.744063      1.2882222     -1.6468876      18248.732    
    604000   0.88899687     0.0023323615   0.00026721079  20.123092      18.802931      1.3201603     -1.6425501      18304.259    
    605000   0.89165702     0.0023323615  -0.0014883485   20.329269      19.005158      1.3241107     -1.4808933      18260.755    
    606000   0.91160218     0.0023323615  -0.00028712281  20.269605      18.915876      1.3537292     -1.5077117      18406.245    
    607000   1.0710179      0.0023323615  -0.0027389203   20.663369      19.072908      1.5904616     -1.41           18404.215    
    608000   0.87973572     0.0023323615  -0.0036464766   20.273262      18.966854      1.3064075     -1.543319       18337.474    
    609000   1.1100264      0.0023323615  -0.0010540705   21.00853       19.360141      1.6483892     -1.3227303      18233.038    
    610000   1.0161628      0.0023323615   0.002794707    20.454882      18.945881      1.5090017     -1.4686091      18388.619    
    611000   1.0511772      0.0023323615   0.00013416842  20.655284      19.094286      1.5609981     -1.4650758      18430.188    
    612000   0.919813       0.0023323615   0.00052001043  20.451435      19.085513      1.3659223     -1.3839017      18264.761    
    613000   0.91982937     0.0023323615  -0.0047372622   20.43388       19.067934      1.3659466     -1.5939103      18159.984    
    614000   1.0117067      0.0023323615  -0.00069525526  20.65355       19.151165      1.5023845     -1.4284493      18215.163    
    615000   1.1071481      0.0023323615   0.001288102    20.694137      19.050022      1.644115      -1.5879139      18244.033    
    616000   1.0322134      0.0023323615   0.0026848412   20.510271      18.977434      1.532837      -1.5817014      18391.027    
    617000   0.94892642     0.0023323615  -0.0024395904   20.448496      19.03934       1.4091557     -1.5562899      18192.584    
    618000   1.0978628      0.0023323615  -0.0022418173   20.323433      18.693107      1.6303263     -1.7602475      18203.695    
    619000   0.93234061     0.0023323615  -0.0028295418   20.209741      18.825215      1.3845258     -1.8117562      18218.884    
    620000   1.0779508      0.0023323615   0.0014845959   20.61173       19.010973      1.600757      -1.4791591      18248.045    
    621000   1.0442477      0.0023323615   0.002034441    20.577645      19.026937      1.5507078     -1.5244455      18335.988    
    622000   0.94423511     0.0023323615   0.00098200014  20.012281      18.610092      1.4021891     -1.8969092      18226.446    
    623000   0.95798865     0.0023323615   0.00024579441  20.403182      18.980568      1.4226131     -1.5135925      18247.442    
    624000   1.0165705      0.0023323615  -0.0035388583   20.440945      18.931338      1.5096071     -1.4614876      18118.191    
    625000   0.82772353     0.0023323615  -0.0030510208   20.333555      19.104385      1.2291694     -1.3530922      18355.947    
    626000   0.98633046     0.0023323615   0.001903991    20.406441      18.94174       1.4647007     -1.5851556      18276.694    
    627000   1.0870943      0.0023323615   0.0022265587   20.462662      18.848327      1.614335      -1.6001716      18234.551    
    628000   0.93519107     0.0023323615  -0.00026776072  20.332335      18.943577      1.3887587     -1.477054       18313.434    
    629000   1.0965867      0.0023323615  -0.00070918945  21.02961       19.401179      1.6284313     -1.2822686      18317.245    
    630000   1.1234776      0.0023323615   0.00055219429  20.551062      18.882698      1.6683642     -1.637897       18386.701    
    631000   1.0917129      0.0023323615   0.0026822418   20.543637      18.922443      1.6211937     -1.6296485      11992.156    
    632000   0.7640845      0.0023323615   0.0018512822   20.0016        18.866935      1.1346655     -1.6142379      18306.367    
    633000   1.0397281      0.0023323615  -0.0026485354   20.776337      19.232341      1.5439962     -1.4449102      18293.795    
    634000   0.99103177     0.0023323615  -0.0038584236   20.380397      18.908715      1.4716822     -1.6014561      18355.883    
    635000   0.85862913     0.0023323615  -0.0013418138   20.434684      19.15962       1.2750643     -1.3639922      18205.259    
    636000   1.1610707      0.0023323615   0.00076396811  20.648707      18.924517      1.7241899     -1.5906019      18218.977    
    637000   1.0182501      0.0023323615  -0.00039449948  20.414641      18.902539      1.5121014     -1.6961006      18309.326    
    638000   0.94018823     0.0023323615   0.0030115089   20.425264      19.029084      1.3961795     -1.5212265      18363.323    
    639000   0.93758056     0.0023323615  -0.0021308796   20.145977      18.75367       1.3923071     -1.7289618      18290.335    
    640000   1.0480098      0.0023323615   0.0016223076   20.743529      19.187234      1.5562945     -1.3342211      18403.089    
    641000   1.0611734      0.0023323615  -0.0012625655   20.842654      19.266812      1.5758425     -1.3798909      18502.224    
    642000   0.98711508     0.0023323615   0.0073254517   20.673407      19.207541      1.4658659     -1.200678       18436.142    
    643000   1.0100714      0.0023323615   0.0026647575   20.803075      19.303119      1.499956      -1.2586163      18678.636    
    644000   0.97350064     0.0023323615   0.0047263856   20.423153      18.977505      1.4456484     -1.3630641      20022.934    
    645000   1.0339079      0.0023323615   0.0026456675   20.309522      18.774169      1.5353533     -1.7479721      19516.284    
    646000   1.0247669      0.0023323615  -0.00068628243  20.451557      18.929778      1.5217789     -1.5974623      19770.662    
    647000   0.956155       0.0023323615  -0.0023679848   20.385104      18.965214      1.4198902     -1.5998106      19711.553    
    648000   1.1311528      0.0023323615   0.0023529131   20.574118      18.894356      1.679762      -1.6944014      19607.283    
    649000   0.93899872     0.0023323615   0.00014794147  20.31236       18.917947      1.3944131     -1.5809456      19805.334    
    650000   0.93396728     0.0023323615  -0.0016864661   20.842893      19.455952      1.3869414     -1.2692795      19926.808    
    651000   0.92577896     0.0023323615  -0.0019302746   20.619023      19.244241      1.3747818     -1.3369752      19796.123    
    652000   0.90258651     0.0023323615   0.00031987165  20.731046      19.390705      1.340341      -1.2380016      20084.247    
    653000   0.98421227     0.0023323615  -0.00069732302  20.311139      18.849584      1.4615552     -1.6090229      19892.476    
    654000   0.83785711     0.0023323615   0.0013150241   20.219936      18.975718      1.2442178     -1.535778       19884.91     
    655000   0.88618346     0.0023323615  -0.0013445303   20.420911      19.104928      1.3159824     -1.5347681      19925.941    
    656000   1.0385194      0.0023323615  -0.00078438896  20.513177      18.970975      1.5422013     -1.5477482      19814.719    
    657000   0.98514604     0.0023323615  -0.00089647776  20.393141      18.930199      1.4629419     -1.5827071      19843.342    
    658000   1.0157381      0.0023323615  -0.00036260086  20.504941      18.99657       1.5083711     -1.5251469      19761.299    
    659000   0.98923082     0.0023323615   0.00021643865  20.177979      18.708971      1.4690078     -1.8569814      19773.118    
    660000   0.79752986     0.0023323615  -0.0031274472   20.030939      18.846607      1.1843318     -1.6798057      19893.958    
    661000   0.94533805     0.0023323615  -0.00052414163  20.476844      19.073017      1.403827      -1.435467       19907.699    
    662000   1.048985       0.0023323615   0.0033820679   20.792134      19.234391      1.5577427     -1.3487384      20047.559    
    663000   1.1086004      0.0023323615   0.0021763471   20.651301      19.005029      1.6462716     -1.4148802      19933.772    
    664000   0.85602051     0.0023323615  -0.00036056154  20.361992      19.090801      1.2711905     -1.4768858      19540.11     
    665000   1.1100871      0.0023323615   0.0034697571   20.516463      18.867984      1.6484793     -1.583038       19831.214    
    666000   0.89162063     0.0023323615   0.00053227996  20.362136      19.038079      1.3240566     -1.4175208      19843.018    
    667000   1.077261       0.0023323615   0.00052936428  20.487449      18.887716      1.5997326     -1.6327725      19751.816    
    668000   0.88309221     0.0023323615   0.0026952026   20.224092      18.9127        1.3113919     -1.5487901      19784.139    
    669000   0.96226719     0.0023323615  -0.0018292778   20.201542      18.772575      1.4289668     -1.6708108      19761.072    
    670000   1.0440824      0.0023323615  -0.0029750018   20.665131      19.114669      1.5504624     -1.4602485      19571.816    
    671000   0.9712926      0.0023323615  -3.2855392e-05  20.521727      19.079358      1.4423695     -1.6309009      19652.734    
    672000   1.0442708      0.0023323615   0.0032885219   20.31323       18.762488      1.5507421     -1.8207428      19639.625    
    673000   0.79560687     0.0023323615   0.0023714287   20.490847      19.309371      1.1814762     -1.2876038      19676.312    
    674000   0.92067231     0.0023323615  -0.00075269681  20.261078      18.893879      1.3671984     -1.592346       19897.536    
    675000   1.0084629      0.0023323615  -0.0033464819   20.786194      19.288626      1.4975674     -1.2759387      19825.625    
    676000   0.89432109     0.0023323615   0.00030005156  20.486541      19.158474      1.3280668     -1.4288837      19811.804    
    677000   1.0853868      0.0023323615  -0.0016106694   20.73022       19.11842       1.6117994     -1.43855        19877.259    
    678000   1.0514344      0.0023323615   0.0022210998   20.567647      19.006267      1.56138       -1.5087864      19866.857    
    679000   0.99794781     0.0023323615   0.0024724589   20.190252      18.7083        1.4819525     -1.7596305      19643.05     
    680000   1.0136336      0.0023323615   0.0032214705   20.358094      18.852848      1.5052459     -1.5852858      19551.156    
    681000   0.92789506     0.0023323615  -0.0017796682   20.257319      18.879395      1.3779242     -1.6539997      19476.009    
    682000   0.93637871     0.0023323615   7.8554435e-05  20.545229      19.154707      1.3905224     -1.322812       19729.995    
    683000   1.2273784      0.0023323615   0.0029007259   20.653819      18.831162      1.822657      -1.6695544      19681.644    
    684000   0.94566904     0.0023323615   0.0070624743   20.429428      19.02511       1.4043185     -1.5777908      19624.666    
    685000   1.0377307      0.0023323615  -0.0031079713   20.60845       19.067419      1.54103       -1.5885535      19545.781    
    686000   0.95198811     0.0023323615  -0.00023980878  20.465077      19.051375      1.4137023     -1.4334741      19639.536    
    687000   1.1086844      0.0023323615  -0.00086963789  20.88985       19.243454      1.6463964     -1.2176079      19790.549    
    688000   1.1135811      0.0023323615  -0.00076163509  20.858125      19.204457      1.6536679     -1.4444355      19715.793    
    689000   1.0169099      0.0023323615   0.0013787426   20.703639      19.193527      1.5101112     -1.3688738      19580.762    
    690000   1.0007388      0.0023323615  -0.00023352557  20.681837      19.19574       1.4860971     -1.2568394      19843.925    
    691000   0.97834123     0.0023323615   0.00037982251  20.404619      18.951783      1.4528367     -1.4704129      20071.873    
    692000   0.8802503      0.0023323615   0.004796751    20.280108      18.972936      1.3071717     -1.5658287      19887.632    
    693000   0.89527988     0.0023323615   0.0031869185   20.231156      18.901666      1.3294906     -1.66629        19493.838    
    694000   0.96418831     0.0023323615   0.0034514827   20.405676      18.973857      1.4318196     -1.521473       19564.439    
    695000   1.0349766      0.0023323615   0.0046687689   20.737593      19.200653      1.5369403     -1.3924582      19583.697    
    696000   1.1257987      0.0023323615  -0.00050205962  20.770132      19.098321      1.6718111     -1.4840035      19825.251    
    697000   1.1139145      0.0023323615  -0.00030540759  20.80576       19.151597      1.654163      -1.4575278      19782.355    
    698000   1.0335717      0.0023323615   0.0014455755   20.464723      18.929869      1.534854      -1.5678062      19654.604    
    699000   0.91071001     0.0023323615  -0.0021469931   20.296108      18.943704      1.3524044     -1.6232324      19657.324    
    700000   0.89106484     0.0023323615   0.0016638019   20.138249      18.815018      1.3232313     -1.6096324      19618.564    
    701000   0.90835838     0.0023323615  -0.00040534685  20.397261      19.048349      1.3489122     -1.4619394      19657.042    
    702000   1.1019909      0.0023323615   0.0047601696   20.373925      18.737469      1.6364565     -1.7067043      19601.488    
    703000   0.97466834     0.0023323615  -0.0003469084   20.46236       19.014977      1.4473825     -1.5461063      19433.804    
    704000   0.94326409     0.0023323615  -0.00079417081  20.58211       19.181362      1.4007472     -1.4857802      19575.693    
    705000   1.0770137      0.0023323615  -0.001500632    20.558715      18.95935       1.5993654     -1.6719417      19719.244    
    706000   1.006431       0.0023323615  -0.001704944    20.231109      18.736559      1.4945501     -1.7372992      19554.749    
    707000   1.0058318      0.0023323615   0.001116901    20.540029      19.046369      1.4936602     -1.5894727      19705.576    
    708000   1.1648474      0.0023323615  -0.0020232276   21.100475      19.370677      1.7297983     -1.4741955      19677.779    
    709000   1.0469574      0.0023323615  -0.0047365338   20.780242      19.22551       1.5547318     -1.2687889      19788.053    
    710000   0.89865206     0.0023323615   0.0011208167   20.174875      18.840376      1.3344983     -1.6207043      19798.561    
    711000   1.0506512      0.0023323615  -0.00063757784  20.340118      18.779901      1.560217      -1.7504141      19713.052    
    712000   0.95167684     0.0023323615  -0.0041502204   20.301721      18.888481      1.4132401     -1.7157446      19511.241    
    713000   1.0905618      0.0023323615  -0.00042780196  20.595167      18.975683      1.6194843     -1.5103423      19718.987    
    714000   1.1512697      0.0023323615   0.00247089     20.817305      19.10767       1.7096356     -1.5337727      19741.815    
    715000   1.0661396      0.0023323615  -0.0038806915   20.686152      19.102935      1.5832173     -1.4040701      19886.15     
    716000   0.993429       0.0023323615   0.0025978059   20.158737      18.683495      1.4752421     -1.7370929      19550.425    
    717000   1.089555       0.0023323615   0.0031837827   20.693705      19.075716      1.6179892     -1.555205       19482.392    
    718000   1.0410437      0.0023323615   0.00021008281  20.270915      18.724965      1.5459499     -1.755873       19557.665    
    719000   1.1461491      0.0023323615  -0.00036811208  20.86169       19.159659      1.7020315     -1.4459811      19661.534    
    720000   1.0438683      0.0023323615   5.5289855e-05  20.744192      19.194048      1.5501444     -1.3721423      19620.804    
    721000   1.0958579      0.0023323615   0.00082195796  20.648381      19.021032      1.6273489     -1.5196648      19705.739    
    722000   0.95618101     0.0023323615  -0.0028002215   20.54112       19.121191      1.4199288     -1.4500631      19867.249    
    723000   1.1343533      0.0023323615   0.0034452315   20.711294      19.026779      1.6845146     -1.4209171      20253.195    
    724000   0.92763607     0.0023323615  -0.0030397383   20.498257      19.120717      1.3775396     -1.4793427      19993.435    
    725000   0.91194182     0.0023323615  -0.0011611621   20.539705      19.185471      1.3542336     -1.348071       19970.401    
    726000   0.8757902      0.0023323615   0.00085808395  20.350779      19.05023       1.3005485     -1.572884       19994.912    
    727000   0.9543033      0.0023323615   0.00062765062  20.611424      19.194283      1.4171404     -1.4343697      19803.29     
    728000   0.9131302      0.0023323615   0.0012760424   20.413426      19.057428      1.3559984     -1.3305486      19934.361    
    729000   1.0409025      0.0023323615  -0.0033620772   20.3067        18.760959      1.5457402     -1.7105706      19709.981    
    730000   0.96746491     0.0023323615   0.0018514855   20.733062      19.296377      1.4366854     -1.1949763      19729.71     
    731000   0.98440805     0.0023323615  -0.00025607611  20.629144      19.167298      1.461846      -1.4088841      20084.668    
    732000   0.97298461     0.0023323615   0.00087751333  20.774896      19.330014      1.4448821     -1.3805612      19934.103    
    733000   1.0358517      0.0023323615   0.0016722182   20.602617      19.064378      1.5382397     -1.5621426      19874.093    
    734000   1.1073111      0.0023323615   6.4857114e-07  20.780441      19.136084      1.6443569     -1.4953812      19907.04     
    735000   0.93315886     0.0023323615   0.00063756846  20.540676      19.154935      1.3857409     -1.3897627      19697.479    
    736000   0.86052531     0.0023323615  -0.0021844689   20.259038      18.981158      1.2778801     -1.4154706      19551.416    
    737000   0.98996334     0.0023323615  -0.0027192854   20.34395       18.873855      1.4700956     -1.7031671      19633.116    
    738000   0.9509394      0.0023323615  -0.0024493946   20.166083      18.753938      1.412145      -1.7013485      19645.335    
    739000   0.9512976      0.0023323615  -0.0010961126   20.467812      19.055135      1.4126769     -1.6344901      19919.034    
    740000   0.96384576     0.0023323615   0.0024327509   20.551654      19.120343      1.431311      -1.3096892      20002.646    
    741000   1.0593839      0.0023323615   0.0034512637   20.987282      19.414097      1.573185      -1.1316266      20116.095    
    742000   0.86765915     0.0023323615   0.00099447198  20.457332      19.168858      1.2884738     -1.1969567      20213.991    
    743000   0.93209164     0.0023323615  -0.0041392889   20.555076      19.17092       1.3841561     -1.3594499      19988.798    
    744000   1.0260806      0.0023323615   0.0013808487   20.674492      19.150763      1.5237297     -1.3374198      20328.653    
    745000   0.75592385     0.0023323615  -1.0829665e-05  20.115736      18.993189      1.1225469     -1.4442104      20028.683    
    746000   1.0804366      0.0023323615   0.0025252292   20.638993      19.034545      1.6044484     -1.4960583      19806.811    
    747000   0.91095753     0.0023323615  -0.0010699081   20.343141      18.990369      1.3527719     -1.5204581      19827.72     
    748000   0.96952283     0.0023323615  -0.00037129799  20.644914      19.205173      1.4397414     -1.3284612      19943.028    
    749000   1.0536372      0.0023323615   0.003445432    20.553027      18.988375      1.5646513     -1.4519304      20061.263    
    750000   0.90760558     0.0023323615  -0.0013703523   20.173393      18.825598      1.3477943     -1.5793674      19852.328    
    751000   0.93849391     0.0023323615   0.0010837305   20.2604        18.866736      1.3936635     -1.6939352      19623.192    
    752000   0.9307855      0.0023323615  -0.002866968    20.516324      19.134108      1.3822165     -1.3509269      20044.386    
    753000   1.0511886      0.0023323615   0.0045160746   20.897136      19.336121      1.5610151     -1.2206272      20075.255    
    754000   1.0113787      0.0023323615  -0.001001592    20.826914      19.325016      1.5018974     -1.3692407      19893.356    
    755000   0.98434802     0.0023323615   0.00077222597  20.342514      18.880757      1.4617568     -1.5813773      19091.343    
    756000   1.0075338      0.0023323615   0.002849634    20.521325      19.025137      1.4961877     -1.5464389      19044.608    
    757000   0.96862327     0.0023323615   0.0050456859   20.370666      18.93226       1.4384056     -1.4592508      18475.516    
    758000   1.0998872      0.0023323615   0.0023573033   20.860245      19.226912      1.6333326     -1.353757       18911.293    
    759000   1.1068912      0.0023323615   0.0010213469   20.814205      19.170471      1.6437335     -1.293307       20058.38     
    760000   1.0373091      0.0023323615   0.0027847524   20.572083      19.031679      1.540404      -1.498652       20084.704    
    761000   0.99056617     0.0023323615   0.0029737906   20.392331      18.92134       1.4709908     -1.5317531      20124.463    
    762000   0.75844543     0.0023323615   0.00094028441  20.199626      19.073334      1.1262915     -1.5341049      20035.285    
    763000   0.76456889     0.0023323615   0.00026003623  20.244057      19.108672      1.1353848     -1.5944432      20013.118    
    764000   0.93184074     0.0023323615   0.00061749493  20.506932      19.123148      1.3837835     -1.3715619      20019.022    
    765000   0.9907093      0.0023323615  -0.0028622627   20.74998       19.278777      1.4712033     -1.2599971      20167.891    
    766000   0.91959859     0.0023323615  -0.0031977183   20.564656      19.199052      1.3656039     -1.3698838      20176.819    
    767000   0.96074387     0.0023323615   0.00012931922  20.466975      19.04027       1.4267046     -1.456778       20165.32     
    768000   1.0855788      0.0023323615  -0.0010179363   20.554223      18.942139      1.6120845     -1.6401368      19995.585    
    769000   0.97533845     0.0023323615   0.006933813    20.281366      18.832988      1.4483776     -1.7261845      20008.448    
    770000   0.92509425     0.0023323615  -0.0022569094   20.361632      18.987867      1.373765      -1.6183951      19975.001    
    771000   1.0226713      0.0023323615  -0.001692068    20.453808      18.935141      1.5186668     -1.5749103      19959.759    
    772000   0.85309045     0.0023323615  -0.00096824478  20.082402      18.815562      1.2668393     -1.6583659      20061.5      
    773000   0.99593771     0.0023323615  -5.9168135e-06  20.231853      18.752885      1.4789675     -1.6550494      20025.702    
    774000   0.84158825     0.0023323615   0.0018513859   20.241233      18.991474      1.2497586     -1.472743       20157.578    
    775000   1.0142517      0.0023323615  -0.0018077162   20.334097      18.827933      1.5061638     -1.7486529      20261.689    
    776000   1.07603        0.0023323615  -0.00097812891  20.516435      18.91853       1.5979046     -1.532995       20063.561    
    777000   1.0308537      0.0023323615  -0.00019053446  20.724722      19.193904      1.5308178     -1.472234       20192.804    
    778000   1.0495724      0.0023323615   0.00028984295  20.327804      18.769189      1.558615      -1.8068579      20142.075    
    779000   0.8250077      0.0023323615  -0.0048918875   20.297436      19.0723        1.2251364     -1.4061958      20158.779    
    780000   0.98115656     0.0023323615   0.0031434579   20.035925      18.578908      1.4570175     -1.8320731      20093.05     
    781000   1.0591036      0.0023323615  -0.00056245118  20.558802      18.986033      1.5727688     -1.5662249      20030.589    
    782000   1.0906767      0.0023323615   0.0024540608   20.601932      18.982278      1.6196548     -1.4399998      20030.094    
    783000   1.1549935      0.0023323615  -0.0012827012   20.762412      19.047247      1.7151653     -1.4581482      19999.436    
    784000   0.79375302     0.0023323615   0.0021627654   20.062637      18.883913      1.1787232     -1.6269336      20080.688    
    785000   0.94887428     0.0023323615  -0.001332271    20.527709      19.118631      1.4090783     -1.5082441      20046.439    
    786000   1.0463127      0.0023323615  -0.00073622016  20.439922      18.886148      1.5537743     -1.672292       20034.574    
    787000   0.95195856     0.0023323615  -0.0014032784   20.385752      18.972093      1.4136585     -1.6053006      20068.813    
    788000   1.1175098      0.0023323615   0.0015498577   20.597998      18.938496      1.659502      -1.5614508      19955.935    
    789000   0.77261753     0.0023323615  -0.0037425403   20.002633      18.855296      1.147337      -1.6622112      19996.343    
    790000   1.0189963      0.0023323615  -0.0028282215   20.571756      19.058547      1.5132095     -1.5249409      19956.279    
    791000   0.85937991     0.0023323615  -0.0011059546   20.317748      19.041569      1.2761792     -1.4498962      20093.053    
    792000   0.98078075     0.0023323615   0.0024946687   20.807988      19.351529      1.4564594     -1.311445       20014.39     
    793000   1.0873126      0.0023323615  -0.0010109357   20.696418      19.081759      1.6146592     -1.4966638      20029.821    
    794000   0.94127139     0.0023323615  -0.00084797448  20.158105      18.760317      1.397788      -1.7284961      19795.219    
    795000   0.86815967     0.0023323615  -0.0035666034   19.95402       18.664802      1.2892171     -1.9176988      19682.121    
    796000   1.0865601      0.0023323615  -0.0017711198   20.559942      18.9464        1.6135418     -1.4579787      19809.987    
    797000   1.067236       0.0023323615  -0.0019799618   20.646015      19.06117       1.5848455     -1.4362377      19899.404    
    798000   1.0756262      0.0023323615  -0.00046394622  20.640964      19.043659      1.597305      -1.5268146      20103.07     
    799000   0.99841567     0.0023323615  -0.0037502086   20.692243      19.209596      1.4826473     -1.2589376      19967.237    
    800000   1.0264814      0.0023323615  -7.3770595e-05  20.250805      18.72648       1.5243249     -1.6575608      19959.399    
    801000   1.0177275      0.0023323615   0.0024781987   20.452692      18.941367      1.5113253     -1.587246       19961.73     
    802000   1.0932577      0.0023323615  -0.0014062709   20.466209      18.842721      1.6234877     -1.6479879      19915.635    
    803000   0.96358619     0.0023323615   0.0019241578   20.551742      19.120817      1.4309255     -1.4377974      19853.493    
    804000   1.0427245      0.0023323615   0.0019766736   20.526933      18.978487      1.5484459     -1.4766555      19939.997    
    805000   0.91142178     0.0023323615  -0.0035644758   20.3642        19.010738      1.3534613     -1.5923943      19925.344    
    806000   0.94486048     0.0023323615  -0.00066670498  19.983533      18.580415      1.4031178     -1.8083754      19992.914    
    807000   1.129901       0.0023323615  -0.00015519294  20.620424      18.942521      1.677903      -1.6480848      20070.153    
    808000   1.0559493      0.0023323615  -0.0011258001   20.623456      19.055371      1.5680847     -1.6492158      19887.62     
    809000   1.0174038      0.0023323615  -0.00054042547  20.301882      18.791038      1.5108446     -1.8645927      19921.836    
    810000   0.95284181     0.0023323615   0.00017830638  20.353049      18.938079      1.4149701     -1.6048059      19850.595    
    811000   0.99701084     0.0023323615   0.0034963498   20.576483      19.095922      1.4805611     -1.4319291      19938.495    
    812000   0.90819768     0.0023323615  -0.0040558772   20.254016      18.905343      1.3486735     -1.6178578      19761.174    
    813000   0.96856884     0.0023323615  -0.00099687239  20.614506      19.176182      1.4383247     -1.4312414      19955.56     
    814000   0.94528255     0.0023323615  -0.0041877244   20.53482       19.131075      1.4037446     -1.3773007      19981.471    
    815000   0.82225697     0.0023323615   0.0032568579   20.256349      19.035297      1.2210516     -1.4678347      20008.412    
    816000   0.96153218     0.0023323615  -0.0049299932   20.233705      18.80583       1.4278753     -1.7350984      19911.543    
    817000   1.0344452      0.0023323615   0.00033201494  20.371933      18.835782      1.5361511     -1.5368264      19330.82     
    818000   1.0004841      0.0023323615  -0.00069895149  20.518078      19.032359      1.4857189     -1.460318       18565.992    
    819000   1.0853631      0.0023323615  -0.00024081084  20.37311       18.761346      1.6117643     -1.6513583      18559.726    
    820000   1.1018669      0.0023323615   0.00037457006  20.470542      18.83427       1.6362724     -1.6830743      18427.909    
    821000   1.1006061      0.0023323615  -0.0016437487   20.65108       19.01668       1.6344001     -1.55158        18243.746    
    822000   0.96989803     0.0023323615   0.0051636654   20.176552      18.736254      1.4402986     -1.7277056      18432.622    
    823000   0.95774086     0.0023323615   0.0022438188   20.477854      19.055609      1.4222452     -1.500014       18440.587    
    824000   1.0733577      0.0023323615   0.0023969448   20.716748      19.122812      1.5939362     -1.3788227      18478.4      
    825000   0.88006113     0.0023323615  -0.0032532626   20.706823      19.399932      1.3068908     -1.2838357      18231.106    
    826000   1.1190024      0.0023323615   0.0011181185   20.603901      18.942182      1.6617186     -1.6165167      18229.745    
    827000   1.0296291      0.0023323615  -0.00081544111  20.040296      18.511297      1.5289992     -1.8832944      18173.898    
    828000   1.0951456      0.0023323615  -0.0001460825   20.425974      18.799683      1.6262911     -1.7580957      18202.079    
    829000   1.0258236      0.0023323615   0.0054750569   20.672052      19.148704      1.523348      -1.3852756      18388.283    
    830000   0.94800318     0.0023323615  -0.0034927389   20.496714      19.08893       1.4077847     -1.4622525      18298.51     
    831000   0.94852107     0.0023323615  -0.0031050889   20.281455      18.872901      1.4085538     -1.554082       18357.45     
    832000   0.81760795     0.0023323615   1.6551149e-05  20.39125       19.177103      1.2141478     -1.4884827      18360.155    
    833000   0.97561104     0.0023323615  -0.0016939259   20.311418      18.862636      1.4487824     -1.5919172      18173.401    
    834000   0.94343591     0.0023323615   0.0010010578   20.617425      19.216422      1.4010023     -1.2581648      18439.044    
    835000   1.0856824      0.0023323615  -0.00068471714  20.862858      19.25062       1.6122384     -1.2576433      18341.656    
    836000   1.0388689      0.0023323615   0.0029276463   20.641036      19.098316      1.5427203     -1.3051078      18220.6      
    837000   1.0301548      0.0023323615  -0.0021257857   20.641469      19.111689      1.5297799     -1.4584351      18340.995    
    838000   1.1574396      0.0023323615   0.0072065777   20.646889      18.928091      1.7187978     -1.6383553      18250.134    
    839000   1.0820798      0.0023323615  -0.004725224    20.737119      19.13023       1.6068885     -1.3783983      18246.004    
    840000   1.0819485      0.0023323615   0.0024255117   20.824156      19.217462      1.6066936     -1.3171553      18271.325    
    841000   0.88200034     0.0023323615  -0.0039481708   20.505894      19.196123      1.3097705     -1.3472611      18366.56     
    842000   1.0682033      0.0023323615  -3.8285882e-05  20.686644      19.100362      1.586282      -1.4270926      18296.048    
    843000   0.9139659      0.0023323615   0.00095896402  20.17997       18.822731      1.3572394     -1.677335       18310.491    
    844000   1.0010499      0.0023323615   0.0011615882   20.544068      19.057509      1.4865591     -1.4023683      18309.537    
    845000   0.89005486     0.0023323615  -0.0021715755   20.402209      19.080478      1.3217315     -1.4324179      18101.605    
    846000   1.0704262      0.0023323615   0.0035809495   20.616622      19.027039      1.5895829     -1.4006853      18186.342    
    847000   0.95098907     0.0023323615   0.0023322413   20.512881      19.100662      1.4122188     -1.4408079      18317.527    
    848000   1.03014        0.0023323615   0.00072266029  20.730723      19.200965      1.5297579     -1.3087087      18197.502    
    849000   1.0385552      0.0023323615   0.0029053711   20.470308      18.928053      1.5422545     -1.5469221      18271.231    
    850000   1.0798407      0.0023323615  -0.00072159639  20.464331      18.860768      1.6035635     -1.6753118      18259.86     
    851000   1.1332044      0.0023323615  -0.0024055366   20.711876      19.029067      1.6828085     -1.5429369      18342.232    
    852000   0.92747805     0.0023323615   0.0024939998   20.32455       18.947245      1.3773049     -1.5773966      18227.068    
    853000   1.0824488      0.0023323615  -0.00024201886  20.686813      19.079377      1.6074365     -1.4620763      18249.83     
    854000   1.0308622      0.0023323615   0.00014409222  20.288421      18.757591      1.5308304     -1.6555806      18234.864    
    855000   0.8780031      0.0023323615  -0.0020013846   20.39825       19.094416      1.3038346     -1.4533274      18256.924    
    856000   1.0203713      0.0023323615   0.0028678034   20.752434      19.237183      1.5152513     -1.3314611      18314.305    
    857000   0.95982593     0.0023323615   0.0014938038   20.480407      19.055066      1.4253415     -1.450306       19851.408    
    858000   1.0325525      0.0023323615  -0.00081384173  20.946958      19.413617      1.5333405     -1.2373579      19709.91     
    859000   1.0819722      0.0023323615   0.0049320872   20.977658      19.37093       1.6067287     -1.3145161      19946.121    
    860000   0.90666121     0.0023323615   0.00034549448  20.562756      19.216364      1.3463919     -1.344727       19760.063    
    861000   0.99981023     0.0023323615  -0.0037108226   20.200223      18.715505      1.4847182     -1.7549156      19704.817    
    862000   0.94004683     0.0023323615   0.00051151373  20.117847      18.721878      1.3959695     -1.7741412      19746.642    
    863000   1.0160926      0.0023323615   0.0029447928   20.479296      18.970399      1.5088975     -1.5793007      19670.771    
    864000   0.89922341     0.0023323615  -0.0026704211   20.61457       19.279223      1.3353468     -1.2705827      19739.441    
    865000   0.83324329     0.0023323615  -0.00088109315  20.042987      18.805621      1.2373663     -1.779735       19817.39     
    866000   1.062045       0.0023323615   0.00069857427  20.215465      18.638329      1.5771368     -1.7831227      19808.616    
    867000   0.88907974     0.0023323615  -0.0038885195   20.311328      18.991045      1.3202834     -1.6411775      19875.276    
    868000   0.92309367     0.0023323615  -0.0005673018   20.439933      19.069139      1.3707941     -1.4192733      19727.854    
    869000   0.96137888     0.0023323615   0.00089660834  20.136017      18.70837       1.4276476     -1.7841883      19756.918    
    870000   0.95493032     0.0023323615  -0.0050774137   20.386769      18.968697      1.4180715     -1.5650236      19716.969    
    871000   0.91202864     0.0023323615   0.0023257479   20.33127       18.976907      1.3543625     -1.6521284      19789.317    
    872000   1.2192789      0.0023323615   0.005045853    20.747471      18.936842      1.8106291     -1.563974       19764.073    
    873000   1.1107989      0.0023323615   2.3345016e-05  20.5762        18.926663      1.6495364     -1.6210352      19803.373    
    874000   1.0888787      0.0023323615  -0.0010953721   20.809934      19.192949      1.6169848     -1.3791853      19850.788    
    875000   0.86436548     0.0023323615  -0.0012424974   20.631143      19.34756       1.2835827     -1.210326       19903.562    
    876000   0.97750377     0.0023323615   0.0036400404   20.23731       18.785717      1.4515931     -1.7617513      19941.224    
    877000   0.98715736     0.0023323615   0.0012243448   20.842104      19.376175      1.4659287     -1.2676469      19955.74     
    878000   1.0790266      0.0023323615   0.0060076447   20.457149      18.854794      1.6023545     -1.7561553      19856.44     
    879000   0.91418842     0.0023323615  -0.00038782245  20.254632      18.897062      1.3575698     -1.6219498      19778.956    
    880000   1.07709        0.0023323615  -0.0017894152   20.456014      18.856536      1.5994786     -1.6779596      19790.466    
    881000   1.0787158      0.0023323615  -0.00042644303  20.374056      18.772163      1.6018929     -1.6366658      19741.514    
    882000   1.0479876      0.0023323615  -0.0014566727   20.450893      18.894631      1.5562616     -1.4972722      19780.006    
    883000   0.92530527     0.0023323615  -0.0022273501   20.579853      19.205775      1.3740783     -1.4975867      19779.403    
    884000   1.0363144      0.0023323615  -0.0033019083   20.358283      18.819356      1.5389269     -1.696102       19877.231    
    885000   1.1242012      0.0023323615   0.0021725655   20.378385      18.708946      1.6694388     -1.7557435      19758.541    
    886000   1.0251265      0.0023323615  -0.003154797    20.513855      18.991542      1.5223128     -1.4923831      19861.205    
    887000   1.0829466      0.0023323615   0.00069845844  20.701085      19.092909      1.6081757     -1.5345458      19822.195    
    888000   0.96499537     0.0023323615  -0.00036147242  20.339927      18.906909      1.4330181     -1.5643347      19670.38     
    889000   1.0888501      0.0023323615   0.00018987662  20.56996       18.953018      1.6169424     -1.5745565      19689.082    
    890000   1.0343196      0.0023323615  -0.0053183746   20.482353      18.946388      1.5359647     -1.5722165      19733.853    
    891000   0.84872209     0.0023323615   0.0019451086   20.311645      19.051293      1.2603523     -1.4691902      19591.516    
    892000   1.0285735      0.0023323615  -0.0026564004   20.395223      18.867791      1.5274317     -1.7280968      19645.636    
    893000   1.0903646      0.0023323615   0.00043309656  20.339527      18.720335      1.6191915     -1.7961635      19786.813    
    894000   0.91878129     0.0023323615  -0.000798361    20.507293      19.142903      1.3643902     -1.4136598      19774.493    
    895000   0.98069717     0.0023323615   0.0022215353   20.36709       18.910754      1.4563353     -1.6388493      19872.467    
    896000   0.79847849     0.0023323615  -0.0033306177   19.988068      18.802327      1.1857406     -1.6664846      19931.364    
    897000   0.97031279     0.0023323615   0.0003371302   20.430748      18.989834      1.4409145     -1.5859868      19941.877    
    898000   1.0646939      0.0023323615  -0.0071667908   20.543797      18.962727      1.5810704     -1.6622918      19403.565    
    899000   0.92769424     0.0023323615   0.0024976044   20.160186      18.78256       1.377626      -1.6909742      19703.72     
    900000   1.0388502      0.0023323615  -0.0010914448   20.327552      18.78486       1.5426925     -1.7043643      19741.616    
    901000   0.88316905     0.0023323615  -0.00054850234  20.149533      18.838027      1.311506      -1.6367155      19867.154    
    902000   1.0455801      0.0023323615   0.0034245491   20.286798      18.734111      1.5526864     -1.803986       19701.452    
    903000   1.2435994      0.0023323615   0.00066622697  20.673032      18.826287      1.8467451     -1.6898297      19862.616    
    904000   0.99536055     0.0023323615   0.0026068686   20.315866      18.837755      1.4781104     -1.629949       19759.793    
    905000   1.0593371      0.0023323615  -0.0020317252   20.709213      19.136097      1.5731156     -1.3549922      19766.606    
    906000   1.2050845      0.0023323615   0.00054500452  20.834785      19.045234      1.7895505     -1.539584       19747.447    
    907000   1.0986675      0.0023323615   0.0020868096   20.656454      19.024933      1.6315213     -1.5099313      19881.472    
    908000   1.1227231      0.0023323615  -0.00089196485  20.568318      18.901075      1.6672439     -1.6180435      19889.954    
    909000   0.94729552     0.0023323615   0.0021865951   20.355321      18.948587      1.4067339     -1.4546047      19714.127    
    910000   0.98982911     0.0023323615  -0.0011132769   20.753625      19.283729      1.4698962     -1.2534577      19915.969    
    911000   0.99152768     0.0023323615   0.0020304932   20.532683      19.060265      1.4724186     -1.3802392      20017.099    
    912000   1.0649818      0.0023323615  -0.0029076126   20.528262      18.946764      1.5814979     -1.5853835      19979.867    
    913000   0.905422       0.0023323615  -0.00084398497  20.126005      18.781453      1.3445517     -1.6950153      19773.929    
    914000   0.91781129     0.0023323615   0.0035782044   20.162546      18.799597      1.3629498     -1.6537298      19823.577    
    915000   1.0606539      0.0023323615  -0.0041281503   20.296667      18.721596      1.575071      -1.7247181      19702.926    
    916000   0.91808246     0.0023323615  -0.0016007128   20.065368      18.702015      1.3633525     -1.7907118      19787.932    
    917000   1.1367944      0.0023323615   0.0020418681   20.781229      19.093089      1.6881397     -1.4569818      19827.555    
    918000   0.93116262     0.0023323615  -0.0013940677   20.409919      19.027142      1.3827765     -1.443247       19891.464    
    919000   0.88937784     0.0023323615   0.00044558162  20.489466      19.16874       1.3207261     -1.4572118      19960.709    
    920000   1.0492811      0.0023323615  -0.0021390016   20.897681      19.339498      1.5581824     -1.1743882      20084.11     
    921000   1.0122129      0.0023323615  -0.0020134251   20.691208      19.188072      1.5031362     -1.3451761      20122.629    
    922000   1.0426792      0.0023323615   0.00049634826  20.615431      19.067052      1.5483787     -1.5773228      19864.581    
    923000   0.93613337     0.0023323615   0.0014486808   20.151089      18.760931      1.3901581     -1.7269864      19897.587    
    924000   1.0216848      0.0023323615  -0.0010246468   20.542008      19.024806      1.5172019     -1.5177203      19790.898    
    925000   0.91311426     0.0023323615  -0.002164489    20.328075      18.9721        1.3559747     -1.6583175      19701.192    
    926000   0.96470482     0.0023323615   0.0030811032   20.451276      19.018689      1.4325867     -1.3815779      19768.877    
    927000   1.0953341      0.0023323615  -0.0018728472   21.115173      19.488602      1.6265712     -1.160573       19907.175    
    928000   0.85151589     0.0023323615   0.0012235025   20.235343      18.970842      1.2645011     -1.5318821      19952.393    
    929000   1.1000379      0.0023323615   0.0035627332   20.488382      18.854825      1.6335563     -1.6836821      19885.619    
    930000   0.95495267     0.0023323615   0.0022610467   20.469197      19.051093      1.4181047     -1.60064        19857.83     
    931000   0.96144639     0.0023323615   0.002920122    20.361544      18.933796      1.4277479     -1.7298519      19838.534    
    932000   0.86052509     0.0023323615  -0.0012044771   20.506813      19.228933      1.2778798     -1.3733624      19768.912    
    933000   0.97235437     0.0023323615   0.0043111189   20.539951      19.096005      1.4439462     -1.3726854      20120.09     
    934000   0.78901541     0.0023323615  -0.0042515564   20.322851      19.151163      1.1716879     -1.3520129      20057.449    
    935000   1.0333753      0.0023323615   0.0049426767   20.597011      19.062449      1.5345624     -1.3792509      20117.044    
    936000   0.91990451     0.0023323615   0.0014525519   20.339026      18.972968      1.3660582     -1.4845931      19739.008    
    937000   1.0450401      0.0023323615   0.0029228337   20.536462      18.984577      1.5518846     -1.4838285      19936.937    
    938000   0.99870268     0.0023323615  -0.0018200764   20.249681      18.766607      1.4830735     -1.7614924      20039.078    
    939000   0.95154782     0.0023323615  -0.0013349318   20.643876      19.230828      1.4130485     -1.3486013      19999.232    
    940000   1.0651967      0.0023323615  -0.0030547766   20.666131      19.084314      1.5818171     -1.5491014      20015.105    
    941000   1.1024039      0.0023323615   0.0053226594   20.55384       18.91677       1.6370698     -1.6222322      19610.589    
    942000   1.0934566      0.0023323615  -0.0018432048   20.469763      18.84598       1.6237831     -1.642353       18190.001    
    943000   1.0260044      0.0023323615  -0.0014494736   20.560537      19.03692       1.5236166     -1.5047793      18231.197    
    944000   0.97968585     0.0023323615  -0.00034204547  20.577917      19.123084      1.4548335     -1.466023       19246.886    
    945000   0.98801595     0.0023323615   0.0006599896   20.466673      18.99947       1.4672037     -1.6267288      19884.47     
    946000   0.95985426     0.0023323615  -0.0019245606   20.561305      19.135922      1.4253836     -1.2146534      20041.323    
    947000   1.0697313      0.0023323615  -0.0013349658   20.801676      19.213125      1.588551      -1.3816569      19900.856    
    948000   0.92521523     0.0023323615   0.0015928978   20.328134      18.954189      1.3739446     -1.4981499      19692.023    
    949000   1.1045176      0.0023323615   0.0014099967   20.815225      19.175016      1.6402086     -1.3220803      19829.071    
    950000   1.0863798      0.0023323615   4.5593124e-05  20.604824      18.99155       1.613274      -1.5695517      19675.258    
    951000   0.96752839     0.0023323615   0.0015091303   20.509012      19.072232      1.4367797     -1.4704698      19649.26     
    952000   0.98881285     0.0023323615  -0.0036132256   20.646231      19.177844      1.4683871     -1.542057       19695.123    
    953000   0.75776676     0.0023323615  -0.0015180339   19.898186      18.772902      1.1252836     -1.7654921      19646.189    
    954000   0.96296745     0.0023323615   0.0017195546   20.312476      18.882469      1.4300067     -1.721852       19668.768    
    955000   0.95993522     0.0023323615  -0.00054955184  20.317811      18.892307      1.4255038     -1.6120747      19651.105    
    956000   1.0428936      0.0023323615  -0.0054762986   20.653023      19.104326      1.5486969     -1.4806756      19809.5      
    957000   0.93898925     0.0023323615   0.00063071507  20.353737      18.959338      1.394399      -1.6469028      19731.032    
    958000   1.0158388      0.0023323615   0.0023840591   20.173262      18.664741      1.5085207     -1.816027       19667.903    
    959000   0.95464111     0.0023323615   0.0037366853   20.309353      18.891711      1.4176421     -1.5270256      19955.792    
    960000   0.96991521     0.0023323615  -0.0046465337   20.62821       19.187886      1.4403241     -1.4090024      20126.784    
    961000   0.98604875     0.0023323615  -0.0025010481   20.461041      18.996758      1.4642824     -1.6013818      19711.168    
    962000   0.96013036     0.0023323615   0.0019664726   20.297753      18.871959      1.4257936     -1.6739429      19721.332    
    963000   1.006309       0.0023323615  -0.0013363961   20.624511      19.130142      1.4943689     -1.4765753      19851.301    
    964000   0.96921831     0.0023323615   0.0011563875   20.537024      19.097735      1.4392892     -1.3946824      19803.774    
    965000   0.85345562     0.0023323615   0.0025815943   20.431725      19.164344      1.2673816     -1.4458432      19829.296    
    966000   0.90536335     0.0023323615   0.0024419609   20.393199      19.048735      1.3444646     -1.418768       19840.375    
    967000   1.1271216      0.0023323615  -0.0024015469   21.014503      19.340728      1.6737756     -1.1940005      19918.823    
    968000   1.0250573      0.0023323615  -0.0030392096   20.613731      19.09152       1.5222101     -1.4061684      19962.932    
    969000   0.87895589     0.0023323615  -0.0035732946   20.275276      18.970026      1.3052495     -1.5164704      19982.451    
    970000   1.0348643      0.0023323615   0.0028780009   20.520941      18.984167      1.5367734     -1.4595166      19971.188    
    971000   1.0708291      0.0023323615  -0.0024375841   20.41927       18.829088      1.5901812     -1.738194       19698.494    
    972000   1.0839448      0.0023323615   0.0012465534   20.263662      18.654004      1.609658      -1.8008121      19725.748    
    973000   0.94931364     0.0023323615   0.0017802192   20.518294      19.108563      1.4097308     -1.475386       19781.289    
    974000   0.94734187     0.0023323615  -0.001559255    20.688198      19.281395      1.4068027     -1.2241366      20118.893    
    975000   1.0569443      0.0023323615  -0.0012250288   20.645186      19.075624      1.5695622     -1.3769483      19976.38     
    976000   1.0480425      0.0023323615   0.0019949222   20.675786      19.119443      1.5563432     -1.2740585      19985.644    
    977000   0.91888324     0.0023323615  -0.00011962434  20.269805      18.905263      1.3645416     -1.5433245      19950.315    
    978000   1.0466789      0.0023323615  -0.002023817    20.60032       19.046002      1.5543181     -1.5437788      19733.291    
    979000   1.0151219      0.0023323615   0.001298878    20.269335      18.761879      1.507456      -1.7373074      19889.954    
    980000   0.99699642     0.0023323615   0.0011857105   20.565701      19.085161      1.4805397     -1.4221887      20061.512    
    981000   1.1545987      0.0023323615   0.0019381723   20.481109      18.76653       1.7145791     -1.5958872      19898.86     
    982000   1.0081617      0.0023323615   0.0034483668   20.289418      18.792298      1.4971201     -1.6699654      18934.038    
    983000   0.92502908     0.0023323615  -0.0017149864   20.243766      18.870098      1.3736682     -1.5943925      18244.386    
    984000   1.1075162      0.0023323615   0.0012986981   20.433487      18.788825      1.6446616     -1.6707825      19472.848    
    985000   1.0259244      0.0023323615   0.0011512917   20.479208      18.95571       1.5234977     -1.5478905      19798.91     
    986000   1.0132311      0.0023323615  -0.0017447564   20.292668      18.78802       1.5046481     -1.8124591      19834.899    
    987000   0.96292577     0.0023323615   0.00070444917  20.103907      18.673962      1.4299448     -1.8561701      19899.34     
    988000   0.98615296     0.0023323615   0.00011570354  20.471928      19.007491      1.4644371     -1.6181698      18419.812    
    989000   0.87812032     0.0023323615   0.0036441256   20.029966      18.725958      1.3040087     -1.7135489      18619.286    
    990000   0.9079707      0.0023323615   0.0035343861   20.499349      19.151012      1.3483365     -1.4688311      18234.707    
    991000   0.99587154     0.0023323615  -0.0028367369   20.504633      19.025764      1.4788692     -1.5713187      18338.333    
    992000   1.1053202      0.0023323615  -0.001448195    20.616849      18.975448      1.6414005     -1.7436513      18105.85     
    993000   0.99015824     0.0023323615  -0.0021068918   20.404287      18.933902      1.470385      -1.6208639      19491.42     
    994000   0.94237407     0.0023323615   0.0029654623   20.324535      18.92511       1.3994255     -1.5099114      19598.89     
    995000   1.0381158      0.0023323615   0.0024391769   20.604221      19.062619      1.541602      -1.5109905      19778.525    
    996000   1.0004232      0.0023323615  -0.0025365634   20.326872      18.841244      1.4856284     -1.6043378      19808.69     
    997000   0.8714051      0.0023323615  -0.00068396109  20.159355      18.865318      1.2940366     -1.6461978      19791.141    
    998000   1.0526479      0.0023323615   0.0015035779   20.310509      18.747327      1.5631822     -1.650357       19595.27     
    999000   1.0050541      0.0023323615   0.0003806462   20.449368      18.956863      1.4925053     -1.5698109      18611.864    
   1000000   1.0447733      0.0023323615   0.00035023372  20.354505      18.803017      1.5514883     -1.5966019      18279.409    
Loop time of 53.224 on 1 procs for 1000000 steps with 100 atoms

Performance: 8116641.094 tau/day, 18788.521 timesteps/s
99.4% CPU use with 1 MPI tasks x 1 OpenMP threads

MPI task timing breakdown:
Section |  min time  |  avg time  |  max time  |%varavg| %total
---------------------------------------------------------------
Pair    | 44.485     | 44.485     | 44.485     |   0.0 | 83.58
Bond    | 1.2464     | 1.2464     | 1.2464     |   0.0 |  2.34
Neigh   | 3.6929     | 3.6929     | 3.6929     |   0.0 |  6.94
Comm    | 1.3282     | 1.3282     | 1.3282     |   0.0 |  2.50
Output  | 0.23804    | 0.23804    | 0.23804    |   0.0 |  0.45
Modify  | 1.891      | 1.891      | 1.891      |   0.0 |  3.55
Other   |            | 0.3428     |            |       |  0.64

Nlocal:            100 ave         100 max         100 min
Histogram: 1 0 0 0 0 0 0 0 0 0
Nghost:            284 ave         284 max         284 min
Histogram: 1 0 0 0 0 0 0 0 0 0
Neighs:           4851 ave        4851 max        4851 min
Histogram: 1 0 0 0 0 0 0 0 0 0

Total # of neighbors = 4851
Ave neighs/atom = 48.51
Ave special neighs/atom = 1.98
Neighbor list builds = 97871
Dangerous builds = 79829

write_data      ${outputfile_assembled} nofix nocoeff
write_data      7_assembled.data nofix nocoeff
System init for write_data ...
Generated 0 of 6 mixed pair_coeff terms from geometric mixing rule

Total wall time: 0:00:54
