LAMMPS (23 Jun 2022 - Update 1)
OMP_NUM_THREADS environment is not set. Defaulting to 1 thread. (src/comm.cpp:98)
  using 1 OpenMP thread(s) per MPI task


variable        runtime equal 1000000
variable		subsample_rate equal 1000

variable		outputfile_created string '3_created.data'
variable		outputfile_relaxed string '5_relaxed.data'
variable		outputfile_selfasb string '6_a_self_assemble.lammpstrj'
variable		outputfile_trajlin string '6_b_trajlin.data'
variable		outputfile_assembled string '7_assembled.data'

units           lj
atom_style      full
dimension       3
boundary        p p p
timestep        0.005

read_data       ${outputfile_created}
read_data       3_created.data
Reading data file ...
  orthogonal box = (0 0 0) to (35 35 35)
  1 by 1 by 1 MPI processor grid
  reading atoms ...
  100 atoms
  reading velocities ...
  100 velocities
  scanning bonds ...
  1 = max bonds/atom
  reading bonds ...
  99 bonds
Finding 1-2 1-3 1-4 neighbors ...
  special bond factors lj:    0        0        0       
  special bond factors coul:  0        0        0       
     2 = max # of 1-2 neighbors
     2 = max # of 1-3 neighbors
     4 = max # of 1-4 neighbors
     6 = max # of special neighbors
  special bonds CPU = 0.000 seconds
  read_data CPU = 0.006 seconds

bond_style      fene
bond_coeff      * 30.0 1.5 1.0 1.0
special_bonds   fene
Finding 1-2 1-3 1-4 neighbors ...
  special bond factors lj:    0        1        1       
  special bond factors coul:  0        1        1       
     2 = max # of 1-2 neighbors
     6 = max # of special neighbors
  special bonds CPU = 0.000 seconds

variable        Temp equal 1.0
variable        velSeed equal 926458

velocity        all create ${Temp} ${velSeed}
velocity        all create 1 ${velSeed}
velocity        all create 1 926458

### Output
thermo_style    custom step temp density press etotal pe ke epair spcpu
thermo          1000

###########################################################################
# Soft relaxation (to remove overlaps of particles)
######################################################################

pair_style      soft 1.0
pair_coeff      * * 0.0
variable        prefactor equal ramp(0,300)
fix             rampSoft all adapt 1 pair soft a * * v_prefactor

minimize        0.0 1.0e-8 1000 100000
WARNING: Using 'neigh_modify every 1 delay 0 check yes' setting during minimization (src/min.cpp:187)
Generated 0 of 6 mixed pair_coeff terms from geometric mixing rule
Neighbor list info ...
  update every 1 steps, delay 0 steps, check yes
  max neighbors/atom: 2000, page size: 100000
  master list distance cutoff = 1.3
  ghost atom cutoff = 1.3
  binsize = 0.65, bins = 54 54 54
  1 neighbor lists, perpetual/occasional/extra = 1 0 0
  (1) pair soft, perpetual
      attributes: half, newton on
      pair build: half/bin/newton
      stencil: half/bin/3d
      bin: standard
WARNING: Communication cutoff 1.3 is shorter than a bond length based estimate of 1.7550000000000001. This may lead to errors. (src/comm.cpp:727)
Per MPI rank memory allocation (min/avg/max) = 8.346 | 8.346 | 8.346 Mbytes
   Step          Temp         Density         Press          TotEng         PotEng         KinEng         E_pair         S/CPU     
         0   1              0.0023323615  -0.0039617958   21.524174      20.039174      1.485          0              0            
       362   1              0.0023323615   0.0023090379   21.485548      20.000548      1.485          0              66527.009    
Loop time of 0.00544411 on 1 procs for 362 steps with 100 atoms

99.2% CPU use with 1 MPI tasks x 1 OpenMP threads

Minimization stats:
  Stopping criterion = force tolerance
  Energy initial, next-to-last, final = 
      20.0391741078675   20.0005480767337   20.0005480767337
  Force two-norm initial, final = 11.878422 7.9509778e-09
  Force max component initial, final = 6.6117807 1.3572772e-09
  Final line search alpha, max atom move = 1 1.3572772e-09
  Iterations, force evaluations = 362 738

MPI task timing breakdown:
Section |  min time  |  avg time  |  max time  |%varavg| %total
---------------------------------------------------------------
Pair    | 0.00021355 | 0.00021355 | 0.00021355 |   0.0 |  3.92
Bond    | 0.0023483  | 0.0023483  | 0.0023483  |   0.0 | 43.13
Neigh   | 0.0016816  | 0.0016816  | 0.0016816  |   0.0 | 30.89
Comm    | 0.00018807 | 0.00018807 | 0.00018807 |   0.0 |  3.45
Output  | 0          | 0          | 0          |   0.0 |  0.00
Modify  | 0          | 0          | 0          |   0.0 |  0.00
Other   |            | 0.001013   |            |       | 18.60

Nlocal:            100 ave         100 max         100 min
Histogram: 1 0 0 0 0 0 0 0 0 0
Nghost:             20 ave          20 max          20 min
Histogram: 1 0 0 0 0 0 0 0 0 0
Neighs:              0 ave           0 max           0 min
Histogram: 1 0 0 0 0 0 0 0 0 0

Total # of neighbors = 0
Ave neighs/atom = 0
Ave special neighs/atom = 1.98
Neighbor list builds = 17
Dangerous builds = 0

fix             nvtSoft all nvt temp ${Temp} ${Temp} 0.5
fix             nvtSoft all nvt temp 1 ${Temp} 0.5
fix             nvtSoft all nvt temp 1 1 0.5
run             100000
Generated 0 of 6 mixed pair_coeff terms from geometric mixing rule
WARNING: Communication cutoff 1.3 is shorter than a bond length based estimate of 1.7550000000000001. This may lead to errors. (src/comm.cpp:727)
Per MPI rank memory allocation (min/avg/max) = 7.221 | 7.221 | 7.221 Mbytes
   Step          Temp         Density         Press          TotEng         PotEng         KinEng         E_pair         S/CPU     
       362   1              0.0023323615   0.0023090379   21.485548      20.000548      1.485          0              0            
      1000   0.90989032     0.0023323615  -0.0021940042   21.776974      20.425787      1.3511871      0.00036425437  77044.003    
      2000   0.86546688     0.0023323615   0.0034714157   21.677128      20.39191       1.2852183      0.0025814786   75607.1      
      3000   0.98199538     0.0023323615   0.0028144228   21.866132      20.407869      1.4582631      0.0011756043   74427.384    
      4000   1.004495       0.0023323615  -0.0014058211   21.945624      20.453949      1.4916751      0.011986179    74583.446    
      5000   1.1222705      0.0023323615   0.0044495116   21.986385      20.319813      1.6665718      0.0050317639   74554.414    
      6000   1.0538243      0.0023323615   0.0023957538   21.985713      20.420784      1.564929       0.012100514    75546.15     
      7000   1.0210598      0.0023323615  -0.00038820026  21.904665      20.388391      1.5162738      0              76848.345    
      8000   0.94819751     0.0023323615   0.0024943091   21.747889      20.339816      1.4080733      0              76999.698    
      9000   0.92364502     0.0023323615   0.0020053029   21.724166      20.352554      1.3716129      1.7780894e-05  74295.977    
     10000   0.86685188     0.0023323615   0.00078277366  21.644879      20.357604      1.287275       0.0098636418   76263.87     
     11000   1.0057103      0.0023323615   0.00010113276  21.8558        20.362321      1.4934798      0.020705341    75937.732    
     12000   0.97901664     0.0023323615  -0.0026996968   21.871206      20.417366      1.4538397      0.0052928539   75993.351    
     13000   0.97718436     0.0023323615  -6.1641422e-06  21.963706      20.512587      1.4511188      0.025022446    76009.316    
     14000   1.0530014      0.0023323615  -0.0009993112   21.947994      20.384287      1.5637071      0.0020860456   75320.511    
     15000   0.99094527     0.0023323615   0.0011068478   21.895146      20.423592      1.4715537      0.0015091113   76324.814    
     16000   0.91285091     0.0023323615  -0.00025424173  21.87524       20.519657      1.3555836      0.0047853639   75839.643    
     17000   0.82806978     0.0023323615  -0.00054698156  21.701984      20.472301      1.2296836      0              73694.77     
     18000   1.043278       0.0023323615  -6.6143919e-05  22.003299      20.454031      1.5492679      0.0034319132   77034.22     
     19000   1.0879249      0.0023323615  -0.0017804642   21.998985      20.383416      1.6155685      0.015376175    75454.147    
     20000   1.1144506      0.0023323615   0.0025198298   22.190904      20.535944      1.6549592      0              76655.173    
     21000   1.0427751      0.0023323615   0.0011345349   22.099492      20.550971      1.548521       0.00040047813  76758.866    
     22000   1.0586695      0.0023323615   0.0017882747   22.05673       20.484606      1.5721242      0              76584.597    
     23000   1.0058426      0.0023323615  -0.0055245362   21.954628      20.460951      1.4936763      0.0027619031   75660.799    
     24000   0.98273442     0.0023323615   0.0015147357   21.862067      20.402707      1.4593606      0              76040.649    
     25000   0.95835343     0.0023323615   0.0017808774   21.937761      20.514606      1.4231548      0.00020839942  73779.856    
     26000   0.93993778     0.0023323615  -0.0021777292   21.884849      20.489042      1.3958076      0.0088889834   76270.338    
     27000   0.9308188      0.0023323615  -0.00011239942  21.842252      20.459986      1.3822659      0.021612409    75344.165    
     28000   1.0149581      0.0023323615   0.0041996387   21.906846      20.399633      1.5072129      0.0064059022   76002.725    
     29000   0.92841138     0.0023323615  -2.5398808e-05  21.987185      20.608494      1.3786909      0.0046112484   75907.585    
     30000   1.021043       0.0023323615   0.001589158    22.097958      20.581709      1.5162489      0.016799508    72636.179    
     31000   1.0465985      0.0023323615  -0.0021744286   22.037917      20.483718      1.5541987      0.0057879149   76226.246    
     32000   0.98907108     0.0023323615  -0.0015558606   22.044089      20.575318      1.4687705      0.009448173    75954.199    
     33000   1.0918536      0.0023323615  -0.0025643847   22.039275      20.417873      1.6214025      0              72795.897    
     34000   0.99801543     0.0023323615   0.0016279766   21.932339      20.450286      1.4820529      0.017384617    77462.22     
     35000   1.0352271      0.0023323615  -0.0052971711   22.076004      20.538692      1.5373122      0.00010473809  75872.557    
     36000   1.1141579      0.0023323615  -0.00093279925  22.222491      20.567966      1.6545245      0.00033678641  77042.131    
     37000   1.0369415      0.0023323615   0.00013065175  22.217841      20.677983      1.5398581      0.013788831    76089.632    
     38000   1.0515596      0.0023323615   0.0021717558   22.070766      20.5092        1.561566       0.0067894678   76628.693    
     39000   1.0238495      0.0023323615   0.00026414509  22.040141      20.519725      1.5204165      0.00044464649  75619.639    
     40000   1.0749111      0.0023323615  -0.0026849368   22.039327      20.443084      1.596243       0.012651334    73048.479    
     41000   0.99070886     0.0023323615  -0.0030385564   22.03241       20.561207      1.4712027      0.00092855646  76562.333    
     42000   0.95315224     0.0023323615   0.0019788197   21.965263      20.549832      1.4154311      0.020233689    75857.685    
     43000   1.0644183      0.0023323615  -0.0011168725   22.287172      20.706511      1.5806611      0.039694129    75575.205    
     44000   1.0253747      0.0023323615  -0.006676522    22.066233      20.543552      1.5226814      0              75140.541    
     45000   0.94179556     0.0023323615  -0.0047206018   21.970644      20.572077      1.3985664      0.019869988    75275.408    
     46000   1.0083495      0.0023323615  -0.0017646918   21.972114      20.474715      1.497399       0.00026040605  75513.684    
     47000   0.98767959     0.0023323615  -0.00080218158  22.091674      20.62497       1.4667042      0.024266258    75308.18     
     48000   1.1473449      0.0023323615  -0.0025885687   22.080512      20.376705      1.7038072      0.00065962995  74687.636    
     49000   1.0679312      0.0023323615   0.0017688272   21.970482      20.384604      1.5858779      0.014142422    75736.754    
     50000   0.9581935      0.0023323615   0.0014398836   21.955202      20.532284      1.4229173      0.0055011948   76318.097    
     51000   1.0215759      0.0023323615  -0.00093292688  21.934681      20.41764       1.5170402      0              75875.505    
     52000   0.98079591     0.0023323615   0.0040701936   21.977374      20.520892      1.4564819      0.0020862422   76666.415    
     53000   1.0090927      0.0023323615   0.0013324753   22.095438      20.596935      1.4985027      0              76035.497    
     54000   0.97519627     0.0023323615   0.0013260734   22.070151      20.621984      1.4481665      0.026885444    77050.691    
     55000   1.1805087      0.0023323615  -0.001586238    22.424088      20.671033      1.7530554      0.024690954    76593.178    
     56000   0.98387121     0.0023323615   0.0037155145   22.104425      20.643376      1.4610487      0.01435493     76336.018    
     57000   1.0723812      0.0023323615  -0.0037916262   22.122726      20.53024       1.592486       0.013635549    75536.374    
     58000   1.0152349      0.0023323615   0.00021908047  22.082827      20.575203      1.5076238      0.00077375639  76320.666    
     59000   1.1424502      0.0023323615  -0.0052108657   22.30072       20.604182      1.6965385      0.013308184    77350.923    
     60000   1.0359703      0.0023323615  -0.00097887545  22.188218      20.649802      1.538416       0.00011346294  75479.764    
     61000   1.1646839      0.0023323615  -0.002085017    22.239945      20.51039       1.7295556      0.012918477    77888.917    
     62000   1.101836       0.0023323615   0.0010338878   22.171386      20.53516       1.6362265      0.001396566    76721.582    
     63000   0.96616435     0.0023323615   0.00097550571  21.903821      20.469067      1.4347541      0.013027663    77971.421    
     64000   1.0068907      0.0023323615  -0.0020278726   22.061652      20.566419      1.4952327      0.013750276    76574.662    
     65000   0.98723233     0.0023323615   0.0022441476   22.031073      20.565033      1.46604        0.0066686189   77010.988    
     66000   1.0273881      0.0023323615  -0.0003515278   22.183579      20.657908      1.5256713      0              75295.79     
     67000   0.96528212     0.0023323615  -0.00014822656  21.9396        20.506156      1.4334439      0.010365557    76788.042    
     68000   1.069702       0.0023323615   9.4754668e-05  22.081119      20.492611      1.5885075      0.00049153926  73276.935    
     69000   1.1229502      0.0023323615   0.0011504079   22.200329      20.532748      1.6675811      0.0068454249   77145.321    
     70000   1.0062775      0.0023323615  -0.00085311964  22.094021      20.599699      1.4943221      0.013222355    75548.552    
     71000   1.0906935      0.0023323615   0.00015260357  22.145362      20.525682      1.6196798      0.018338513    76031.67     
     72000   1.010401       0.0023323615  -6.0487182e-06  22.154105      20.653659      1.5004455      0.0013793953   75203.095    
     73000   1.1177599      0.0023323615  -0.0034084797   22.254435      20.594562      1.6598735      0.00011231735  77821.387    
     74000   0.9768019      0.0023323615   0.00016143893  22.07312       20.622569      1.4505508      0.0084515956   74541.388    
     75000   1.1360996      0.0023323615   0.002159116    22.161595      20.474487      1.6871079      0.0089909162   76300.075    
     76000   0.97379329     0.0023323615  -0.00068458621  21.988928      20.542845      1.446083       0              73714.799    
     77000   0.94876793     0.0023323615  -0.0016073976   21.923496      20.514575      1.4089204      0.017745108    75282.617    
     78000   0.83947996     0.0023323615  -0.00062768559  21.726727      20.480099      1.2466277      0.0054510099   76510.046    
     79000   1.0090614      0.0023323615  -0.00080262643  22.068192      20.569736      1.4984562      0.00023011166  75958.301    
     80000   1.1217643      0.0023323615  -0.0038177864   22.367902      20.702082      1.66582        0.032902439    75044.719    
     81000   1.0240158      0.0023323615   0.00023547123  22.031597      20.510933      1.5206635      0.0068767308   75899.335    
     82000   1.003236       0.0023323615  -0.0022802982   21.894199      20.404393      1.4898055      0.019136282    75046.245    
     83000   1.0554159      0.0023323615   0.004011718    22.104562      20.537269      1.5672927      0.0080869707   74803.111    
     84000   0.83527346     0.0023323615  -0.0034122221   21.874648      20.634267      1.2403811      0.0030083664   76208.668    
     85000   1.036002       0.0023323615   0.0013573923   21.962923      20.42446       1.5384629      0.015709144    76729.129    
     86000   0.9432002      0.0023323615  -0.0032183248   21.913588      20.512936      1.4006523      0.013730309    76477.858    
     87000   0.95566008     0.0023323615  -0.00049614223  21.91653       20.497375      1.4191552      0.0035862035   74615.055    
     88000   0.93373351     0.0023323615  -0.00097093893  21.870485      20.483891      1.3865943      0.0018212145   75421.817    
     89000   0.9684944      0.0023323615  -0.00047342045  21.973429      20.535215      1.4382142      0.00087524744  74923.608    
     90000   0.98293324     0.0023323615  -0.0032204602   22.050919      20.591263      1.4596559      0.015353933    76989.3      
     91000   1.0832827      0.0023323615   0.0048517083   22.11977       20.511095      1.6086749      0.0052867789   77944.084    
     92000   0.85899662     0.0023323615  -0.0013049519   21.765697      20.490087      1.27561        0.0024124001   76760.757    
     93000   0.96176266     0.0023323615  -4.4223672e-05  21.874222      20.446004      1.4282176      0.0045653365   77505.825    
     94000   0.96019503     0.0023323615   0.00024459347  21.944954      20.519064      1.4258896      3.8053462e-05  76839.529    
     95000   0.94702149     0.0023323615  -0.0033658915   21.86315       20.456823      1.4063269      0              77651.08     
     96000   0.91119348     0.0023323615  -0.0013197298   21.825018      20.471896      1.3531223      0.00043282989  76378.895    
     97000   1.0016687      0.0023323615  -0.0019514304   22.013024      20.525546      1.487478       0.0048369955   75359.353    
     98000   1.02143        0.0023323615  -0.0057874974   22.177965      20.661142      1.5168235      0              73752.383    
     99000   1.032786       0.0023323615   0.0018228259   21.975336      20.441649      1.5336871      7.1595851e-05  77777.118    
    100000   1.0594928      0.0023323615   0.0036169719   22.011024      20.437677      1.5733468      0.00032948157  76273.485    
    100362   1.1904942      0.0023323615  -0.00089755607  22.316856      20.548972      1.7678839      0.00063845255  75753.311    
Loop time of 1.31801 on 1 procs for 100000 steps with 100 atoms

Performance: 32776654.084 tau/day, 75871.884 timesteps/s
98.8% CPU use with 1 MPI tasks x 1 OpenMP threads

MPI task timing breakdown:
Section |  min time  |  avg time  |  max time  |%varavg| %total
---------------------------------------------------------------
Pair    | 0.050014   | 0.050014   | 0.050014   |   0.0 |  3.79
Bond    | 0.12635    | 0.12635    | 0.12635    |   0.0 |  9.59
Neigh   | 0.80521    | 0.80521    | 0.80521    |   0.0 | 61.09
Comm    | 0.055449   | 0.055449   | 0.055449   |   0.0 |  4.21
Output  | 0.0013369  | 0.0013369  | 0.0013369  |   0.0 |  0.10
Modify  | 0.24475    | 0.24475    | 0.24475    |   0.0 | 18.57
Other   |            | 0.0349     |            |       |  2.65

Nlocal:            100 ave         100 max         100 min
Histogram: 1 0 0 0 0 0 0 0 0 0
Nghost:             60 ave          60 max          60 min
Histogram: 1 0 0 0 0 0 0 0 0 0
Neighs:             36 ave          36 max          36 min
Histogram: 1 0 0 0 0 0 0 0 0 0

Total # of neighbors = 36
Ave neighs/atom = 0.36
Ave special neighs/atom = 1.98
Neighbor list builds = 9821
Dangerous builds = 8265
unfix           nvtSoft
unfix           rampSoft
reset_timestep  0

write_data      ${outputfile_relaxed}
write_data      5_relaxed.data
System init for write_data ...
Generated 0 of 6 mixed pair_coeff terms from geometric mixing rule
WARNING: Communication cutoff 1.3 is shorter than a bond length based estimate of 1.7550000000000001. This may lead to errors. (src/comm.cpp:727)
WARNING: Not all mixed pair coeffs generated from mixing. Use write_data with 'pair ij' option to store all pair coeffs. (src/write_data.cpp:309)

###########################################################################
# Full LJ with Coulomb
######################################################################

# Cutoffs and parameters:
# - Values: Marcel Verkade's Bachelor Thesis
# - Mapping to atom groups: Patrick Onck's paper
# - 1: aliphatic, 2: aromatic, 3: anion, 4: cation
# pair_style	lj/cut/coul/cut <lj_cut_global> <coul_cut_global>
# pair_coeff	<type_1>  <type_2>  <eps>  <sigma>  <r_cut_lj>  <r_cut_coul>

# Problem: Onck's model is much more complex, and Marcel has no sigma reported
# Using sigma=1 randomly

variable		glob_ljeps equal 1.0
variable		glob_ljsig 	equal 1.0
variable		glob_coulcut equal 10.0
variable		att_ljcut equal 2.50
variable		rep_ljcut equal 1.12

pair_style		lj/cut/coul/cut 						${att_ljcut} 	${glob_coulcut}
pair_style		lj/cut/coul/cut 						2.5 	${glob_coulcut}
pair_style		lj/cut/coul/cut 						2.5 	10
pair_coeff		1 1 	${glob_ljeps} 	${glob_ljsig}	${att_ljcut} 	${glob_coulcut}
pair_coeff		1 1 	1 	${glob_ljsig}	${att_ljcut} 	${glob_coulcut}
pair_coeff		1 1 	1 	1	${att_ljcut} 	${glob_coulcut}
pair_coeff		1 1 	1 	1	2.5 	${glob_coulcut}
pair_coeff		1 1 	1 	1	2.5 	10
pair_coeff		1 2 	${glob_ljeps} 	${glob_ljsig}	${att_ljcut} 	${glob_coulcut}
pair_coeff		1 2 	1 	${glob_ljsig}	${att_ljcut} 	${glob_coulcut}
pair_coeff		1 2 	1 	1	${att_ljcut} 	${glob_coulcut}
pair_coeff		1 2 	1 	1	2.5 	${glob_coulcut}
pair_coeff		1 2 	1 	1	2.5 	10
pair_coeff		1 3 	${glob_ljeps} 	${glob_ljsig}	${rep_ljcut} 	${glob_coulcut}
pair_coeff		1 3 	1 	${glob_ljsig}	${rep_ljcut} 	${glob_coulcut}
pair_coeff		1 3 	1 	1	${rep_ljcut} 	${glob_coulcut}
pair_coeff		1 3 	1 	1	1.12 	${glob_coulcut}
pair_coeff		1 3 	1 	1	1.12 	10
pair_coeff		1 4 	${glob_ljeps} 	${glob_ljsig}	${rep_ljcut} 	${glob_coulcut}
pair_coeff		1 4 	1 	${glob_ljsig}	${rep_ljcut} 	${glob_coulcut}
pair_coeff		1 4 	1 	1	${rep_ljcut} 	${glob_coulcut}
pair_coeff		1 4 	1 	1	1.12 	${glob_coulcut}
pair_coeff		1 4 	1 	1	1.12 	10
pair_coeff		2 2 	${glob_ljeps} 	${glob_ljsig}	${att_ljcut} 	${glob_coulcut}
pair_coeff		2 2 	1 	${glob_ljsig}	${att_ljcut} 	${glob_coulcut}
pair_coeff		2 2 	1 	1	${att_ljcut} 	${glob_coulcut}
pair_coeff		2 2 	1 	1	2.5 	${glob_coulcut}
pair_coeff		2 2 	1 	1	2.5 	10
pair_coeff		2 3 	${glob_ljeps} 	${glob_ljsig}	${rep_ljcut} 	${glob_coulcut}
pair_coeff		2 3 	1 	${glob_ljsig}	${rep_ljcut} 	${glob_coulcut}
pair_coeff		2 3 	1 	1	${rep_ljcut} 	${glob_coulcut}
pair_coeff		2 3 	1 	1	1.12 	${glob_coulcut}
pair_coeff		2 3 	1 	1	1.12 	10
pair_coeff		2 4 	${glob_ljeps} 	${glob_ljsig}	${att_ljcut} 	${glob_coulcut}
pair_coeff		2 4 	1 	${glob_ljsig}	${att_ljcut} 	${glob_coulcut}
pair_coeff		2 4 	1 	1	${att_ljcut} 	${glob_coulcut}
pair_coeff		2 4 	1 	1	2.5 	${glob_coulcut}
pair_coeff		2 4 	1 	1	2.5 	10
pair_coeff		3 3 	${glob_ljeps} 	${glob_ljsig}	${rep_ljcut} 	${glob_coulcut}
pair_coeff		3 3 	1 	${glob_ljsig}	${rep_ljcut} 	${glob_coulcut}
pair_coeff		3 3 	1 	1	${rep_ljcut} 	${glob_coulcut}
pair_coeff		3 3 	1 	1	1.12 	${glob_coulcut}
pair_coeff		3 3 	1 	1	1.12 	10
pair_coeff		3 4 	${glob_ljeps} 	${glob_ljsig}	${att_ljcut} 	${glob_coulcut}
pair_coeff		3 4 	1 	${glob_ljsig}	${att_ljcut} 	${glob_coulcut}
pair_coeff		3 4 	1 	1	${att_ljcut} 	${glob_coulcut}
pair_coeff		3 4 	1 	1	2.5 	${glob_coulcut}
pair_coeff		3 4 	1 	1	2.5 	10
pair_coeff		4 4 	${glob_ljeps} 	${glob_ljsig}	${rep_ljcut} 	${glob_coulcut}
pair_coeff		4 4 	1 	${glob_ljsig}	${rep_ljcut} 	${glob_coulcut}
pair_coeff		4 4 	1 	1	${rep_ljcut} 	${glob_coulcut}
pair_coeff		4 4 	1 	1	1.12 	${glob_coulcut}
pair_coeff		4 4 	1 	1	1.12 	10


fix             noDriftRot 	all momentum 10 linear 1 1 1 angular
fix             nvt1 		all nvt temp ${Temp} ${Temp} 0.5
fix             nvt1 		all nvt temp 1 ${Temp} 0.5
fix             nvt1 		all nvt temp 1 1 0.5

# dump          assemble 	all custom 1000 				${outputfile_selfasb} id type xu yu zu vx vy vz
dump            lindump 	all custom ${subsample_rate} 	${outputfile_trajlin} id type xu yu zu vx vy vz
dump            lindump 	all custom 1000 	${outputfile_trajlin} id type xu yu zu vx vy vz
dump            lindump 	all custom 1000 	6_b_trajlin.data id type xu yu zu vx vy vz

run             ${runtime}
run             1000000
Generated 0 of 6 mixed pair_coeff terms from geometric mixing rule
Neighbor list info ...
  update every 1 steps, delay 10 steps, check yes
  max neighbors/atom: 2000, page size: 100000
  master list distance cutoff = 10.3
  ghost atom cutoff = 10.3
  binsize = 5.15, bins = 7 7 7
  1 neighbor lists, perpetual/occasional/extra = 1 0 0
  (1) pair lj/cut/coul/cut, perpetual
      attributes: half, newton on
      pair build: half/bin/newton
      stencil: half/bin/3d
      bin: standard
Per MPI rank memory allocation (min/avg/max) = 7.712 | 7.712 | 7.712 Mbytes
   Step          Temp         Density         Press          TotEng         PotEng         KinEng         E_pair         S/CPU     
         0   1.1904942      0.0023323615  -0.0013054663   22.017616      20.249732      1.7678839     -0.29860226     0            
      1000   1.1257938      0.0023323615  -0.00069939231  21.589127      19.917323      1.6718038     -0.65713647     33526.933    
      2000   0.87897988     0.0023323615   0.0029595203   21.08931       19.784025      1.3052851     -0.67902647     30414.341    
      3000   1.0103527      0.0023323615  -0.0037813616   21.247762      19.747389      1.5003737     -0.72741089     25168.848    
      4000   1.0003008      0.0023323615   0.0014255492   20.7293        19.243853      1.4854467     -1.1400442      20364.658    
      5000   1.0367089      0.0023323615   0.0016172878   20.691667      19.152154      1.5395127     -1.3573088      18416.578    
      6000   0.98011631     0.0023323615   0.0071619915   20.384739      18.929266      1.4554727     -1.5942025      18517.647    
      7000   1.0821615      0.0023323615  -0.0039827345   20.850478      19.243468      1.6070098     -1.2783703      18470.219    
      8000   1.0567875      0.0023323615  -0.0022700446   20.889628      19.320299      1.5693295     -1.2111503      18720.992    
      9000   0.95627847     0.0023323615   0.0021520742   20.544346      19.124272      1.4200735     -1.3274621      18833.965    
     10000   0.97631408     0.0023323615  -0.0024910341   20.86583       19.416004      1.4498264     -1.131318       18745.787    
     11000   1.1454143      0.0023323615  -0.00240204     20.706581      19.005641      1.7009402     -1.4459677      18598.332    
     12000   0.99383369     0.0023323615  -0.00022619589  20.894718      19.418875      1.475843      -1.2437424      18531.602    
     13000   0.99832581     0.0023323615   0.00068290967  20.826344      19.34383       1.4825138     -1.1164345      18721.687    
     14000   1.1407615      0.0023323615   0.0041167707   20.702876      19.008846      1.6940308     -1.4143242      18583.103    
     15000   1.0170514      0.0023323615   0.004401083    20.818522      19.308201      1.5103213     -1.1626392      18712.242    
     16000   0.97792387     0.0023323615  -0.001398586    20.567296      19.115079      1.4522169     -1.4095142      18556.249    
     17000   1.015742       0.0023323615   0.00032519626  20.49485       18.986473      1.5083769     -1.5112248      18308.347    
     18000   0.9944996      0.0023323615   0.00223952     20.56225       19.085418      1.4768319     -1.3307553      18524.063    
     19000   0.98211658     0.0023323615   0.00015465014  20.854465      19.396022      1.4584431     -1.1654066      18930.596    
     20000   1.0602392      0.0023323615   0.00074498046  20.756819      19.182364      1.5744553     -1.1926868      18820.161    
     21000   0.94632442     0.0023323615  -7.1284612e-05  20.975336      19.570044      1.4052918     -1.0207868      18698.935    
     22000   1.0015426      0.0023323615   0.00059089256  20.546362      19.059071      1.4872907     -1.4644949      18569.869    
     23000   1.0437181      0.0023323615  -0.003864439    20.840544      19.290622      1.5499213     -1.2903908      18606.06     
     24000   0.99594931     0.0023323615   0.0005351805   20.905773      19.426788      1.4789847     -1.2265945      18625.249    
     25000   1.0440858      0.0023323615   0.0011307747   20.847925      19.297458      1.5504674     -1.3676578      18651.352    
     26000   0.92895828     0.0023323615   0.0051325338   20.622151      19.242647      1.379503      -1.3529114      18463.894    
     27000   0.94159347     0.0023323615   0.00332181     20.464177      19.065911      1.3982663     -1.3599757      18500.667    
     28000   1.2003398      0.0023323615   0.00049973973  20.80744       19.024936      1.7825046     -1.5010937      18460.906    
     29000   1.1273762      0.0023323615   0.00090576875  20.848287      19.174134      1.6741537     -1.3867504      18620.242    
     30000   1.14987        0.0023323615   0.00021574868  20.931578      19.224021      1.7075569     -1.2589691      18549.176    
     31000   0.9808687      0.0023323615   0.00025932478  20.770309      19.313719      1.45659       -1.2026012      18656.281    
     32000   1.0370462      0.0023323615   0.0069812366   20.751168      19.211154      1.5400136     -1.3728817      18792.109    
     33000   1.0712875      0.0023323615  -0.0031502479   20.476612      18.885751      1.5908619     -1.4804241      18419.813    
     34000   0.93774697     0.0023323615   0.0011576734   20.30485       18.912296      1.3925542     -1.5466209      18373.902    
     35000   1.0745431      0.0023323615   0.00018299015  20.766572      19.170876      1.5956966     -1.4193205      18293.673    
     36000   0.93124996     0.0023323615  -0.00060165252  20.570126      19.18722       1.3829062     -1.2857912      18570.539    
     37000   0.9301292      0.0023323615  -0.0024658282   20.727847      19.346605      1.3812419     -1.2532414      18577.642    
     38000   1.0726358      0.0023323615   0.0014915007   20.442476      18.849612      1.5928641     -1.6472202      18469.771    
     39000   1.0347796      0.0023323615  -0.00033555795  20.699886      19.163238      1.5366478     -1.407825       18421.842    
     40000   0.95774363     0.0023323615   0.0014363254   20.297127      18.874878      1.4222493     -1.5915669      18590.995    
     41000   0.9778869      0.0023323615  -0.0036421639   20.608415      19.156253      1.452162      -1.4002371      18509.419    
     42000   0.85021309     0.0023323615  -0.0013491401   20.266019      19.003452      1.2625664     -1.4884315      18233.967    
     43000   0.97472761     0.0023323615  -0.0012359811   20.397909      18.950438      1.4474705     -1.5237854      18231.139    
     44000   1.0704723      0.0023323615  -0.0016817061   20.693279      19.103628      1.5896514     -1.3934505      18191.303    
     45000   1.0405937      0.0023323615   0.00049344789  20.538575      18.993293      1.5452817     -1.4940357      18355.244    
     46000   1.1246491      0.0023323615   0.0013169751   20.666556      18.996452      1.6701039     -1.5220202      18273.126    
     47000   0.98159366     0.0023323615  -4.449052e-05   20.5135        19.055834      1.4576666     -1.4788209      18179.124    
     48000   1.080741       0.0023323615  -0.003782934    20.755318      19.150417      1.6049004     -1.4123244      18208.201    
     49000   1.0274298      0.0023323615  -0.0043425689   20.53724       19.011506      1.5257333     -1.4765727      18471.213    
     50000   1.1398046      0.0023323615  -0.0023627355   20.529862      18.837252      1.6926098     -1.6766781      18287.938    
     51000   0.91380804     0.0023323615  -0.0017610066   20.468017      19.111012      1.3570049     -1.389714       18274.515    
     52000   1.0154544      0.0023323615  -0.0047981882   20.412463      18.904513      1.5079498     -1.6372025      18380.239    
     53000   0.98975342     0.0023323615  -0.0014708037   20.684606      19.214822      1.4697838     -1.2436934      18445.949    
     54000   1.089709       0.0023323615   0.00073146703  20.68107       19.062852      1.6182179     -1.4822273      18580.644    
     55000   1.1337291      0.0023323615  -0.00045480148  20.574217      18.89063       1.6835877     -1.5952169      18483.917    
     56000   0.93302159     0.0023323615   0.0036510387   20.196834      18.811297      1.3855371     -1.7516049      18376.01     
     57000   0.82977238     0.0023323615  -0.0011779125   20.245512      19.0133        1.232212      -1.428249       18355.422    
     58000   1.0064377      0.0023323615  -0.00033527072  20.600885      19.106325      1.49456       -1.5050719      18254.362    
     59000   0.90711076     0.0023323615  -0.0010710301   20.337053      18.989994      1.3470595     -1.4315434      18312.525    
     60000   0.85071052     0.0023323615  -9.7891281e-05  20.371766      19.108461      1.2633051     -1.3298859      18474.995    
     61000   0.9313849      0.0023323615   0.0010608674   20.659579      19.276472      1.3831066     -1.1812031      18420.384    
     62000   0.90048166     0.0023323615   0.00081372504  20.480449      19.143234      1.3372153     -1.3676384      18296.869    
     63000   0.99548835     0.0023323615   0.00093844555  20.753644      19.275344      1.4783002     -1.2182773      18466.313    
     64000   0.99638887     0.0023323615  -0.002647473    20.511407      19.03177       1.4796375     -1.4227561      18464.878    
     65000   0.9352317      0.0023323615   0.0022719037   20.357137      18.968318      1.3888191     -1.414906       18463.143    
     66000   1.036548       0.0023323615   0.0023436218   20.77977       19.240497      1.5392737     -1.4120912      18515.991    
     67000   1.0114144      0.0023323615   0.00089310312  20.656245      19.154294      1.5019504     -1.3042325      18526.439    
     68000   0.99510916     0.0023323615   0.00022570981  20.716808      19.239071      1.4777371     -1.2699349      18418.494    
     69000   0.98021733     0.0023323615  -0.00068422855  20.491803      19.03618       1.4556227     -1.5705015      18407.434    
     70000   0.98147897     0.0023323615  -0.00065832375  20.36422       18.906724      1.4574963     -1.5640139      18406.939    
     71000   0.98393524     0.0023323615   0.0025155728   20.719728      19.258584      1.4611438     -1.2825389      18495.251    
     72000   0.91706352     0.0023323615   0.0015954896   20.387239      19.0254        1.3618393     -1.4767621      18578.036    
     73000   0.93201607     0.0023323615  -0.003205253    20.794228      19.410184      1.3840439     -1.1085303      18490.002    
     74000   0.86961859     0.0023323615  -0.002671262    20.265477      18.974094      1.2913836     -1.5126151      18426.662    
     75000   1.0051035      0.0023323615  -0.0013381508   20.535039      19.04246       1.4925787     -1.3932003      18538.751    
     76000   1.2690948      0.0023323615  -0.0016363662   21.04913       19.164524      1.8846057     -1.3603579      18527.849    
     77000   0.99068474     0.0023323615  -0.0010220401   20.861802      19.390635      1.4711668     -1.165507       18607.159    
     78000   0.92352874     0.0023323615  -0.0049938462   20.750922      19.379482      1.3714402     -1.2352908      18582.688    
     79000   0.89967746     0.0023323615   0.0033212118   20.438316      19.102295      1.336021      -1.3829194      18495.272    
     80000   1.0296098      0.0023323615   0.00058498396  20.805636      19.276666      1.5289705     -1.3090322      18399.362    
     81000   1.0954245      0.0023323615  -0.0027318611   20.566533      18.939828      1.6267054     -1.5055164      18425.101    
     82000   0.98247447     0.0023323615   0.00055238966  20.529373      19.070399      1.4589746     -1.4636335      18455.561    
     83000   0.96308937     0.0023323615   0.0034885779   20.261279      18.831092      1.4301877     -1.5060528      18397.287    
     84000   0.83863482     0.0023323615  -0.0038284468   20.291931      19.046558      1.2453727     -1.382228       18239.668    
     85000   1.0475272      0.0023323615   0.0013297702   20.355884      18.800306      1.5555778     -1.6708533      18299.71     
     86000   0.94214731     0.0023323615  -0.00023811643  20.303918      18.904829      1.3990888     -1.5993291      18378.168    
     87000   0.99516192     0.0023323615   0.003434383    20.694217      19.216402      1.4778155     -1.3990269      18522.771    
     88000   1.0192148      0.0023323615   0.0015715481   20.304711      18.791177      1.513534      -1.6128479      18463.884    
     89000   1.0065039      0.0023323615   0.0016849893   20.51895       19.024292      1.4946582     -1.4213042      18265.984    
     90000   0.98621459     0.0023323615  -0.0036840592   20.786482      19.321954      1.4645287     -1.2964567      18499.135    
     91000   0.91079607     0.0023323615  -0.0016216994   20.477462      19.124929      1.3525322     -1.3423415      18589.475    
     92000   0.97617908     0.0023323615   0.0013271439   20.615612      19.165986      1.4496259     -1.3271942      18547.188    
     93000   1.1278533      0.0023323615   0.0011309718   20.423717      18.748855      1.6748621     -1.7675607      18426.281    
     94000   1.0250588      0.0023323615   0.0013730517   20.894834      19.372622      1.5222122     -1.1979195      18416.774    
     95000   1.0603504      0.0023323615  -0.00095300407  20.840423      19.265803      1.5746203     -1.2839998      18411.472    
     96000   0.92002474     0.0023323615  -0.0034359818   20.459224      19.092987      1.3662367     -1.4600544      18461.367    
     97000   1.0156256      0.0023323615  -0.0035386355   20.954295      19.446091      1.508204      -1.0898266      18486.033    
     98000   1.0664666      0.0023323615   0.0001594454   20.80266       19.218957      1.5837028     -1.3415238      18980.151    
     99000   1.0013963      0.0023323615   0.0039576036   20.875569      19.388496      1.4870735     -1.0877752      19715.808    
    100000   1.1411777      0.0023323615   0.00011208427  20.95424       19.259592      1.694649      -1.1416632      19076.498    
    101000   1.0114704      0.0023323615   1.9175551e-05  20.636601      19.134568      1.5020335     -1.334737       18737.717    
    102000   1.0795704      0.0023323615   0.0012235644   20.812846      19.209684      1.603162      -1.3487035      18673.772    
    103000   1.1210768      0.0023323615  -0.0024889677   21.06644       19.401641      1.6647991     -1.2012411      18635.417    
    104000   1.0143587      0.0023323615  -0.00093074765  20.791098      19.284775      1.5063227     -1.3031331      18593.329    
    105000   1.0035166      0.0023323615   0.00090488385  20.419942      18.92972       1.4902222     -1.5261753      18543.308    
    106000   1.0105245      0.0023323615   0.0015433284   20.466365      18.965736      1.5006289     -1.441346       18445.438    
    107000   0.9108595      0.0023323615  -0.00048456777  20.327169      18.974543      1.3526264     -1.5133869      18355.152    
    108000   0.9769621      0.0023323615   0.0026353317   20.727863      19.277074      1.4507887     -1.3236726      18401.984    
    109000   0.98380506     0.0023323615  -0.004357878    20.514276      19.053325      1.4609505     -1.4344188      18293.093    
    110000   1.101742       0.0023323615   0.0037929135   20.794329      19.158242      1.6360868     -1.4547087      18497.856    
    111000   0.84706592     0.0023323615   0.0037003907   20.226163      18.96827       1.2578929     -1.5985698      18298.456    
    112000   1.0794741      0.0023323615   0.00041837293  20.653569      19.05055       1.603019      -1.4846043      18421.972    
    113000   0.92007218     0.0023323615   0.00046056976  20.241729      18.875422      1.3663072     -1.6836639      18391.49     
    114000   0.9683184      0.0023323615  -0.00075013866  20.577571      19.139618      1.4379528     -1.3991232      18360.7      
    115000   1.0130537      0.0023323615   0.0035356401   20.527925      19.02354       1.5043847     -1.4416585      18398.765    
    116000   0.91439567     0.0023323615  -5.4783542e-06  20.411471      19.053594      1.3578776     -1.4988412      18471.634    
    117000   1.157263       0.0023323615   0.001787389    20.810909      19.092374      1.7185356     -1.581191       18396.934    
    118000   1.0585839      0.0023323615  -0.00016094612  20.812906      19.240909      1.571997      -1.320044       18462.084    
    119000   1.0344035      0.0023323615   0.0017037702   20.439935      18.903846      1.5360891     -1.607821       18551.269    
    120000   1.0943341      0.0023323615   0.002411272    20.897527      19.272441      1.6250861     -1.3113399      18499.303    
    121000   1.0468042      0.0023323615  -0.0006176677   20.60962       19.055116      1.5545042     -1.5033182      18442.896    
    122000   1.0239577      0.0023323615  -0.0013901122   20.567555      19.046978      1.5205773     -1.4797671      18535.573    
    123000   0.92431876     0.0023323615  -0.0020736591   20.371458      18.998845      1.3726134     -1.4974711      18530.832    
    124000   0.94349027     0.0023323615  -0.0025675499   20.370508      18.969425      1.4010831     -1.4943254      18449.185    
    125000   1.133042       0.0023323615  -0.00057652388  21.069963      19.387396      1.6825673     -1.1716915      18529.565    
    126000   1.0521792      0.0023323615   0.0032037171   20.449828      18.887342      1.5624861     -1.5941707      18503.799    
    127000   0.91108688     0.0023323615  -0.0015808907   20.338538      18.985574      1.352964      -1.4601692      18453.343    
    128000   0.97863492     0.0023323615   0.00310372     20.770677      19.317404      1.4532729     -1.3943656      18369.878    
    129000   1.1159242      0.0023323615   3.4720097e-05  20.684792      19.027645      1.6571474     -1.5056082      18464.53     
    130000   1.1498944      0.0023323615  -0.0017109826   20.975502      19.267909      1.7075931     -1.2452944      18527.722    
    131000   1.0436856      0.0023323615   0.0010229253   20.654379      19.104506      1.5498731     -1.4290452      18454.151    
    132000   1.0168121      0.0023323615   0.0025680393   20.757038      19.247072      1.509966      -1.2994065      18476.722    
    133000   0.85713926     0.0023323615  -0.0016218438   20.281115      19.008263      1.2728518     -1.4858554      18382.849    
    134000   1.1202921      0.0023323615   1.4273896e-05  20.491         18.827367      1.6636337     -1.5892167      18299.271    
    135000   0.93332272     0.0023323615   0.00059778814  20.55252       19.166536      1.3859842     -1.3740717      18365.893    
    136000   0.91702621     0.0023323615  -0.0018024319   20.458082      19.096298      1.3617839     -1.4199482      18477.389    
    137000   0.91011196     0.0023323615   0.00024051779  20.564165      19.212648      1.3515163     -1.3084777      18371.149    
    138000   1.0064683      0.0023323615  -0.0012435179   20.736034      19.241429      1.4946054     -1.2590694      18504.499    
    139000   1.1490059      0.0023323615  -0.00081278589  20.829977      19.123704      1.7062738     -1.4754813      18516.276    
    140000   0.95621        0.0023323615  -0.0019202172   20.684711      19.264739      1.4199719     -1.2593853      18507.683    
    141000   0.78887751     0.0023323615  -0.0024097179   20.488529      19.317046      1.1714831     -1.2504267      18565.997    
    142000   0.97826785     0.0023323615   0.003536959    20.644416      19.191688      1.4527278     -1.3523138      18706.102    
    143000   0.98879584     0.0023323615   0.0022801904   20.460309      18.991947      1.4683618     -1.5051776      18509.385    
    144000   0.98713409     0.0023323615   0.0049249022   20.565097      19.099203      1.4658941     -1.3871095      18477.922    
    145000   1.0395724      0.0023323615   0.0025105996   20.670804      19.127039      1.543765      -1.5110178      18432.195    
    146000   0.9037306      0.0023323615   0.00045948375  20.578736      19.236696      1.3420399     -1.2549718      18528.682    
    147000   1.071344       0.0023323615   0.0031284352   20.842073      19.251128      1.5909459     -1.3355922      18619.047    
    148000   1.0413398      0.0023323615   0.0031507404   20.678943      19.132553      1.5463895     -1.5093344      18354.44     
    149000   0.92315319     0.0023323615  -0.0018955617   20.405235      19.034352      1.3708825     -1.4062065      18448.919    
    150000   1.0986032      0.0023323615  -0.0015024565   20.826501      19.195076      1.6314257     -1.2609164      18586.934    
    151000   1.057801       0.0023323615  -0.0016634101   20.717807      19.146973      1.5708345     -1.2719411      18541.499    
    152000   1.0716577      0.0023323615   0.00050794222  20.677583      19.086171      1.5914117     -1.5624974      18575.108    
    153000   0.94061669     0.0023323615   0.0015352727   20.434848      19.038032      1.3968158     -1.5242935      18353.586    
    154000   1.0757392      0.0023323615  -0.0022863036   20.552178      18.954705      1.5974728     -1.53674        18329.532    
    155000   0.94059392     0.0023323615  -0.00015581328  20.263143      18.866361      1.396782      -1.6471104      18475.463    
    156000   0.96022634     0.0023323615  -0.0051093085   20.350629      18.924692      1.4259361     -1.6309188      18502.087    
    157000   1.1634996      0.0023323615  -0.00053548531  20.860032      19.132235      1.7277969     -1.3803826      18464.018    
    158000   1.1224592      0.0023323615   0.0023793859   20.537322      18.87047       1.6668519     -1.5351367      18597.382    
    159000   0.97899888     0.0023323615  -0.001322303    20.49425       19.040437      1.4538133     -1.5503673      18561.122    
    160000   1.1965146      0.0023323615   0.00029384853  20.656395      18.879571      1.7768242     -1.6035661      18517.705    
    161000   0.95232323     0.0023323615  -0.0050971709   20.543834      19.129634      1.4142        -1.4322381      18422.934    
    162000   0.93795574     0.0023323615  -0.0019814566   20.478164      19.0853        1.3928643     -1.5050004      18443.632    
    163000   0.99425666     0.0023323615  -0.00058930363  20.605485      19.129014      1.4764711     -1.2573612      18671.543    
    164000   1.0573167      0.0023323615  -0.0024197535   20.64336       19.073244      1.5701153     -1.449912       18599.261    
    165000   0.97243736     0.0023323615  -0.0022609057   20.489027      19.044957      1.4440695     -1.5055173      18444.385    
    166000   1.0774648      0.0023323615   0.0013031759   20.506058      18.906023      1.6000353     -1.7130627      18489.077    
    167000   1.0775873      0.0023323615   0.0015064397   20.740346      19.140129      1.6002171     -1.4765533      18395.276    
    168000   1.0890473      0.0023323615  -0.0015852591   20.735072      19.117837      1.6172353     -1.2586891      18647.16     
    169000   0.92909623     0.0023323615   0.0015736307   20.687898      19.30819       1.3797079     -1.1141357      18687.497    
    170000   1.0822525      0.0023323615   0.0021795903   20.608018      19.000873      1.607145      -1.4719617      18578.489    
    171000   1.16712        0.0023323615   0.00055209864  20.980177      19.247004      1.7331731     -1.4988825      18575.941    
    172000   0.93110034     0.0023323615  -0.0023538616   20.052403      18.669719      1.382684      -1.8174633      18468.472    
    173000   1.0186277      0.0023323615  -0.00060959101  20.390206      18.877544      1.5126621     -1.7011591      18461.746    
    174000   0.99509942     0.0023323615   0.0033714316   20.67081       19.193087      1.4777226     -1.4143134      18450.335    
    175000   1.0486969      0.0023323615   0.0047529796   20.459598      18.902283      1.5573149     -1.5984718      18391.89     
    176000   0.99263946     0.0023323615   0.0013568351   20.432305      18.958235      1.4740696     -1.5849841      18349.301    
    177000   1.0160391      0.0023323615  -0.0017877448   20.612749      19.103931      1.5088181     -1.3497074      18535.481    
    178000   0.98809482     0.0023323615   0.00030988627  20.774189      19.306868      1.4673208     -1.2461618      18562.523    
    179000   0.98887671     0.0023323615  -0.00024969014  20.596178      19.127696      1.4684819     -1.4275164      18647.557    
    180000   0.94231457     0.0023323615   0.003807552    20.622857      19.22352       1.3993371     -1.3243429      18814.354    
    181000   1.0040009      0.0023323615  -0.00160806     20.896891      19.40595       1.4909414     -1.2041816      18854.475    
    182000   0.98797827     0.0023323615   0.0026599474   20.707869      19.240721      1.4671477     -1.2831905      18688.694    
    183000   0.88961788     0.0023323615   0.0012238118   20.346416      19.025333      1.3210826     -1.5122535      18634.328    
    184000   1.0161764      0.0023323615   0.00077200332  20.859506      19.350484      1.5090219     -1.1174201      18471.354    
    185000   1.0954331      0.0023323615   0.0016523028   20.59946       18.972742      1.6267181     -1.5652768      18488.084    
    186000   0.97455328     0.0023323615   0.0017790604   20.402195      18.954984      1.4472116     -1.4788245      18397.846    
    187000   1.0947619      0.0023323615  -0.0011884852   20.808922      19.1832        1.6257215     -1.337571       18561.522    
    188000   1.0512335      0.0023323615   0.0036400727   20.930954      19.369872      1.5610818     -1.2255639      18553.469    
    189000   1.1134291      0.0023323615   0.0014818913   20.927713      19.27427       1.6534422     -1.2076164      18477.96     
    190000   1.0479024      0.0023323615   0.00092696694  20.656184      19.100049      1.556135      -1.3918995      18496.831    
    191000   0.95555068     0.0023323615   0.0034064069   20.659043      19.24005       1.4189928     -1.3236067      18346.755    
    192000   0.88000722     0.0023323615  -0.0041684027   20.521089      19.214279      1.3068107     -1.2910809      18368.228    
    193000   0.91500008     0.0023323615   0.00073308875  20.517557      19.158781      1.3587751     -1.3280017      18309.64     
    194000   0.93552269     0.0023323615  -0.0023599556   20.650888      19.261637      1.3892512     -1.3882685      18527.447    
    195000   1.0994702      0.0023323615  -0.00049218233  20.524522      18.891809      1.6327133     -1.6126212      18490.869    
    196000   0.99359933     0.0023323615   0.0018113001   20.534444      19.058949      1.475495      -1.4499012      18417.522    
    197000   0.95935067     0.0023323615  -0.00050002168  20.381588      18.956953      1.4246357     -1.542275       18444.842    
    198000   1.1130574      0.0023323615   0.00077920718  20.856835      19.203945      1.6528903     -1.2148315      18574.859    
    199000   0.98862416     0.0023323615  -0.0014485542   20.943631      19.475525      1.4681069     -1.1953612      18519.784    
    200000   1.0255298      0.0023323615   0.00022434092  20.386468      18.863556      1.5229118     -1.5783474      18470.667    
    201000   1.0938982      0.0023323615  -0.0014950028   20.468379      18.84394       1.6244388     -1.5830361      18487.803    
    202000   0.93778384     0.0023323615  -0.0025063331   20.569221      19.176612      1.392609      -1.3679338      18515.63     
    203000   1.0172705      0.0023323615  -0.0014893472   20.441458      18.930811      1.5106467     -1.6888727      18498.01     
    204000   0.94133112     0.0023323615   0.0059554913   20.45555       19.057673      1.3978767     -1.4225819      18520.334    
    205000   1.0256475      0.0023323615  -0.0020136773   20.898408      19.375322      1.5230866     -1.2181271      18624.189    
    206000   1.0931952      0.0023323615   0.0003741331   20.832527      19.209132      1.6233948     -1.2803693      18635.852    
    207000   0.96341208     0.0023323615   0.00032924403  20.430237      18.99957       1.4306669     -1.5402453      18423.893    
    208000   1.0894222      0.0023323615  -0.0021524192   20.675008      19.057216      1.6177919     -1.3502293      18455.022    
    209000   0.87898616     0.0023323615  -0.0023670868   20.535375      19.23008       1.3052945     -1.3732516      18523.658    
    210000   1.0695681      0.0023323615  -0.0021279729   20.674795      19.086486      1.5883087     -1.4821572      18443.928    
    211000   1.0653956      0.0023323615   0.00020448183  20.478057      18.895945      1.5821124     -1.5503222      18356.631    
    212000   1.053891       0.0023323615   0.0021193068   20.75999       19.194962      1.5650282     -1.2161731      18480.865    
    213000   0.86800429     0.0023323615  -0.0026083648   20.460256      19.17127       1.2889864     -1.3728808      18545.968    
    214000   0.92543337     0.0023323615   0.0020554204   20.241593      18.867324      1.3742686     -1.6032158      18506.121    
    215000   0.94817404     0.0023323615   0.00051067842  20.413801      19.005763      1.4080384     -1.4480864      18384.935    
    216000   0.91119099     0.0023323615   0.00067217748  20.513091      19.159973      1.3531186     -1.3161472      18466.61     
    217000   0.90476095     0.0023323615  -0.0022128232   20.392417      19.048847      1.34357       -1.4104389      18522.761    
    218000   1.0031723      0.0023323615   0.0028199831   20.338684      18.848973      1.4897108     -1.6408152      18441.369    
    219000   1.1107063      0.0023323615  -0.0021456696   20.807214      19.157815      1.6493989     -1.394456       18498.175    
    220000   0.9773663      0.0023323615   0.00095979305  20.320483      18.869094      1.451389      -1.5755148      18402.463    
    221000   0.98589913     0.0023323615  -0.0032354205   20.603707      19.139647      1.4640602     -1.4413284      18435.613    
    222000   1.0804244      0.0023323615   0.010182811    20.874197      19.269767      1.6044303     -1.3813253      18382.328    
    223000   0.83089261     0.0023323615   0.00017004266  20.186304      18.952428      1.2338755     -1.5850304      18358.924    
    224000   1.0438106      0.0023323615  -0.0021078226   20.619389      19.06933       1.5500588     -1.3612098      18391.971    
    225000   0.93524985     0.0023323615  -0.0028246422   20.527681      19.138835      1.388846      -1.4682056      18372.607    
    226000   0.96480097     0.0023323615  -0.0014415281   20.503236      19.070507      1.4327294     -1.4811824      18351.727    
    227000   0.9683421      0.0023323615   0.0019046447   20.524386      19.086398      1.437988      -1.3834695      18274.943    
    228000   0.84563883     0.0023323615  -0.0017214076   20.407538      19.151764      1.2557737     -1.5523133      18444.899    
    229000   1.0479849      0.0023323615   0.0013788744   20.455781      18.899523      1.5562576     -1.5794516      18392.923    
    230000   1.0556739      0.0023323615  -0.0037614466   20.34243       18.774754      1.5676757     -1.5924598      18513.45     
    231000   1.017982       0.0023323615  -0.0016872558   20.250568      18.738864      1.5117032     -1.862312       18356.77     
    232000   0.99863708     0.0023323615  -0.003225843    20.495007      19.012031      1.4829761     -1.4287166      18519.85     
    233000   1.0935055      0.0023323615  -0.0026764851   20.694542      19.070687      1.6238556     -1.5194297      18462.265    
    234000   1.0221684      0.0023323615   0.0022250788   20.575422      19.057502      1.5179201     -1.4067         18459.049    
    235000   0.94012984     0.0023323615  -0.0014730184   20.274623      18.878531      1.3960928     -1.5892091      18484.359    
    236000   1.0696924      0.0023323615   0.0031138594   20.532123      18.94363       1.5884932     -1.5446236      18377.515    
    237000   1.0384919      0.0023323615  -0.00087507445  20.287898      18.745738      1.5421604     -1.7015204      18489.968    
    238000   0.89636143     0.0023323615   0.00024936327  20.247835      18.916738      1.3310967     -1.5238713      18408.793    
    239000   0.97007782     0.0023323615  -8.0352848e-05  20.535725      19.095159      1.4405656     -1.3741494      18503.871    
    240000   0.98755982     0.0023323615   0.00093055883  20.709148      19.242621      1.4665263     -1.2350653      18770.181    
    241000   0.94945904     0.0023323615   0.00064466499  20.960527      19.55058       1.4099467     -1.0247648      18902.296    
    242000   1.2184761      0.0023323615   0.0040505001   21.16605       19.356613      1.809437      -1.1350706      19087.548    
    243000   0.92030096     0.0023323615  -0.0052281231   20.513         19.146353      1.3666469     -1.4307106      18727.982    
    244000   0.96453565     0.0023323615   0.00067462216  20.466595      19.03426       1.4323354     -1.4610077      18517.07     
    245000   1.0700879      0.0023323615  -0.0021765222   20.796711      19.207631      1.5890806     -1.3474032      18611.611    
    246000   0.85800842     0.0023323615   0.0009268122   20.293817      19.019675      1.2741425     -1.4122379      18551.569    
    247000   1.0496895      0.0023323615   0.0016049496   20.689644      19.130855      1.5587889     -1.3658994      18549.066    
    248000   0.923813       0.0023323615   3.1194467e-05  20.66113       19.289268      1.3718623     -1.3031038      18408.548    
    249000   0.87387973     0.0023323615  -0.0035756759   20.599748      19.302036      1.2977114     -1.2287556      18694.35     
    250000   1.0971593      0.0023323615  -0.0011245341   21.160585      19.531304      1.6292815     -1.1364397      19067.341    
    251000   1.1135416      0.0023323615   0.0024308284   20.928401      19.274791      1.6536092     -1.2076649      18925.761    
    252000   0.98364485     0.0023323615  -0.001197219    20.72467       19.263957      1.4607126     -1.3020105      18830.185    
    253000   0.89567272     0.0023323615   0.0031374369   20.932335      19.602261      1.330074      -1.1055121      19056.416    
    254000   1.0706269      0.0023323615  -0.00020388448  20.655516      19.065635      1.5898809     -1.4492592      18548.018    
    255000   0.9385582      0.0023323615  -0.0045033151   20.643333      19.249574      1.3937589     -1.2873046      18617.801    
    256000   0.90050147     0.0023323615  -2.6684688e-05  20.3555        19.018255      1.3372447     -1.4133005      18534.462    
    257000   0.90997162     0.0023323615  -0.00079827382  20.475582      19.124274      1.3513079     -1.3299364      18416.098    
    258000   0.99357393     0.0023323615  -0.0015771981   20.449536      18.974079      1.4754573     -1.6107787      18366.687    
    259000   1.1022131      0.0023323615   0.00024361813  20.644962      19.008175      1.6367865     -1.4156547      18285.59     
    260000   1.0605536      0.0023323615  -0.004428164    20.782392      19.20747       1.5749221     -1.3821726      18285.881    
    261000   1.1550351      0.0023323615  -0.00018969739  21.22636       19.511133      1.7152271     -1.1172469      18494.292    
    262000   1.0034038      0.0023323615  -0.0042941987   21.014581      19.524526      1.4900546     -1.1446032      19043.868    
    263000   0.98539425     0.0023323615  -0.0010970835   20.596759      19.133448      1.4633105     -1.3968491      18516.352    
    264000   0.8426105      0.0023323615   0.00073687669  20.165066      18.91379       1.2512766     -1.4483704      18412.467    
    265000   0.96296131     0.0023323615  -0.00026401785  20.50376       19.073763      1.4299976     -1.4904999      18359.579    
    266000   0.97037539     0.0023323615  -0.0041503427   20.813572      19.372564      1.4410075     -1.3005581      18351.744    
    267000   1.1333864      0.0023323615   0.00032604818  20.80314       19.120061      1.6830788     -1.3448773      18436.372    
    268000   1.1223658      0.0023323615   0.0020006707   20.761778      19.095065      1.6667132     -1.3721763      18580.284    
    269000   1.0288088      0.0023323615  -0.0015603532   20.582095      19.054313      1.5277811     -1.5171689      18415.575    
    270000   1.0269973      0.0023323615  -0.0017508113   20.720525      19.195434      1.525091      -1.2764466      18431.752    
    271000   0.98255586     0.0023323615   0.0014634874   20.594499      19.135403      1.4590955     -1.3403918      18363.321    
    272000   1.0743607      0.0023323615   0.001011356    20.856246      19.26082       1.5954257     -1.2207309      18503.305    
    273000   1.0097637      0.0023323615   0.00015164577  20.891779      19.39228       1.4994991     -1.1001637      18611.056    
    274000   0.96917808     0.0023323615  -0.0032946484   20.783427      19.344198      1.4392295     -1.2056376      18789.586    
    275000   1.0479885      0.0023323615  -0.00071795209  20.777085      19.220822      1.5562629     -1.3710194      18536.995    
    276000   0.85898        0.0023323615  -0.0034111763   20.712394      19.436809      1.2755853     -1.083773       18720.591    
    277000   1.0053642      0.0023323615   0.00076188102  20.78153       19.288564      1.4929658     -1.1470492      18726.552    
    278000   1.0260562      0.0023323615  -0.0027757746   20.490852      18.967159      1.5236935     -1.4648606      18599.909    
    279000   0.93920109     0.0023323615   0.0036346547   20.222811      18.828097      1.3947136     -1.6684684      18460.319    
    280000   1.0451905      0.0023323615  -0.0023537001   20.257341      18.705233      1.552108      -1.7147646      18387.732    
    281000   1.005543       0.0023323615  -0.00047915842  20.330699      18.837468      1.4932314     -1.5194723      18390.711    
    282000   1.0181939      0.0023323615  -0.0061281146   20.572393      19.060376      1.5120179     -1.4785955      18433.982    
    283000   0.94934461     0.0023323615  -0.0026852528   20.140682      18.730906      1.4097767     -1.6811918      18367.674    
    284000   0.9107899      0.0023323615  -0.0023383447   20.271354      18.918831      1.352523      -1.5370142      18272.427    
    285000   0.99301538     0.0023323615  -0.00065830335  20.585879      19.111251      1.4746278     -1.3001859      18465.373    
    286000   1.0091145      0.0023323615   0.0014008595   20.757871      19.259336      1.498535      -1.335663       18367.001    
    287000   1.0237245      0.0023323615  -0.0048406198   20.633063      19.112832      1.5202308     -1.3457197      18614.697    
    288000   1.0069702      0.0023323615  -0.00074266782  20.744313      19.248962      1.4953508     -1.3705342      18582.096    
    289000   0.93848551     0.0023323615   0.00079988565  20.632618      19.238967      1.393651      -1.2611557      18615.513    
    290000   0.91901556     0.0023323615   0.0060869391   20.687801      19.323063      1.3647381     -1.3333374      18543.645    
    291000   1.0479592      0.0023323615  -0.0019013066   20.472196      18.915976      1.5562194     -1.5236718      18613.023    
    292000   1.2092718      0.0023323615   0.0011267049   20.934671      19.138903      1.7957687     -1.506353       18544.155    
    293000   1.0059225      0.0023323615   0.0026316955   20.684265      19.19047       1.4937949     -1.354999       18556.708    
    294000   0.92969611     0.0023323615  -0.002702844    20.592557      19.211958      1.3805987     -1.2833205      18727.729    
    295000   0.99941514     0.0023323615  -0.0031281036   20.720812      19.23668       1.4841315     -1.2889951      18680.824    
    296000   0.95259605     0.0023323615  -0.00069494141  20.479257      19.064652      1.4146051     -1.448813       18677.335    
    297000   0.96040776     0.0023323615  -0.003971791    20.585431      19.159226      1.4262055     -1.3342791      18629.539    
    298000   1.0030878      0.0023323615   0.0036470608   20.753335      19.263749      1.4895854     -1.2706024      18644.161    
    299000   1.0286706      0.0023323615  -0.00047205865  20.413564      18.885988      1.5275759     -1.5380354      18515.583    
    300000   1.0260818      0.0023323615   0.0017583269   20.479257      18.955525      1.5237315     -1.5722412      18458.366    
    301000   0.92215154     0.0023323615  -0.0030816596   20.261751      18.892356      1.369395      -1.6513676      18483.318    
    302000   1.0368498      0.0023323615   0.00015479729  20.618918      19.079196      1.539722      -1.3817026      18481.128    
    303000   0.95348194     0.0023323615  -0.0020515433   20.482858      19.066937      1.4159207     -1.3406622      18497.719    
    304000   1.0335027      0.0023323615  -0.00019792798  20.621973      19.087221      1.5347515     -1.3806089      18571.765    
    305000   0.95320965     0.0023323615   0.00089936755  20.780621      19.365104      1.4155163     -1.2225962      18645.188    
    306000   0.96578392     0.0023323615  -0.0037855248   20.509385      19.075195      1.4341891     -1.5336416      18548.518    
    307000   0.85236913     0.0023323615   0.0025181203   20.404763      19.138995      1.2657682     -1.3073069      18416.601    
    308000   1.057629       0.0023323615  -0.00081506386  20.696477      19.125898      1.570579      -1.4480058      18529.586    
    309000   1.002046       0.0023323615  -0.0011413986   20.455926      18.967888      1.4880382     -1.4964273      18479.082    
    310000   0.93481834     0.0023323615  -0.0030814918   20.447625      19.05942       1.3882052     -1.4683276      18291.236    
    311000   0.96159396     0.0023323615   0.0043117726   20.598156      19.170189      1.427967      -1.4683449      18329.06     
    312000   0.90517885     0.0023323615  -0.003032357    20.58111       19.236919      1.3441906     -1.2640237      18419.664    
    313000   0.97592389     0.0023323615   0.0035640687   20.369053      18.919806      1.449247      -1.6291524      18503.151    
    314000   1.0835608      0.0023323615  -0.0014937839   20.838786      19.229699      1.6090877     -1.3761864      18542.226    
    315000   0.95378409     0.0023323615   0.0057517957   20.433757      19.017388      1.4163694     -1.5284513      18347.041    
    316000   0.96676076     0.0023323615   0.00064646886  20.237325      18.801685      1.4356397     -1.7099733      18388.529    
    317000   0.95235588     0.0023323615  -0.0012840067   20.361579      18.947331      1.4142485     -1.5530816      18469.627    
    318000   1.0934314      0.0023323615  -0.00030162593  20.646559      19.022813      1.6237456     -1.4350873      18555.477    
    319000   1.1804492      0.0023323615   0.0018373796   20.782375      19.029408      1.752967      -1.4848988      18555.756    
    320000   0.98101516     0.0023323615   0.00428987     20.508453      19.051645      1.4568075     -1.4989145      18605.154    
    321000   1.0277214      0.0023323615  -0.0024104038   20.468001      18.941835      1.5261662     -1.5166717      18421.999    
    322000   1.0541722      0.0023323615   0.0049964925   20.715704      19.150258      1.5654458     -1.389809       18504.701    
    323000   0.97841816     0.0023323615   0.0015858262   20.430002      18.977051      1.452951      -1.4806325      18385.612    
    324000   0.89663321     0.0023323615   0.00016078673  20.36632       19.03482       1.3315003     -1.3960149      18413.102    
    325000   1.1510644      0.0023323615   0.0016133695   20.895314      19.185984      1.7093306     -1.33944        18401.686    
    326000   1.0671413      0.0023323615   0.0025658433   20.681188      19.096483      1.5847048     -1.497436       18468.606    
    327000   1.0972681      0.0023323615  -0.0016722068   20.461265      18.831822      1.6294431     -1.5822532      18372.478    
    328000   1.0478522      0.0023323615  -0.0014623497   20.800565      19.244504      1.5560606     -1.3252332      18407.455    
    329000   0.98259234     0.0023323615  -0.0017013711   20.57805       19.118901      1.4591496     -1.402354       18510.133    
    330000   1.064098       0.0023323615  -0.0017991652   20.640694      19.060509      1.5801856     -1.446954       18518.691    
    331000   1.0647626      0.0023323615   0.0024181421   20.964755      19.383583      1.5811724     -1.1435442      18546.299    
    332000   0.98216481     0.0023323615  -0.0028937706   20.766663      19.308149      1.4585147     -1.1875631      18679.765    
    333000   0.97911794     0.0023323615  -0.00028813856  20.757752      19.303762      1.4539901     -1.3224503      18363.331    
    334000   0.90327859     0.0023323615   0.00081027086  20.329282      18.987913      1.3413687     -1.4525375      18465.954    
    335000   1.0571332      0.0023323615   0.00026428749  20.697644      19.127801      1.5698428     -1.3382287      18417.607    
    336000   1.0110618      0.0023323615  -0.0033878955   20.751724      19.250297      1.5014267     -1.3120798      18535.46     
    337000   1.065069       0.0023323615   0.00070265016  20.504547      18.922919      1.5816275     -1.4386712      18813.304    
    338000   1.0130951      0.0023323615  -0.0015427366   20.425915      18.921469      1.5044462     -1.5260268      18418.283    
    339000   0.96170541     0.0023323615   0.0011038559   20.516216      19.088084      1.4281325     -1.3877258      18569.295    
    340000   0.84526773     0.0023323615   0.00031872147  20.494518      19.239295      1.2552226     -1.3117303      18574.057    
    341000   0.99321691     0.0023323615   0.0012970046   20.625594      19.150667      1.4749271     -1.3041157      18431.306    
    342000   1.0259237      0.0023323615   0.0053432175   20.699792      19.176295      1.5234967     -1.3371707      18477.006    
    343000   0.91148795     0.0023323615   0.0052571886   20.246561      18.893002      1.3535596     -1.552666       18595.2      
    344000   0.94621278     0.0023323615  -0.00073847662  20.632343      19.227217      1.405126      -1.2799431      18381.373    
    345000   1.1033227      0.0023323615   0.0015136311   20.933477      19.295042      1.6384342     -1.3450116      18313.722    
    346000   1.0853566      0.0023323615  -0.0018683037   20.99759       19.385835      1.6117546     -1.2785204      18525.562    
    347000   1.0282872      0.0023323615  -0.002381709    20.741191      19.214185      1.5270066     -1.4745985      18508.376    
    348000   0.98394709     0.0023323615   0.0052127283   20.529376      19.068214      1.4611614     -1.4969037      18409.217    
    349000   1.0582486      0.0023323615  -0.0057556006   20.748211      19.176712      1.5714992     -1.5120131      18496.118    
    350000   1.0625147      0.0023323615  -0.001992971    20.682356      19.104522      1.5778343     -1.4504584      18367.934    
    351000   0.96563535     0.0023323615   0.0035875204   20.316495      18.882526      1.4339685     -1.5979969      18291.805    
    352000   0.97916941     0.0023323615  -0.0012289085   20.334423      18.880357      1.4540666     -1.6723591      18358.741    
    353000   1.025748       0.0023323615   0.00067846592  20.592474      19.069238      1.5232358     -1.4098411      18405.242    
    354000   0.97098638     0.0023323615   0.002730875    20.468654      19.026739      1.4419148     -1.4327223      18418.287    
    355000   0.88172921     0.0023323615   0.0028309765   20.229758      18.92039       1.3093679     -1.5127985      18316.602    
    356000   1.0188896      0.0023323615   0.00096989812  20.540157      19.027106      1.5130511     -1.4115368      18449.318    
    357000   0.96207568     0.0023323615   0.0037855655   20.721977      19.293294      1.4286824     -1.2810233      18547.794    
    358000   0.95137812     0.0023323615   0.002451286    20.434909      19.022113      1.4127965     -1.436733       18442.163    
    359000   1.1422713      0.0023323615   0.00054132293  20.909173      19.2129        1.6962729     -1.3529069      18394.066    
    360000   0.91536631     0.0023323615   0.0023916033   20.039503      18.680184      1.359319      -1.7470686      18396.7      
    361000   0.92312387     0.0023323615   0.0027744941   20.310788      18.939949      1.3708389     -1.4646138      18401.679    
    362000   1.0395944      0.0023323615   0.00068659168  20.607278      19.06348       1.5437977     -1.4852161      18449.158    
    363000   1.0521327      0.0023323615   0.00042355346  20.750958      19.188541      1.562417      -1.4685514      18478.761    
    364000   1.0021459      0.0023323615   0.0021279857   20.641846      19.153659      1.4881866     -1.4179403      18471.244    
    365000   1.1148038      0.0023323615   0.00074356879  20.740201      19.084717      1.6554837     -1.3645508      18466.75     
    366000   1.1583641      0.0023323615   0.0011169424   20.84176       19.121589      1.7201708     -1.4033097      18367.508    
    367000   1.0985443      0.0023323615  -0.0015392365   20.791509      19.160171      1.6313383     -1.3339277      18332.949    
    368000   1.1178152      0.0023323615   0.0047048927   20.659622      18.999666      1.6599555     -1.512083       18347.699    
    369000   0.94053124     0.0023323615   0.0031592382   20.340543      18.943854      1.3966889     -1.4759446      18414.036    
    370000   0.91008963     0.0023323615   0.0013261351   20.314401      18.962918      1.3514831     -1.4829764      18348.266    
    371000   1.0796647      0.0023323615   0.0028950496   20.571949      18.968647      1.6033021     -1.4082688      18485.513    
    372000   1.0792325      0.0023323615   0.0028171011   20.771984      19.169324      1.6026603     -1.2891128      18360.494    
    373000   0.95538134     0.0023323615   0.0016735785   20.656814      19.238072      1.4187413     -1.2497465      18413.975    
    374000   1.1147491      0.0023323615   0.00075173183  20.700868      19.045466      1.6554024     -1.4522669      18494.566    
    375000   1.0262725      0.0023323615   0.0065428636   20.711509      19.187494      1.5240147     -1.4561788      18359.19     
    376000   0.97627928     0.0023323615  -0.0022927868   20.397308      18.947533      1.4497747     -1.535358       18447.637    
    377000   0.97777471     0.0023323615  -0.0042675111   20.729342      19.277346      1.4519954     -1.2863239      18470.765    
    378000   1.0725814      0.0023323615  -0.00034401061  20.778288      19.185505      1.5927834     -1.3902116      18508.112    
    379000   1.0431875      0.0023323615   0.0033676976   20.894424      19.345291      1.5491335     -1.106874       18368.404    
    380000   0.90110726     0.0023323615  -0.0015141138   20.341915      19.00377       1.3381443     -1.5526847      18581.281    
    381000   0.95500468     0.0023323615  -0.0020346757   20.383845      18.965663      1.418182      -1.5483376      18408.555    
    382000   1.0076271      0.0023323615   0.0011754324   20.645763      19.149436      1.4963263     -1.3061644      18497.996    
    383000   1.0103434      0.0023323615   0.0046352834   20.525107      19.024747      1.50036       -1.5272798      18445.916    
    384000   0.99764038     0.0023323615  -0.00071983071  20.719883      19.238387      1.481496      -1.3252547      18321.147    
    385000   1.0624245      0.0023323615  -1.5243371e-05  20.622976      19.045275      1.5777004     -1.5626702      18351.808    
    386000   0.83593716     0.0023323615  -0.0047515456   20.271322      19.029955      1.2413667     -1.5740549      18448.619    
    387000   0.95696567     0.0023323615  -0.0019788595   20.718981      19.297887      1.421094      -1.296336       18616.432    
    388000   0.93650946     0.0023323615   0.0012683637   20.573558      19.182841      1.3907166     -1.4208744      18855.929    
    389000   1.066211       0.0023323615  -0.0017781206   20.617708      19.034384      1.5833233     -1.4999271      18461.138    
    390000   1.0547821      0.0023323615  -0.0013899991   20.795356      19.229005      1.5663514     -1.4390894      18497.815    
    391000   1.0728198      0.0023323615  -0.00053121049  20.600766      19.007629      1.5931373     -1.463435       18438.654    
    392000   0.99103456     0.0023323615  -0.0034372178   20.569399      19.097712      1.4716863     -1.4204909      18545.95     
    393000   1.0709498      0.0023323615   0.00012842322  20.836526      19.246166      1.5903605     -1.2964185      18534.039    
    394000   0.96397044     0.0023323615  -8.6033519e-05  20.736914      19.305417      1.4314961     -1.2645676      18597.791    
    395000   1.0671272      0.0023323615  -0.0018042936   20.973848      19.389164      1.5846839     -1.1957865      18497.777    
    396000   1.0682117      0.0023323615  -0.0021622618   20.664992      19.078698      1.5862944     -1.4188129      18521.138    
    397000   0.96378059     0.0023323615   0.00041521218  20.488171      19.056957      1.4312142     -1.4454074      18529.266    
    398000   0.97752877     0.0023323615  -0.0043611502   20.558498      19.106868      1.4516302     -1.371683       18423.74     
    399000   1.1654417      0.0023323615  -0.0027043176   20.886861      19.15618       1.7306809     -1.3661584      18434.622    
    400000   1.0822776      0.0023323615   0.0018901257   20.646661      19.039479      1.6071823     -1.4376097      18438.671    
    401000   1.1575414      0.0023323615  -0.00071137442  20.936526      19.217577      1.718949      -1.3602334      18458.65     
    402000   0.98354746     0.0023323615  -0.0046042621   20.566017      19.10545       1.460568      -1.4615751      18428.387    
    403000   1.0819234      0.0023323615   0.0037313316   20.876786      19.270129      1.6066563     -1.3149874      18490.297    
    404000   1.0622106      0.0023323615  -0.0024764701   20.700957      19.123574      1.5773828     -1.3203965      18674.998    
    405000   1.0199612      0.0023323615   0.0017151775   20.79932       19.284677      1.5146424     -1.2680009      18405.69     
    406000   1.0579296      0.0023323615   0.0046563825   20.715338      19.144313      1.5710255     -1.3449235      18576.097    
    407000   1.0139894      0.0023323615  -0.0012235907   20.769986      19.264212      1.5057742     -1.1951765      18674.603    
    408000   0.97403776     0.0023323615   0.0012196775   20.559799      19.113352      1.4464461     -1.349855       18456.592    
    409000   0.94575073     0.0023323615  -0.0025144637   20.571761      19.167321      1.4044398     -1.3591682      18446.741    
    410000   1.1413057      0.0023323615  -0.0049081878   20.8664        19.171561      1.694839      -1.3399614      18468.278    
    411000   0.8986893      0.0023323615   0.001700299    20.413627      19.079074      1.3345536     -1.3577708      18587.952    
    412000   0.87388795     0.0023323615   0.0029984301   20.263173      18.965449      1.2977236     -1.4780707      18604.745    
    413000   1.0695407      0.0023323615   0.0010357849   20.688818      19.10055       1.588268      -1.4116124      18575.547    
    414000   1.0339164      0.0023323615   5.2273594e-05  20.744371      19.209005      1.5353658     -1.4227819      18380.337    
    415000   0.95009897     0.0023323615   0.00040371733  20.294782      18.883885      1.410897      -1.482292       18482.46     
    416000   1.1168254      0.0023323615   0.0015800058   20.689793      19.031308      1.6584856     -1.5123495      18513.01     
    417000   0.99030365     0.0023323615  -4.609742e-05   20.794071      19.32347       1.4706009     -1.3094179      18524.517    
    418000   1.0195423      0.0023323615  -0.00044349878  20.786894      19.272874      1.5140202     -1.2231533      18595.421    
    419000   1.1537996      0.0023323615   0.0017081689   20.781482      19.06809       1.7133924     -1.3950141      18402.239    
    420000   1.1119825      0.0023323615   0.0026588206   20.956318      19.305024      1.651294      -1.2568287      18375.258    
    421000   0.99846987     0.0023323615   0.0050276625   20.474859      18.992132      1.4827278     -1.4742209      18385.65     
    422000   0.92048287     0.0023323615   4.7771386e-05  20.467208      19.100291      1.3669171     -1.4387244      18450.682    
    423000   1.0093282      0.0023323615   0.0014305806   20.640457      19.141605      1.4988523     -1.329581       18545.12     
    424000   1.1330957      0.0023323615  -0.0035710416   21.05144       19.368793      1.6826472     -1.2090356      18535.749    
    425000   0.9963883      0.0023323615   0.00053427941  20.609687      19.13005       1.4796366     -1.4248217      18578.458    
    426000   0.93181758     0.0023323615   0.0044295033   20.471974      19.088225      1.3837491     -1.4378808      18490.927    
    427000   1.0074739      0.0023323615   0.0017766454   20.682387      19.186288      1.4960988     -1.4418463      18505.586    
    428000   0.9646989      0.0023323615   0.00076562059  20.393979      18.961401      1.4325779     -1.5177794      18569.478    
    429000   0.90598064     0.0023323615  -0.00059001445  20.170611      18.825229      1.3453813     -1.6553909      18465.537    
    430000   0.81356935     0.0023323615   0.0011447557   20.184429      18.976278      1.2081505     -1.616266       18255.46     
    431000   1.1063635      0.0023323615  -0.0010100307   20.366761      18.723811      1.6429498     -1.7848145      18424.376    
    432000   0.99056649     0.0023323615   0.0016388677   20.415766      18.944774      1.4709912     -1.5882751      18348.536    
    433000   1.0769956      0.0023323615   0.006098254    20.628163      19.028825      1.5993385     -1.3986508      18298.19     
    434000   0.93212984     0.0023323615  -0.00054844246  20.398737      19.014524      1.3842128     -1.4983673      18448.865    
    435000   0.86678342     0.0023323615   0.0018212147   20.134878      18.847705      1.2871734     -1.5625549      18265.799    
    436000   0.98148325     0.0023323615   0.0015054342   20.527912      19.070409      1.4575026     -1.5098248      18313.779    
    437000   1.0399577      0.0023323615   0.00057331319  20.663541      19.119204      1.5443371     -1.3696296      18440.507    
    438000   1.1095018      0.0023323615   0.0022007926   20.826154      19.178544      1.6476102     -1.3537539      18550.711    
    439000   1.1361518      0.0023323615   0.0022795625   20.6035        18.916314      1.6871854     -1.5617436      18601.098    
    440000   1.0812945      0.0023323615   0.0050330227   20.447178      18.841456      1.6057223     -1.5808831      18515.71     
    441000   1.1433494      0.0023323615   0.0026186488   20.614339      18.916465      1.6978738     -1.5536805      18570.356    
    442000   1.0534372      0.0023323615  -0.0008783861   20.283836      18.719481      1.5643542     -1.7564007      18583.262    
    443000   0.95313598     0.0023323615   0.0055006318   20.561345      19.145938      1.4154069     -1.4465164      18524.383    
    444000   1.0262121      0.0023323615   0.00096007265  20.340588      18.816663      1.5239249     -1.6792149      18494.131    
    445000   1.0456694      0.0023323615   0.0038448132   20.64682       19.094001      1.5528191     -1.3727367      18414.42     
    446000   1.1141856      0.0023323615  -0.0012454929   20.58123       18.926664      1.6545657     -1.4942285      18434.291    
    447000   1.1359207      0.0023323615   0.0022935542   20.877957      19.191114      1.6868423     -1.5690546      18395.693    
    448000   0.9413211      0.0023323615  -0.0012246434   20.380679      18.982818      1.3978618     -1.5513376      18548.846    
    449000   1.17741        0.0023323615   0.0017193817   20.883226      19.134772      1.7484539     -1.2873656      18713.221    
    450000   1.0172515      0.0023323615   0.0035706043   20.570066      19.059448      1.5106185     -1.5166265      18721.462    
    451000   1.0720949      0.0023323615  -0.0018005534   20.359811      18.76775       1.5920609     -1.6347423      18489.999    
    452000   1.0449929      0.0023323615   0.0040992493   20.413415      18.8616        1.5518145     -1.6473829      18541.827    
    453000   0.89107116     0.0023323615  -0.0014723134   20.463452      19.140211      1.3232407     -1.3745366      18632.157    
    454000   0.94462951     0.0023323615  -0.00096797416  20.139682      18.736907      1.4027748     -1.6538544      18539.096    
    455000   1.0589053      0.0023323615   0.0015760033   20.704531      19.132057      1.5724744     -1.305102       18540.886    
    456000   1.0944511      0.0023323615  -0.0047288217   20.70907       19.08381       1.6252599     -1.5570851      18451.037    
    457000   0.89132817     0.0023323615  -9.8730575e-05  20.128951      18.805329      1.3236223     -1.6149996      18450.416    
    458000   1.0877895      0.0023323615  -0.0030573061   20.809871      19.194504      1.6153675     -1.418576       18419.3      
    459000   1.1495996      0.0023323615   0.0033187594   20.771133      19.063978      1.7071555     -1.4890813      18478.182    
    460000   1.1425798      0.0023323615   0.0032728803   20.572289      18.875558      1.696731      -1.5978461      18541.155    
    461000   1.0787593      0.0023323615  -0.0025615974   20.409611      18.807653      1.6019576     -1.6902038      18436.355    
    462000   0.99125447     0.0023323615  -0.0017166191   20.758158      19.286145      1.4720129     -1.2199476      18553.473    
    463000   1.0499241      0.0023323615   0.0011204057   20.824848      19.26571       1.5591373     -1.2953083      18685.741    
    464000   0.93983406     0.0023323615   0.00029873299  20.349755      18.954101      1.3956536     -1.5262437      18615.2      
    465000   0.99949456     0.0023323615   0.0013396473   20.42297       18.93872       1.4842494     -1.5265543      18577.525    
    466000   0.92945129     0.0023323615  -0.0018418586   20.335084      18.954849      1.3802352     -1.6125938      18407.478    
    467000   1.0592759      0.0023323615  -0.003347807    20.469079      18.896055      1.5730248     -1.5694281      18328.185    
    468000   0.96408063     0.0023323615   0.0029904897   20.645312      19.213653      1.4316597     -1.2999078      18398.626    
    469000   1.0930494      0.0023323615   0.0056589287   20.872244      19.249065      1.6231784     -1.2778058      18495.817    
    470000   0.97210257     0.0023323615  -0.00030291418  20.546446      19.102873      1.4435723     -1.4102708      18435.064    
    471000   0.96725811     0.0023323615   0.00041008715  20.740893      19.304515      1.4363783     -1.2493654      18455.107    
    472000   1.0695581      0.0023323615  -0.0015013891   20.708699      19.120405      1.5882938     -1.444326       18625.061    
    473000   1.1421797      0.0023323615   0.00030267474  20.678703      18.982566      1.6961368     -1.5197231      18446.9      
    474000   1.0720941      0.0023323615  -0.0003462857   20.444447      18.852387      1.5920597     -1.6705218      18415.558    
    475000   1.0242008      0.0023323615   0.0040506426   20.474133      18.953195      1.5209381     -1.5511342      18406.752    
    476000   1.0585493      0.0023323615   0.00042065658  20.695891      19.123945      1.5719457     -1.4053524      18402.836    
    477000   0.93880701     0.0023323615  -0.0024203588   20.463333      19.069205      1.3941284     -1.5132048      18469.696    
    478000   1.1617837      0.0023323615  -0.0050614536   21.014379      19.289131      1.7252488     -1.3611188      18442.146    
    479000   1.0060092      0.0023323615   0.0015553243   20.350551      18.856627      1.4939237     -1.5546318      18613.585    
    480000   1.060945       0.0023323615  -0.0026004754   20.982225      19.406722      1.5755034     -1.1247046      18667.038    
    481000   1.0096016      0.0023323615   0.00060349543  20.571457      19.072199      1.4992583     -1.4471264      18510.645    
    482000   0.85029811     0.0023323615  -0.0024836348   20.406747      19.144055      1.2626927     -1.4008685      18535.295    
    483000   1.0768182      0.0023323615   0.00054893302  20.382417      18.783342      1.599075      -1.6634645      18497.194    
    484000   0.90639938     0.0023323615   0.0012312733   20.270042      18.924039      1.3460031     -1.6764045      18608.158    
    485000   1.1055637      0.0023323615  -0.0028686485   20.662484      19.020721      1.6417621     -1.6643955      18530.797    
    486000   1.0692838      0.0023323615  -0.0019070783   20.448517      18.86063       1.5878865     -1.6359367      18547.591    
    487000   0.92425666     0.0023323615   0.0025240689   20.443703      19.071182      1.3725211     -1.3925686      18612.51     
    488000   1.1069543      0.0023323615  -0.0020102111   20.843494      19.199667      1.6438271     -1.373566       18598.72     
    489000   1.0448489      0.0023323615   0.00045299459  20.98795       19.43635       1.5516006     -1.2682666      18573.383    
    490000   1.0027957      0.0023323615  -0.003057185    20.800346      19.311194      1.4891516     -1.2376266      18622.58     
    491000   1.2119002      0.0023323615  -0.00066743325  20.79817       18.998498      1.7996717     -1.4373368      18674.306    
    492000   1.0432965      0.0023323615   0.0027603906   20.840767      19.291471      1.5492953     -1.1624444      18659.518    
    493000   0.96727581     0.0023323615   0.0026175324   20.673842      19.237437      1.4364046     -1.3470145      18559.962    
    494000   1.0319373      0.0023323615   0.00018605322  20.79809       19.265664      1.5324269     -1.2767056      18586.882    
    495000   1.1767823      0.0023323615   0.0031268006   20.867352      19.11983       1.7475218     -1.364565       18518.578    
    496000   1.0521912      0.0023323615   0.0009575487   20.794545      19.232041      1.562504      -1.3218258      18478.289    
    497000   1.0675133      0.0023323615  -0.0046568926   20.838983      19.253725      1.5852572     -1.3920299      18422.458    
    498000   0.94992705     0.0023323615  -0.00041880403  20.52394       19.113298      1.4106417     -1.4022656      18423.359    
    499000   0.96828764     0.0023323615  -0.0042062942   20.327922      18.890015      1.4379071     -1.5960354      18418.144    
    500000   1.0876697      0.0023323615   0.0037894158   20.79802       19.182831      1.6151896     -1.4347928      18525.6      
    501000   0.92151564     0.0023323615  -0.0011401512   20.373658      19.005208      1.3684507     -1.5291443      18547.026    
    502000   0.84764109     0.0023323615  -0.0013162251   20.660165      19.401418      1.258747      -1.2856802      18536.41     
    503000   0.85720343     0.0023323615   0.0010982932   20.369491      19.096544      1.2729471     -1.3819226      18492.445    
    504000   0.99420531     0.0023323615   0.0025755282   20.564579      19.088184      1.4763949     -1.3729034      18324.817    
    505000   1.105061       0.0023323615  -0.0024912724   20.796551      19.155536      1.6410155     -1.4274313      18324.844    
    506000   1.1510405      0.0023323615  -0.0025721892   20.859355      19.150059      1.7092951     -1.4255222      18253.517    
    507000   1.0450971      0.0023323615   0.00053549901  20.493637      18.941668      1.5519692     -1.586351       18327.482    
    508000   1.0694129      0.0023323615   0.0014063232   20.573934      18.985856      1.5880782     -1.5239562      18428.196    
    509000   1.0995761      0.0023323615  -0.00071767586  20.520469      18.887598      1.6328706     -1.4889379      18407.625    
    510000   0.82914214     0.0023323615  -0.003995379    20.249729      19.018452      1.2312761     -1.5340888      18327.633    
    511000   1.0368033      0.0023323615  -0.0030153761   20.4794        18.939747      1.5396528     -1.5775422      18333.252    
    512000   1.0991976      0.0023323615  -0.0025642436   20.689353      19.057045      1.6323085     -1.4265434      18324.08     
    513000   1.013876       0.0023323615   0.002785679    20.935103      19.429497      1.5056059     -1.1367266      18802.347    
    514000   0.86900483     0.0023323615   0.0023626302   20.870643      19.58017       1.2904722     -0.95416725     19176.783    
    515000   1.0079183      0.0023323615  -0.0027615947   20.607011      19.110253      1.4967586     -1.3490892      18684.328    
    516000   1.0122829      0.0023323615   0.00048018451  20.752926      19.249686      1.5032401     -1.2057178      18505.432    
    517000   1.1111993      0.0023323615   0.0051894301   20.762879      19.112748      1.6501309     -1.4884882      18348.991    
    518000   0.97237855     0.0023323615  -0.0011985926   20.372959      18.928977      1.4439822     -1.4606823      18403.158    
    519000   0.99471635     0.0023323615   0.00075543825  20.748636      19.271483      1.4771538     -1.2714159      18400.366    
    520000   1.0428394      0.0023323615  -0.002599626    20.967393      19.418777      1.5486165     -1.3307877      18300.224    
    521000   0.97195046     0.0023323615  -0.0016501745   20.701398      19.258052      1.4433464     -1.3106983      18467.273    
    522000   1.0704094      0.0023323615   0.0012631283   20.962798      19.37324       1.589558      -1.2403735      18501.854    
    523000   0.97303462     0.0023323615  -0.0026817936   20.68791       19.242953      1.4449564     -1.2995971      18627.533    
    524000   1.0353451      0.0023323615   0.00024502046  20.681129      19.143642      1.5374875     -1.3699881      18696.683    
    525000   0.91830485     0.0023323615   0.0032547796   20.6497        19.286018      1.3636827     -1.3043604      18664.158    
    526000   0.85811294     0.0023323615  -0.0018349849   20.52339       19.249092      1.2742977     -1.2605517      18586.539    
    527000   1.0346954      0.0023323615   0.0021212463   20.89892       19.362398      1.5365226     -1.2525622      18453.111    
    528000   1.1389981      0.0023323615  -0.0035115663   21.087489      19.396077      1.6914122     -1.1259606      18783.07     
    529000   1.0609801      0.0023323615   0.00078666109  20.927132      19.351576      1.5755555     -1.185522       18917.465    
    530000   0.97712698     0.0023323615   0.0015605358   20.753878      19.302844      1.4510336     -1.1630976      18736.422    
    531000   0.87680614     0.0023323615   0.0026231961   20.458964      19.156907      1.3020571     -1.2999173      18508.17     
    532000   1.0053162      0.0023323615  -0.0013516411   20.664233      19.171339      1.4928946     -1.3798356      18484.677    
    533000   0.91924521     0.0023323615   0.00077342391  20.306252      18.941173      1.3650791     -1.6169         18497.476    
    534000   0.93912488     0.0023323615   0.0016004705   20.386776      18.992175      1.3946004     -1.5051829      18359.569    
    535000   1.1802838      0.0023323615   0.0020154691   20.907167      19.154446      1.7527215     -1.2216418      18615.137    
    536000   1.0534851      0.0023323615   0.0031695832   20.798424      19.233999      1.5644254     -1.3635835      19305.423    
    537000   0.97094924     0.0023323615  -0.00071496797  20.519102      19.077242      1.4418596     -1.3917578      18943.693    
    538000   0.90338174     0.0023323615   0.00011107672  20.49516       19.153638      1.3415219     -1.3815089      18519.496    
    539000   1.0335297      0.0023323615   0.00059119606  20.843837      19.309046      1.5347916     -1.2062046      18682.576    
    540000   1.1457686      0.0023323615   0.0023572182   20.767349      19.065882      1.7014664     -1.4546494      18645.422    
    541000   0.97478587     0.0023323615  -0.0017621356   20.336436      18.888879      1.447557      -1.4906051      18545.089    
    542000   0.97186649     0.0023323615  -0.0020316356   20.603013      19.159791      1.4432217     -1.3047854      18440.286    
    543000   1.0098301      0.0023323615  -0.00036893748  20.595121      19.095524      1.4995977     -1.4601272      18516.194    
    544000   0.89590203     0.0023323615  -0.00087033442  20.696659      19.366245      1.3304145     -1.2090004      18596.468    
    545000   0.98395493     0.0023323615   0.0055413446   20.621078      19.159905      1.4611731     -1.2819368      18745.191    
    546000   0.97024958     0.0023323615   0.0014602844   20.805383      19.364563      1.4408206     -1.1657509      19221.727    
    547000   0.80090303     0.0023323615  -0.0022756352   20.37114       19.181799      1.189341      -1.2664278      19058.92     
    548000   0.87295787     0.0023323615  -0.0019454286   20.46499       19.168648      1.2963424     -1.3438466      18721.964    
    549000   0.87605326     0.0023323615   0.00077813534  20.454415      19.153476      1.3009391     -1.2436282      18670.044    
    550000   1.0281959      0.0023323615  -0.0010623877   20.643864      19.116993      1.5268709     -1.469867       18548.642    
    551000   1.0398135      0.0023323615  -0.0020944919   20.700156      19.156033      1.5441231     -1.3415619      18711.449    
    552000   1.0049656      0.0023323615   0.00090286717  20.681747      19.189373      1.4923739     -1.2242057      18709.468    
    553000   0.92260216     0.0023323615   0.0049236227   20.460542      19.090478      1.3700642     -1.4977666      18743.674    
    554000   1.2208477      0.0023323615   0.0037435918   20.850938      19.037979      1.8129588     -1.4781881      18719.082    
    555000   1.0649354      0.0023323615  -0.0023816159   20.984292      19.402863      1.5814291     -1.1759796      18810.805    
    556000   1.1511889      0.0023323615  -0.0010544624   20.9827        19.273184      1.7095154     -1.2645587      18824.783    
    557000   1.1663245      0.0023323615  -4.9372234e-05  20.873824      19.141832      1.7319918     -1.3222914      18765.508    
    558000   1.0645014      0.0023323615  -0.001218002    20.870993      19.290209      1.5807846     -1.1688202      18722.709    
    559000   0.96989178     0.0023323615   0.00089357276  20.695082      19.254793      1.4402893     -1.4176153      18624.474    
    560000   0.90947306     0.0023323615  -0.0024305412   20.655284      19.304717      1.3505675     -1.244848       18709.282    
    561000   1.1587847      0.0023323615   0.0004465969   20.729189      19.008394      1.7207953     -1.5034625      18422.961    
    562000   0.99616239     0.0023323615   0.0018670265   20.465061      18.98576       1.4793011     -1.4596394      18444.842    
    563000   1.1195908      0.0023323615   0.0039937034   20.835228      19.172636      1.6625924     -1.35697        18599.698    
    564000   1.0213427      0.0023323615  -0.00038338088  20.66207       19.145376      1.516694      -1.4153004      18495.381    
    565000   0.99944654     0.0023323615   0.0049145448   20.487093      19.002915      1.4841781     -1.5734766      18385.46     
    566000   1.1443968      0.0023323615   0.0027371885   20.664849      18.96542       1.6994292     -1.5472034      18401.991    
    567000   0.86444408     0.0023323615   0.0020456096   20.407923      19.124223      1.2836995     -1.5830601      18557.256    
    568000   1.0352986      0.0023323615  -0.0041831023   20.595433      19.058015      1.5374184     -1.4675978      18511.136    
    569000   1.1588595      0.0023323615  -0.00071024112  21.061061      19.340155      1.7209063     -1.2453808      18571.638    
    570000   1.0774221      0.0023323615  -0.0019427323   20.578418      18.978447      1.5999717     -1.5002238      18512.334    
    571000   0.93865103     0.0023323615  -0.00073013581  20.74321       19.349313      1.3938968     -1.108395       18553.528    
    572000   0.90061334     0.0023323615  -0.0026946972   20.728829      19.391418      1.3374108     -1.1905644      18413.102    
    573000   0.94926207     0.0023323615   0.00091202743  20.608585      19.198931      1.4096542     -1.2833923      18584.124    
    574000   1.0888562      0.0023323615   0.0022037108   21.015482      19.398531      1.6169514     -1.1219517      18718.903    
    575000   0.86366006     0.0023323615  -0.0012277149   20.509382      19.226847      1.2825352     -1.2622195      18634.686    
    576000   0.91311966     0.0023323615   0.005730731    20.520339      19.164357      1.3559827     -1.3057159      18542.133    
    577000   1.039817       0.0023323615   0.0011189253   20.487507      18.943378      1.5441283     -1.5557103      18606.49     
    578000   1.140274       0.0023323615  -0.0036852883   20.960309      19.267002      1.6933069     -1.2923223      18557.333    
    579000   1.0854921      0.0023323615   0.003448492    20.740137      19.128182      1.6119558     -1.3345785      18475.607    
    580000   1.1360215      0.0023323615   0.0027055401   20.771716      19.084724      1.6869919     -1.4062309      18520.125    
    581000   1.0285272      0.0023323615  -0.00087491367  20.255777      18.728414      1.5273628     -1.6450461      18516.156    
    582000   1.1366214      0.0023323615  -0.0019468605   20.902273      19.21439       1.6878828     -1.3717709      18523.709    
    583000   1.1039431      0.0023323615   0.0036367216   20.828909      19.189554      1.6393555     -1.451925       18535.384    
    584000   0.98210747     0.0023323615   0.00011867312  20.433276      18.974846      1.4584296     -1.4453708      18387.248    
    585000   1.0318772      0.0023323615  -0.0031031352   20.813814      19.281476      1.5323376     -1.1416202      18683.478    
    586000   1.0510424      0.0023323615   0.0024055865   21.236354      19.675556      1.560798      -0.97474317     19076.119    
    587000   0.89900283     0.0023323615  -0.0025780376   20.638457      19.303438      1.3350192     -1.3057213      18717.386    
    588000   0.86261011     0.0023323615  -0.0017507713   20.467932      19.186956      1.280976      -1.4617343      18551.372    
    589000   1.0338988      0.0023323615   0.00011209654  20.648065      19.112725      1.5353397     -1.3714365      18374.23     
    590000   1.1290426      0.0023323615  -0.0040787059   20.626537      18.949909      1.6766282     -1.5085277      18468.907    
    591000   0.90600937     0.0023323615   0.00031348585  20.363485      19.018061      1.3454239     -1.4961685      18411.444    
    592000   1.0893875      0.0023323615  -0.0019497553   20.763658      19.145918      1.6177404     -1.3185573      18474.591    
    593000   1.103197       0.0023323615   0.00099681843  20.866902      19.228654      1.6382475     -1.2509588      18573.252    
    594000   0.90312759     0.0023323615  -0.00074697919  20.602216      19.261072      1.3411445     -1.3111701      18600.834    
    595000   0.92885783     0.0023323615   0.0010874306   20.263704      18.88435       1.3793539     -1.5596442      18460.579    
    596000   1.0697656      0.0023323615   9.8162024e-05  20.795218      19.206616      1.588602      -1.2688743      18299.942    
    597000   0.99489805     0.0023323615  -0.0022323944   20.659814      19.18239       1.4774236     -1.3825459      18308.407    
    598000   0.91802838     0.0023323615   3.3539858e-06  20.526043      19.162771      1.3632721     -1.380487       18362.541    
    599000   0.77231994     0.0023323615  -0.0034664564   20.233449      19.086553      1.1468951     -1.3330061      18517.915    
    600000   0.84561063     0.0023323615  -0.00082056274  20.504024      19.248292      1.2557318     -1.3068177      18467.007    
    601000   0.90418232     0.0023323615   0.0021417058   20.527925      19.185214      1.3427108     -1.3905097      18441.461    
    602000   0.92972424     0.0023323615  -0.007632517    20.469686      19.089045      1.3806405     -1.4286935      18620.735    
    603000   1.0307204      0.0023323615  -0.0026225979   20.539349      19.008729      1.5306198     -1.4890947      18360.815    
    604000   1.1959009      0.0023323615   0.00066307793  20.952698      19.176785      1.7759129     -1.4522333      18422.519    
    605000   0.96911537     0.0023323615  -0.0011994946   20.37379       18.934654      1.4391363     -1.448102       18349.149    
    606000   1.0032723      0.0023323615   0.0030157678   20.533097      19.043237      1.4898594     -1.5096995      18393.456    
    607000   1.0692906      0.0023323615  -0.0035155464   20.367701      18.779804      1.5878966     -1.6388595      18536.981    
    608000   1.0661055      0.0023323615  -0.0017220048   20.704956      19.121789      1.5831667     -1.5137363      18479.38     
    609000   1.0627743      0.0023323615  -0.00091101286  20.510116      18.931896      1.5782199     -1.6024454      18360.335    
    610000   0.85195231     0.0023323615  -0.001387078    20.302688      19.037538      1.2651492     -1.4785001      18446.332    
    611000   1.0071116      0.0023323615   0.0020469929   20.708782      19.213221      1.4955607     -1.2691021      18572.667    
    612000   1.0172257      0.0023323615  -0.0066789081   20.42999       18.91941       1.5105802     -1.6723946      18438.76     
    613000   0.90610306     0.0023323615   0.0029526655   20.34883       19.003267      1.345563      -1.4784014      18305.577    
    614000   0.97076231     0.0023323615   0.0030615457   20.384504      18.942922      1.441582      -1.581011       18371.071    
    615000   0.89184284     0.0023323615   0.0019017163   20.377922      19.053536      1.3243866     -1.5108679      18396.419    
    616000   0.8297236      0.0023323615  -0.0037791918   20.236273      19.004133      1.2321396     -1.5484377      18384.688    
    617000   0.93103988     0.0023323615  -0.00044836875  20.325644      18.94305       1.3825942     -1.6290241      18324.067    
    618000   1.0678148      0.0023323615   0.0035861974   20.550826      18.965121      1.585705      -1.5578933      18306.691    
    619000   1.1134908      0.0023323615  -0.002610387    20.644846      18.991312      1.6535339     -1.5991103      18391.049    
    620000   1.0912728      0.0023323615   0.00066591968  20.994465      19.373925      1.6205401     -1.2787433      18390.978    
    621000   1.1415467      0.0023323615   0.0013312397   21.177992      19.482795      1.6951969     -1.249766       18353.627    
    622000   1.0900471      0.0023323615  -0.0017358101   20.695391      19.076671      1.61872       -1.39142        18423.271    
    623000   1.0839983      0.0023323615   0.0038027811   20.60419       18.994452      1.6097374     -1.6211249      18384.034    
    624000   0.9426189      0.0023323615   0.00075914775  20.60215       19.202361      1.3997891     -1.4424443      18359.859    
    625000   1.2068119      0.0023323615   0.00013480407  20.835713      19.043597      1.7921157     -1.4876481      18448.398    
    626000   1.0794359      0.0023323615   0.00085549432  20.608463      19.005501      1.6029623     -1.6102172      18312.008    
    627000   1.0300724      0.0023323615   0.0056492828   20.503922      18.974264      1.5296575     -1.5687559      18295.49     
    628000   1.1126185      0.0023323615   0.0067807429   21.14965       19.497412      1.6522384     -1.1980578      18328.529    
    629000   0.97452039     0.0023323615  -0.00031212924  20.593982      19.146819      1.4471628     -1.4521965      18416.153    
    630000   1.0147838      0.0023323615  -0.00089277995  20.758626      19.251672      1.506954      -1.2736321      18382.094    
    631000   1.082336       0.0023323615  -0.0021352261   20.986618      19.37935       1.6072689     -1.2136587      18600.117    
    632000   1.1669758      0.0023323615  -0.0011162462   20.980242      19.247283      1.732959      -1.2953057      18476.24     
    633000   0.86212854     0.0023323615  -0.0017549172   20.205015      18.924754      1.2802609     -1.5218803      18425.301    
    634000   1.0803234      0.0023323615   0.00041413718  20.692744      19.088464      1.6042803     -1.3886828      18400.681    
    635000   1.1704612      0.0023323615   0.0035119733   20.723591      18.985456      1.7381349     -1.4773942      18493.14     
    636000   0.87892676     0.0023323615  -0.0022623308   20.591347      19.286141      1.3052062     -1.3452048      18574.917    
    637000   0.9360807      0.0023323615   0.0024121221   20.418415      19.028335      1.3900798     -1.5395567      18427.236    
    638000   0.8993389      0.0023323615  -0.0040400549   20.47885       19.143331      1.3355183     -1.4464441      18216.25     
    639000   0.950751       0.0023323615   0.0022023889   20.468992      19.057127      1.4118652     -1.407195       18333.218    
    640000   1.0875801      0.0023323615   0.00388937     20.668089      19.053032      1.6150564     -1.4737596      18451.364    
    641000   0.99025423     0.0023323615  -7.5427339e-05  20.390309      18.919781      1.4705275     -1.7136665      18335.609    
    642000   1.0030925      0.0023323615   0.00046951413  20.365163      18.87557       1.4895924     -1.7812578      18243.131    
    643000   0.85358955     0.0023323615   0.00068745361  20.097331      18.82975       1.2675805     -1.7697366      18251.468    
    644000   0.96067009     0.0023323615   0.0029300798   20.29039       18.863795      1.4265951     -1.557803       18395.74     
    645000   1.010725       0.0023323615   0.00043005096  20.514735      19.013809      1.5009266     -1.540792       18388.159    
    646000   0.93624755     0.0023323615  -0.0017367281   20.355108      18.964781      1.3903276     -1.5524195      18358.88     
    647000   0.95393898     0.0023323615  -0.00053763376  20.537247      19.120648      1.4165994     -1.4200537      18476.168    
    648000   0.90766193     0.0023323615   0.00018073198  20.32997       18.982092      1.347878      -1.5004154      18356.229    
    649000   1.1850763      0.0023323615   0.00034669589  20.560472      18.800634      1.7598382     -1.6059319      18447.616    
    650000   1.0001136      0.0023323615  -0.002711371    20.626671      19.141502      1.4851686     -1.3967281      18329.437    
    651000   0.92570356     0.0023323615   0.0021569976   20.434731      19.060061      1.3746698     -1.478039       18338.075    
    652000   0.99432877     0.0023323615  -0.0025429544   20.477316      19.000738      1.4765782     -1.6246994      18319.768    
    653000   0.92967654     0.0023323615   2.1894158e-05  20.557832      19.177262      1.3805697     -1.3991211      18426.114    
    654000   0.9646669      0.0023323615  -0.0020138793   20.794171      19.361641      1.4325304     -1.31065        18380.655    
    655000   1.0365796      0.0023323615   0.00054867399  20.624063      19.084742      1.5393207     -1.3909256      18470.479    
    656000   0.84872787     0.0023323615  -0.0011739289   20.318706      19.058346      1.2603609     -1.4608244      18424.6      
    657000   0.9335107      0.0023323615   0.0036328057   20.358013      18.97175       1.3862634     -1.5710783      18498.377    
    658000   0.95439165     0.0023323615   0.003461883    20.439054      19.021782      1.4172716     -1.4929111      18460.408    
    659000   0.9535728      0.0023323615   0.0029537587   20.326107      18.910052      1.4160556     -1.6555396      18368.921    
    660000   0.98048307     0.0023323615   0.0020316249   20.510616      19.054598      1.4560174     -1.6155349      18446.918    
    661000   1.1038277      0.0023323615  -0.0025179931   20.501788      18.862604      1.6391842     -1.5979601      18561.398    
    662000   0.93213832     0.0023323615  -0.0017735745   20.468201      19.083976      1.3842254     -1.4744509      18621.472    
    663000   1.10026        0.0023323615  -0.0012713541   20.443096      18.809209      1.633886      -1.699388       18331.292    
    664000   1.0667757      0.0023323615   0.00020360762  20.672686      19.088524      1.5841619     -1.4651656      18255.286    
    665000   0.95704369     0.0023323615   0.004452047    20.376971      18.955761      1.4212099     -1.5248186      18246.153    
    666000   1.0596387      0.0023323615   0.0031543514   20.956359      19.382796      1.5735635     -1.1055994      18416.217    
    667000   1.1239488      0.0023323615   0.00059194738  20.910262      19.241198      1.669064      -1.2737039      18186.981    
    668000   1.0225662      0.0023323615   0.0016020488   20.469372      18.950862      1.5185108     -1.512119       18126.239    
    669000   0.94092675     0.0023323615   0.00096504582  20.350703      18.953427      1.3972762     -1.5716385      18188.187    
    670000   0.92538229     0.0023323615  -0.0029142294   20.381485      19.007292      1.3741927     -1.476947       18285.891    
    671000   0.95905535     0.0023323615   0.0041406754   20.457929      19.033732      1.4241972     -1.4680017      18233.244    
    672000   1.0471109      0.0023323615  -0.0026160708   20.692855      19.137895      1.5549596     -1.4356649      18204.375    
    673000   0.98504113     0.0023323615   0.00032859175  20.225438      18.762652      1.4627861     -1.8353446      18177.336    
    674000   1.0729271      0.0023323615   0.00069269061  20.500906      18.907609      1.5932967     -1.5463568      18193.143    
    675000   1.0298165      0.0023323615   0.00073134141  20.663501      19.134224      1.5292775     -1.3345553      18399.701    
    676000   0.98390275     0.0023323615  -0.0037388891   20.487855      19.026759      1.4610956     -1.4075035      18345.15     
    677000   0.93715728     0.0023323615   0.0018141659   20.497828      19.106149      1.3916786     -1.4400374      18186.076    
    678000   1.1052681      0.0023323615   0.0038246543   20.693452      19.052129      1.6413231     -1.4448233      18297.097    
    679000   1.0090535      0.0023323615   0.0024116412   20.465608      18.967164      1.4984444     -1.4988213      18263.921    
    680000   1.0224627      0.0023323615  -0.00070611099  20.723806      19.205449      1.5183572     -1.4417566      18220.885    
    681000   1.0842621      0.0023323615  -0.0011890043   20.875958      19.265829      1.6101293     -1.3118581      18319.661    
    682000   0.90248033     0.0023323615  -0.0019121337   20.532136      19.191953      1.3401833     -1.5086899      18366.099    
    683000   1.0688741      0.0023323615   0.0033958049   20.640049      19.052771      1.587278      -1.4889219      18361.997    
    684000   0.93874406     0.0023323615   0.001292364    20.039931      18.645896      1.3940349     -1.8034013      18319.893    
    685000   0.94134455     0.0023323615   0.00076396982  20.810868      19.412971      1.3978967     -1.2939908      18489.396    
    686000   1.1929574      0.0023323615  -0.00098779605  20.837227      19.065685      1.7715418     -1.4573864      18438.763    
    687000   1.018344       0.0023323615   0.0020697983   20.811813      19.299572      1.5122409     -1.2375418      18210.171    
    688000   0.95758139     0.0023323615   0.002971149    20.456976      19.034968      1.4220084     -1.3740333      18387.655    
    689000   0.97243546     0.0023323615  -0.0028069951   20.590479      19.146412      1.4440667     -1.4052877      18430.391    
    690000   0.99780995     0.0023323615  -0.0021283986   20.914914      19.433166      1.4817478     -1.0886797      18527.43     
    691000   1.0277891      0.0023323615  -0.0031854579   20.638771      19.112504      1.5262668     -1.3622586      18515.304    
    692000   0.89295222     0.0023323615  -0.0030555232   20.661299      19.335265      1.326034      -1.2990889      18424.1      
    693000   1.0005178      0.0023323615  -0.00093984962  20.429671      18.943902      1.4857689     -1.5615811      18356.948    
    694000   1.0058612      0.0023323615   0.0032777929   20.399121      18.905417      1.4937039     -1.6235728      18394.052    
    695000   0.87365561     0.0023323615  -0.0017031724   20.379877      19.082498      1.2973786     -1.3777825      18504.245    
    696000   0.93360457     0.0023323615  -4.2133784e-05  20.191138      18.804735      1.3864028     -1.6531978      18332.868    
    697000   0.95933444     0.0023323615   2.5665988e-05  20.403026      18.978414      1.4246116     -1.5822438      18352.098    
    698000   1.1027736      0.0023323615  -0.00098138805  20.419691      18.782072      1.6376187     -1.5999488      18217.36     
    699000   0.91818741     0.0023323615   0.0027618592   20.383972      19.020463      1.3635083     -1.6276611      18158.85     
    700000   0.79963352     0.0023323615   0.00099939459  20.02532       18.837865      1.1874558     -1.5841638      18206.906    
    701000   0.8505388      0.0023323615   0.0010551122   20.402198      19.139148      1.2630501     -1.4767547      18180.872    
    702000   1.0372336      0.0023323615  -0.0018475544   20.50538       18.965088      1.5402919     -1.4921118      18281.072    
    703000   0.86417061     0.0023323615  -0.0026490317   20.198003      18.914709      1.2832934     -1.5276881      18254.231    
    704000   0.96768483     0.0023323615   0.0027445763   20.360612      18.9236        1.437012      -1.5814472      18132.008    
    705000   0.98475587     0.0023323615  -0.0014119946   20.505006      19.042643      1.4623625     -1.5126856      18257.26     
    706000   0.99271037     0.0023323615   0.00054591936  20.73422       19.260045      1.4741749     -1.3569417      18252.856    
    707000   0.99728817     0.0023323615   0.003392985    20.52748       19.046507      1.4809729     -1.4462615      18198.354    
    708000   0.95184957     0.0023323615  -0.00031693314  20.455221      19.041724      1.4134966     -1.4461328      18286.481    
    709000   0.89436285     0.0023323615   0.0028509124   20.596141      19.268012      1.3281288     -1.2135983      18278.752    
    710000   0.89300796     0.0023323615   0.0026675234   20.630082      19.303965      1.3261168     -1.4230558      18426.634    
    711000   0.82852983     0.0023323615  -0.0029216956   20.564252      19.333885      1.2303668     -1.2880573      18456.346    
    712000   0.97585803     0.0023323615  -0.00031147662  20.479446      19.030297      1.4491492     -1.4970386      18159.861    
    713000   1.0066306      0.0023323615  -0.00094556662  20.426504      18.931657      1.4948464     -1.5088335      18193.972    
    714000   0.96059924     0.0023323615   0.0052128069   20.694417      19.267927      1.4264899     -1.31642        18262.361    
    715000   1.0170288      0.0023323615   0.00088814479  20.356223      18.845935      1.5102878     -1.6024496      18326.741    
    716000   0.87893907     0.0023323615  -0.0017885641   20.328236      19.023011      1.3052245     -1.421004       18328.899    
    717000   0.92483337     0.0023323615  -0.0030413129   20.575535      19.202158      1.3733775     -1.2551838      18309.25     
    718000   0.95379302     0.0023323615  -0.0026901209   20.722599      19.306216      1.4163826     -1.2326057      18573.252    
    719000   1.1297953      0.0023323615  -0.0018840681   20.785326      19.10758       1.677746      -1.398421       18551.466    
    720000   0.9121755      0.0023323615  -0.00054248699  20.248336      18.893755      1.3545806     -1.6185097      18181.856    
    721000   0.93983562     0.0023323615  -0.001413789    20.556152      19.160496      1.3956559     -1.3324009      18181.647    
    722000   0.92873939     0.0023323615   0.0019867499   20.337018      18.95784       1.379178      -1.637531       18289.587    
    723000   1.0207951      0.0023323615  -0.00079340947  20.384502      18.868621      1.5158808     -1.5228044      18424.07     
    724000   1.0674774      0.0023323615   0.0033278216   20.760368      19.175164      1.585204      -1.3750501      18593.669    
    725000   1.1273628      0.0023323615   0.0040956758   20.992579      19.318446      1.6741337     -1.1695796      18622.542    
    726000   0.9376437      0.0023323615  -0.0020806637   20.762124      19.369723      1.3924009     -1.2799776      18595.706    
    727000   1.0522869      0.0023323615   0.0060023578   20.654517      19.091871      1.5626461     -1.3883236      18398.043    
    728000   1.0164522      0.0023323615   0.00095304608  20.836476      19.327045      1.5094315     -1.2476676      18343.032    
    729000   0.9797994      0.0023323615   0.0012679869   20.196057      18.741055      1.4550021     -1.7077443      18326.062    
    730000   0.97932486     0.0023323615  -0.00023077819  20.510742      19.056444      1.4542974     -1.3945405      18147.793    
    731000   0.95552895     0.0023323615  -0.004162395    20.39041       18.97145       1.4189605     -1.5247135      18163.704    
    732000   1.0227597      0.0023323615   0.0045738903   20.790179      19.27138       1.5187982     -1.381207       18285.606    
    733000   0.86320147     0.0023323615  -0.00074870567  20.246457      18.964603      1.2818542     -1.4756846      18016.99     
    734000   1.1438792      0.0023323615   0.00012289046  20.825344      19.126683      1.6986607     -1.2781018      18298.069    
    735000   1.0406438      0.0023323615   0.0019655063   20.385623      18.840266      1.5453561     -1.5665187      18269.454    
    736000   0.99228542     0.0023323615  -0.0024394155   20.532683      19.059139      1.4735439     -1.4371372      18237.465    
    737000   1.025687       0.0023323615   0.0033299885   20.587512      19.064366      1.5231453     -1.4616006      18166.752    
    738000   0.92936585     0.0023323615   0.00071846546  20.350695      18.970587      1.3801083     -1.6341057      18205.946    
    739000   1.0063423      0.0023323615   0.00038492511  20.749312      19.254894      1.4944183     -1.2611244      18262.391    
    740000   0.9036669      0.0023323615   0.0048978932   20.613316      19.271371      1.3419453     -1.262874       18297.295    
    741000   1.1214941      0.0023323615   0.0019907045   20.56974       18.904321      1.6654187     -1.5899507      18334.232    
    742000   1.0341642      0.0023323615  -0.00056014261  20.584891      19.049157      1.5357339     -1.4664988      18271.056    
    743000   0.95046931     0.0023323615   0.0015537694   20.403153      18.991707      1.4114469     -1.4045397      18362.781    
    744000   1.0098348      0.0023323615   0.00085313599  20.43995       18.940345      1.4996046     -1.5383338      18359.599    
    745000   1.0504921      0.0023323615  -0.00083826398  20.738304      19.178324      1.5599808     -1.334515       18236.125    
    746000   0.87376855     0.0023323615  -0.00036798804  20.439471      19.141925      1.2975463     -1.4847758      18683.786    
    747000   0.99386208     0.0023323615  -0.00078443642  20.769734      19.293849      1.4758852     -1.3130366      18550.91     
    748000   0.94439221     0.0023323615  -0.001290925    20.532457      19.130034      1.4024224     -1.4241974      18359.275    
    749000   0.97898504     0.0023323615   0.00045338986  20.509852      19.05606       1.4537928     -1.3635656      18178.203    
    750000   1.0187444      0.0023323615  -0.0011099241   20.716517      19.203681      1.5128355     -1.2627941      18260.403    
    751000   1.0142052      0.0023323615  -0.0010994252   20.615061      19.108966      1.5060947     -1.3890069      18137.243    
    752000   1.0263493      0.0023323615  -0.0028456057   20.728165      19.204036      1.5241287     -1.2846594      18152.334    
    753000   0.90400534     0.0023323615   0.00047846195  20.232923      18.890475      1.3424479     -1.4619349      18194.792    
    754000   1.1407902      0.0023323615  -0.0050599378   20.892323      19.198249      1.6940734     -1.3850927      18246.92     
    755000   0.99482359     0.0023323615  -0.00018194733  20.720331      19.243018      1.477313      -1.3751003      18313.15     
    756000   1.0302129      0.0023323615  -0.0033576116   20.713504      19.183638      1.5298662     -1.3084463      18219.448    
    757000   1.0493911      0.0023323615   0.0038456306   20.767697      19.209351      1.5583458     -1.36481        18287.151    
    758000   0.94309626     0.0023323615  -0.0022427207   20.440935      19.040437      1.400498      -1.4251836      18355.331    
    759000   0.83953846     0.0023323615  -0.0024752291   20.598055      19.351341      1.2467146     -1.1327607      18279.608    
    760000   0.91990528     0.0023323615   0.00053017254  20.757446      19.391387      1.3660593     -1.206787       18429.649    
    761000   1.138466       0.0023323615   0.0011668637   20.644377      18.953755      1.690622      -1.4550541      18409.716    
    762000   0.92402846     0.0023323615  -0.0036503538   20.579455      19.207273      1.3721823     -1.2148011      18272.825    
    763000   1.0095636      0.0023323615  -0.00078297429  20.652333      19.153131      1.4992019     -1.4545496      18218.081    
    764000   0.95409915     0.0023323615  -0.0024496412   20.135431      18.718593      1.4168372     -1.7827864      18265.756    
    765000   0.92102834     0.0023323615   0.0018904114   20.389272      19.021545      1.3677271     -1.5232356      18239.234    
    766000   1.0143737      0.0023323615   0.0030540422   20.637864      19.131519      1.506345      -1.3026209      18282.927    
    767000   1.0065824      0.0023323615  -0.0016823991   20.602215      19.10744       1.4947748     -1.3038935      18361.642    
    768000   0.92793381     0.0023323615  -0.0015655858   20.294283      18.916301      1.3779817     -1.7042937      18247.574    
    769000   1.0559914      0.0023323615   0.0014245598   20.801719      19.233572      1.5681472     -1.2283564      18248.845    
    770000   0.85873281     0.0023323615  -0.0020579341   20.782378      19.50716       1.2752182     -1.0502419      18543.473    
    771000   0.99432612     0.0023323615  -0.0025522995   20.539062      19.062488      1.4765743     -1.5245014      18462.166    
    772000   0.8781161      0.0023323615   0.00095135738  20.327507      19.023504      1.3040024     -1.5118123      18244.539    
    773000   1.0945243      0.0023323615   0.00047707195  20.641704      19.016336      1.6253685     -1.6136385      18136.792    
    774000   0.99588741     0.0023323615  -0.0021825905   20.582549      19.103656      1.4788928     -1.4852076      18184.363    
    775000   1.1107271      0.0023323615   0.0012803136   20.892624      19.243195      1.6494297     -1.3153899      18308.659    
    776000   1.0940704      0.0023323615  -0.0022066057   20.896742      19.272048      1.6246946     -1.1852857      18250.166    
    777000   1.0246953      0.0023323615  -0.0011044422   20.819498      19.297826      1.5216725     -1.2945394      18246.689    
    778000   1.0350082      0.0023323615  -0.0024725001   20.713667      19.17668       1.5369871     -1.3142778      18368.384    
    779000   1.0349931      0.0023323615  -0.00060214079  20.796219      19.259254      1.5369647     -1.3489515      18250.66     
    780000   0.94269737     0.0023323615   0.00014112605  20.523103      19.123197      1.3999056     -1.4503975      18190.494    
    781000   1.046533       0.0023323615   0.001499008    20.620593      19.066492      1.5541015     -1.3687475      18184.217    
    782000   0.91202772     0.0023323615  -0.0015350348   20.817427      19.463066      1.3543612     -1.0955499      18450.451    
    783000   1.0131036      0.0023323615  -0.0012065043   20.847561      19.343102      1.5044589     -1.1923983      18711.2      
    784000   0.86220732     0.0023323615   0.00070239637  20.522059      19.241681      1.2803779     -1.345231       18504.712    
    785000   1.1603004      0.0023323615  -0.0001054909   21.095177      19.372131      1.7230461     -1.1648632      18389.525    
    786000   0.91020609     0.0023323615  -0.0025489767   20.365737      19.014081      1.351656      -1.5556842      18490.362    
    787000   1.0297953      0.0023323615  -0.0011982157   20.630372      19.101126      1.5292461     -1.4192516      18338.186    
    788000   1.022847       0.0023323615  -0.0041005816   20.499564      18.980636      1.5189278     -1.422685       18280.164    
    789000   1.0887035      0.0023323615  -0.00022373614  20.857279      19.240554      1.6167247     -1.2391722      18322.755    
    790000   1.001082       0.0023323615  -5.5997221e-05  20.951065      19.464458      1.4866067     -1.1115944      18307.528    
    791000   0.92450812     0.0023323615  -0.0060747136   20.840307      19.467412      1.3728946     -0.97384594     18570.764    
    792000   0.92498568     0.0023323615   0.000257006    20.720903      19.3473        1.3736037     -1.1440403      18428.598    
    793000   0.99291506     0.0023323615  -0.00299082     20.578809      19.104331      1.4744789     -1.4491372      18258.883    
    794000   0.90160708     0.0023323615   0.00068000107  20.146648      18.807761      1.3388865     -1.5877408      18139.31     
    795000   0.83764822     0.0023323615  -0.0015893913   20.23703       18.993122      1.2439076     -1.4701268      18234.25     
    796000   0.92832178     0.0023323615  -0.0025200963   20.336419      18.957861      1.3785578     -1.4414698      18303.052    
    797000   0.87346937     0.0023323615  -0.00057189137  20.499046      19.201944      1.297102      -1.3686182      18329.848    
    798000   1.118924       0.0023323615   0.0020772285   20.743269      19.081667      1.6616021     -1.3960565      18335.471    
    799000   1.0416887      0.0023323615  -0.004116059    20.561024      19.014116      1.5469078     -1.5069967      18296.946    
    800000   0.852919       0.0023323615  -0.0043442561   20.321377      19.054792      1.2665847     -1.4459578      18162.888    
    801000   0.94354529     0.0023323615   0.0015362823   20.445454      19.04429       1.4011648     -1.4617872      18228.076    
    802000   1.144486       0.0023323615  -8.0699737e-05  20.693282      18.99372       1.6995616     -1.5012788      18294.314    
    803000   1.0655562      0.0023323615  -0.0014292999   20.610337      19.027986      1.582351      -1.4122104      18176.3      
    804000   0.98515241     0.0023323615  -0.0010436409   20.378133      18.915181      1.4629513     -1.5519384      18256.692    
    805000   0.99232266     0.0023323615   0.0012638504   20.516982      19.043382      1.4735991     -1.467827       18283.335    
    806000   1.1108756      0.0023323615   0.00092199263  20.750877      19.101227      1.6496503     -1.4399664      18111.925    
    807000   0.98323566     0.0023323615   0.0044802078   20.59125       19.131145      1.460105      -1.3771644      18280.248    
    808000   1.0496829      0.0023323615  -0.0029861599   20.485085      18.926306      1.5587791     -1.5633556      18320.633    
    809000   1.0572175      0.0023323615   0.0016763625   20.483022      18.913053      1.5699681     -1.5609871      18199.961    
    810000   1.0961125      0.0023323615   0.00035306148  20.821373      19.193646      1.627727      -1.2956589      18326.179    
    811000   1.0378297      0.0023323615  -5.9476619e-05  20.746238      19.205061      1.5411772     -1.2723287      18341.951    
    812000   0.95548286     0.0023323615  -0.0024360668   20.886696      19.467804      1.4188921     -1.2065736      18378.875    
    813000   1.0395161      0.0023323615   0.006601216    20.482616      18.938934      1.5436815     -1.5963812      18187.438    
    814000   1.1475229      0.0023323615  -0.0032548562   20.714443      19.010372      1.7040715     -1.4667549      18220.16     
    815000   1.0276445      0.0023323615  -0.0015170257   20.88541       19.359358      1.526052      -1.1553898      18305.893    
    816000   1.1407428      0.0023323615   0.0008746951   20.66698       18.972977      1.6940031     -1.4046999      18359.008    
    817000   0.95728025     0.0023323615  -0.0014299144   20.626939      19.205378      1.4215612     -1.4002758      18386.984    
    818000   1.0255277      0.0023323615  -0.0026971415   20.47798       18.955071      1.5229086     -1.5250462      18598.845    
    819000   0.93899308     0.0023323615   0.0028761779   20.620714      19.226309      1.3944047     -1.3669817      18422.598    
    820000   0.87997781     0.0023323615  -0.0016960529   20.515054      19.208287      1.306767      -1.3195234      18405.754    
    821000   0.90689318     0.0023323615   0.0022087165   20.489         19.142264      1.3467364     -1.3032396      18494.326    
    822000   1.1590521      0.0023323615  -0.0032258418   20.936414      19.215221      1.7211924     -1.2966413      18428.805    
    823000   1.012541       0.0023323615  -0.0040014923   20.771013      19.26739       1.5036234     -1.2342473      18547.987    
    824000   0.96408562     0.0023323615   0.0031230946   20.465784      19.034117      1.4316671     -1.3872794      18325.44     
    825000   0.94069801     0.0023323615  -0.0015764139   20.652789      19.255852      1.3969365     -1.2050317      18444.065    
    826000   0.84338267     0.0023323615   0.00015657364  20.252256      18.999833      1.2524233     -1.5059197      18236.585    
    827000   1.0134538      0.0023323615   0.0045587176   20.374924      18.869945      1.5049789     -1.6483135      18194.941    
    828000   1.1188825      0.0023323615   0.0064988524   20.616011      18.954471      1.6615405     -1.5562145      18084.962    
    829000   1.0515186      0.0023323615  -0.0029622669   20.348171      18.786665      1.5615052     -1.5264651      18221.943    
    830000   0.93370245     0.0023323615   0.00080990559  20.732906      19.346358      1.3865481     -1.2628104      18148.684    
    831000   1.0404147      0.0023323615   0.0011115874   20.879449      19.334433      1.5450159     -1.2839168      18254.869    
    832000   0.97765747     0.0023323615  -0.0031831831   20.5005        19.048679      1.4518213     -1.5387112      18322.614    
    833000   0.95592252     0.0023323615  -0.002328759    20.779152      19.359607      1.4195449     -1.2896138      18224.611    
    834000   1.1166224      0.0023323615  -0.0014479799   20.631951      18.973767      1.6581842     -1.5794381      18095.556    
    835000   0.97261911     0.0023323615   0.00075725995  20.735705      19.291365      1.4443394     -1.2637238      18272.538    
    836000   0.96966159     0.0023323615  -0.0036766711   20.414809      18.974862      1.4399475     -1.5092277      18422.567    
    837000   1.0686887      0.0023323615   0.0020125334   20.754046      19.167044      1.5870027     -1.3932703      18273.046    
    838000   1.109882       0.0023323615  -0.00012118014  20.791105      19.14293       1.6481748     -1.3649438      18483.493    
    839000   1.1421847      0.0023323615  -0.0018605695   20.757293      19.061149      1.6961443     -1.474914       18404.024    
    840000   0.90217486     0.0023323615   0.0044903284   20.317484      18.977755      1.3397297     -1.5307293      18287.275    
    841000   0.95472997     0.0023323615   0.0017704912   20.511779      19.094005      1.417774      -1.4200259      18353.455    
    842000   1.0532517      0.0023323615  -0.00070594269  20.459009      18.89493       1.5640788     -1.6695365      18323.152    
    843000   1.0245115      0.0023323615  -0.0027063928   20.559506      19.038106      1.5213996     -1.5103655      18225.955    
    844000   0.92759256     0.0023323615   0.0033783562   20.473602      19.096127      1.3774749     -1.4460188      18309.106    
    845000   1.1700741      0.0023323615   0.00060773402  20.762875      19.025315      1.7375601     -1.5464945      18281.453    
    846000   0.96395936     0.0023323615  -0.0038585372   20.180495      18.749015      1.4314797     -1.7044911      18215.844    
    847000   1.0261366      0.0023323615  -0.0014722049   20.682822      19.159009      1.5238128     -1.4146986      18151.519    
    848000   1.1229064      0.0023323615   0.00090849462  20.827216      19.1597        1.6675159     -1.4241196      18198.792    
    849000   0.9719465      0.0023323615  -0.0011086797   20.467025      19.023684      1.4433406     -1.4753077      18333.545    
    850000   0.99692804     0.0023323615   0.0015895984   20.547684      19.067246      1.4804381     -1.6473582      18288.468    
    851000   0.9463179      0.0023323615  -0.0011002472   20.541598      19.136315      1.4052821     -1.3938177      18360.065    
    852000   0.9834201      0.0023323615   0.0029515137   20.731634      19.271256      1.4603789     -1.2576456      18551.579    
    853000   1.0465538      0.0023323615  -0.0022770709   21.041461      19.487329      1.5541325     -1.1482537      18511.548    
    854000   1.200792       0.0023323615  -0.00024714992  20.854674      19.071498      1.7831761     -1.3711874      18462.511    
    855000   0.98753987     0.0023323615  -0.0024680861   20.628395      19.161898      1.4664967     -1.4339336      18302.24     
    856000   1.0218221      0.0023323615   0.0045345102   20.345383      18.827977      1.5174058     -1.5134698      18284.692    
    857000   0.97340109     0.0023323615   0.0012219169   20.072174      18.626674      1.4455006     -1.9139249      18235.176    
    858000   0.91920694     0.0023323615  -0.0010715659   20.368722      19.003699      1.3650223     -1.649971       18200.037    
    859000   0.97722996     0.0023323615   0.001716463    20.421594      18.970408      1.4511865     -1.6388704      18099.185    
    860000   1.0915708      0.0023323615  -0.0015740868   20.384853      18.763871      1.6209826     -1.6308518      18173.275    
    861000   1.059694       0.0023323615   0.0021127982   20.751497      19.177852      1.5736455     -1.352924       18215.149    
    862000   0.95555136     0.0023323615  -0.00081131483  20.522124      19.10313       1.4189938     -1.4631459      18195.169    
    863000   1.0394225      0.0023323615  -0.0023647545   20.641316      19.097774      1.5435424     -1.4064911      18208.168    
    864000   1.1484823      0.0023323615  -0.0023184284   20.77366       19.068164      1.7054962     -1.5094988      18299.103    
    865000   0.96616176     0.0023323615   0.0015619717   20.394616      18.959866      1.4347502     -1.4709763      18311.964    
    866000   0.89992518     0.0023323615  -0.00081571848  20.232559      18.89617       1.3363889     -1.57959        18309.391    
    867000   0.96618773     0.0023323615  -0.0021804592   20.263661      18.828872      1.4347888     -1.6772781      18306.493    
    868000   0.95724711     0.0023323615  -0.0029827273   20.790514      19.369002      1.421512      -1.3897375      18151.819    
    869000   1.0392247      0.0023323615  -0.0017077214   20.725014      19.181765      1.5432486     -1.3276684      18101.66     
    870000   0.97171886     0.0023323615  -0.0029024772   20.479231      19.036228      1.4430025     -1.5689075      18403.644    
    871000   1.0776724      0.0023323615   0.00088112084  20.543151      18.942807      1.6003436     -1.5739853      18350.431    
    872000   0.85708037     0.0023323615   0.00029612908  20.21117       18.938406      1.2727644     -1.4708958      18236.309    
    873000   1.0066712      0.0023323615   0.00061797765  20.606656      19.111749      1.4949068     -1.4503365      18132.68     
    874000   1.1100755      0.0023323615   0.0026564827   20.950565      19.302103      1.6484621     -1.201451       18251.848    
    875000   0.98876204     0.0023323615   0.0018652591   20.712638      19.244326      1.4683116     -1.2758365      18520.939    
    876000   0.99075249     0.0023323615   0.0026343095   20.740612      19.269344      1.4712675     -1.3871564      18679.681    
    877000   0.84932762     0.0023323615   0.001137473    20.392828      19.131577      1.2612515     -1.3803971      18467.929    
    878000   0.97852732     0.0023323615   0.0016141124   20.941603      19.48849       1.4531131     -1.044429       18461.118    
    879000   1.0749193      0.0023323615  -0.00028706683  20.745952      19.149697      1.5962551     -1.4642086      18329.639    
    880000   1.1552869      0.0023323615   0.0056286005   20.975306      19.259705      1.715601      -1.3614486      18173.077    
    881000   1.0810205      0.0023323615  -0.0025055296   20.501031      18.895715      1.6053155     -1.6414019      18147.803    
    882000   0.95694851     0.0023323615   0.00063544929  20.637175      19.216106      1.4210685     -1.4517497      18092.83     
    883000   1.0495858      0.0023323615   0.00025914486  20.462379      18.903745      1.5586348     -1.5943906      18139.06     
    884000   0.93869988     0.0023323615  -0.00030598226  20.264952      18.870983      1.3939693     -1.7146051      18218.856    
    885000   0.98667567     0.0023323615   0.0015687421   20.403492      18.938279      1.4652134     -1.5570671      18220.629    
    886000   0.94489258     0.0023323615   0.0010481024   20.394497      18.991332      1.4031655     -1.4463714      18320.223    
    887000   1.1767997      0.0023323615  -0.0010894109   20.77215       19.024602      1.7475476     -1.4649667      18417.797    
    888000   1.0227694      0.0023323615  -0.0054201062   20.479659      18.960847      1.5188125     -1.5893489      18245.249    
    889000   1.0653685      0.0023323615   0.00038527925  20.661371      19.079299      1.5820722     -1.4342792      18224.501    
    890000   1.0068612      0.0023323615  -0.00041250979  20.869431      19.374243      1.4951888     -1.2518725      18342.591    
    891000   0.97984093     0.0023323615  -0.0019798446   20.552586      19.097522      1.4550638     -1.393367       18512.138    
    892000   1.0124067      0.0023323615  -0.0018586908   20.637966      19.134542      1.5034239     -1.391242       18430.125    
    893000   1.0811735      0.0023323615  -0.0025361658   20.763206      19.157663      1.6055427     -1.3044562      18492.955    
    894000   1.1256373      0.0023323615   0.00079775842  20.687593      19.016022      1.6715713     -1.4217219      18309.982    
    895000   1.0831503      0.0023323615   0.0036231228   20.634714      19.026235      1.6084782     -1.4598919      18225.16     
    896000   1.1316167      0.0023323615  -0.00069366362  20.705377      19.024926      1.6804507     -1.4121838      18164.329    
    897000   0.98427269     0.0023323615   0.003079164    20.838356      19.376711      1.4616449     -1.1392258      18216.276    
    898000   1.1083295      0.0023323615   0.004047366    20.569445      18.923575      1.6458694     -1.5293736      18189.761    
    899000   1.1478981      0.0023323615  -0.0034551285   20.786842      19.082213      1.7046287     -1.4019695      18228.009    
    900000   0.98151452     0.0023323615   0.002333967    20.652658      19.195109      1.4575491     -1.3680707      18190.849    
    901000   1.0420498      0.0023323615  -0.0040998938   20.656739      19.109295      1.547444      -1.4532051      18088.374    
    902000   0.94859943     0.0023323615   0.00055297945  20.375501      18.96683       1.4086701     -1.5141706      18274.809    
    903000   0.93075485     0.0023323615  -0.002456499    20.597216      19.215046      1.382171      -1.3193375      18079.891    
    904000   0.94980397     0.0023323615   0.0037096966   20.379225      18.968766      1.4104589     -1.5260371      18246.69     
    905000   0.96780571     0.0023323615  -0.0039352393   20.620855      19.183664      1.4371915     -1.3762066      18176.449    
    906000   0.97890216     0.0023323615   0.002061955    20.720537      19.266868      1.4536697     -1.2710941      18318.149    
    907000   0.96920225     0.0023323615  -0.00013828558  20.574815      19.135549      1.4392653     -1.3384244      18254.194    
    908000   0.90452633     0.0023323615   0.0052583045   20.444453      19.101231      1.3432216     -1.3849818      18242.171    
    909000   0.96567253     0.0023323615   0.00030929652  20.400939      18.966915      1.4340237     -1.5264329      18247.737    
    910000   0.95320876     0.0023323615  -0.0010230552   20.585247      19.169732      1.415515      -1.2851018      18267.13     
    911000   0.9198723      0.0023323615   0.0017828311   20.46544       19.099429      1.3660104     -1.4730117      18300.237    
    912000   0.88438628     0.0023323615  -0.0007290144   20.24719       18.933876      1.3133136     -1.6264777      18223.956    
    913000   0.9498185      0.0023323615   0.0025861462   20.372708      18.962227      1.4104805     -1.6130618      18148.901    
    914000   1.1317986      0.0023323615   0.0012658046   20.714212      19.033491      1.6807209     -1.4816061      18092.778    
    915000   0.93336825     0.0023323615  -0.0010681723   20.523729      19.137677      1.3860519     -1.3997827      18117.293    
    916000   1.0734134      0.0023323615   0.0010274209   20.519187      18.925168      1.594019      -1.5302488      18092.804    
    917000   1.2486254      0.0023323615   0.0023889982   20.936461      19.082253      1.8542087     -1.5134184      18210.23     
    918000   1.0621615      0.0023323615   0.00053155714  20.5613        18.983991      1.5773098     -1.5940726      18311.121    
    919000   1.1282833      0.0023323615   0.0031120686   20.818038      19.142537      1.6755007     -1.4480347      18328.451    
    920000   1.1462889      0.0023323615   0.0015022524   20.857981      19.155742      1.7022391     -1.3389565      18456.697    
    921000   0.96576302     0.0023323615   0.0018666913   20.666666      19.232508      1.4341581     -1.3178168      18366.511    
    922000   0.85151991     0.0023323615   0.0046330382   20.436941      19.172434      1.2645071     -1.2771792      18360.295    
    923000   1.0057734      0.0023323615  -0.0011510383   20.424488      18.930915      1.4935735     -1.5309438      18330.945    
    924000   1.0319494      0.0023323615   0.00068997011  20.676623      19.144178      1.5324448     -1.3874562      18368.147    
    925000   0.90880586     0.0023323615  -0.0025082598   20.826385      19.476808      1.3495767     -1.1679378      18430.19     
    926000   1.0557092      0.0023323615   0.0020226416   20.617608      19.04988       1.5677282     -1.4566587      18495.539    
    927000   0.92020799     0.0023323615  -0.0015821314   20.461074      19.094565      1.3665089     -1.2968517      18239.961    
    928000   0.8794851      0.0023323615  -0.0058552737   20.594961      19.288926      1.3060354     -1.3178902      18306.933    
    929000   0.90391148     0.0023323615   0.00042983102  20.467238      19.12493       1.3423085     -1.4191871      18315.069    
    930000   0.97686269     0.0023323615  -0.00031033055  20.553146      19.102505      1.4506411     -1.3923363      18148.535    
    931000   0.92108584     0.0023323615   0.0012542934   20.410758      19.042946      1.3678125     -1.4249309      18439.236    
    932000   0.98728874     0.0023323615   0.0021534093   20.393812      18.927688      1.4661238     -1.5565747      18309.334    
    933000   1.1133652      0.0023323615  -0.0020082434   20.995553      19.342206      1.6533473     -1.1892676      18519.358    
    934000   1.1877056      0.0023323615  -0.00063937695  21.215157      19.451414      1.7637429     -1.1283564      18777.381    
    935000   0.97028999     0.0023323615   0.0018378227   20.643714      19.202833      1.4408806     -1.2025407      18432.293    
    936000   1.1129991      0.0023323615  -5.213962e-05   20.995619      19.342815      1.6528037     -1.2051374      18421.809    
    937000   1.0948667      0.0023323615   0.003757477    20.680666      19.054789      1.625877      -1.4107659      18292.416    
    938000   1.0417278      0.0023323615  -0.00047778535  20.770632      19.223667      1.5469657     -1.2788531      18391.307    
    939000   1.0174694      0.0023323615   0.0030100389   20.672618      19.161676      1.510942      -1.2846122      18701.969    
    940000   0.99066909     0.0023323615  -0.00014947118  20.702668      19.231525      1.4711436     -1.1908702      18832.618    
    941000   0.94324715     0.0023323615  -7.2986839e-05  20.527047      19.126325      1.400722      -1.2980647      18498.107    
    942000   0.98453649     0.0023323615   6.1454554e-06  20.485247      19.02321       1.4620367     -1.4358313      18259.982    
    943000   1.0650647      0.0023323615   0.0011970473   20.59145       19.009829      1.581621      -1.4518465      18338.129    
    944000   1.0202694      0.0023323615   0.0045286916   20.685266      19.170166      1.5151        -1.3725232      18497.595    
    945000   1.0450103      0.0023323615   0.0011518146   20.718293      19.166453      1.5518402     -1.2441608      18585.387    
    946000   1.0928394      0.0023323615   0.0035008997   20.889028      19.266161      1.6228665     -1.2558353      18582.622    
    947000   1.1350585      0.0023323615  -0.0010953855   21.058396      19.372834      1.6855619     -1.1842817      18797.418    
    948000   0.91489372     0.0023323615  -0.0053179489   20.578464      19.219847      1.3586172     -1.2841107      18713.929    
    949000   1.0419561      0.0023323615  -0.0012496322   20.790427      19.243122      1.5473048     -1.3773326      18535.023    
    950000   0.90206013     0.0023323615  -0.00029846902  20.441463      19.101904      1.3395593     -1.3753026      18333.07     
    951000   1.0136143      0.0023323615   0.0012240313   20.507857      19.00264       1.5052172     -1.4587691      18375.583    
    952000   1.0472366      0.0023323615  -0.0039469675   20.5876        19.032454      1.5551463     -1.4976131      18315.032    
    953000   1.1142972      0.0023323615   0.0024380605   20.450383      18.795652      1.6547314     -1.6539646      18326.112    
    954000   0.87786549     0.0023323615  -0.0053804624   20.228773      18.925143      1.3036303     -1.5735457      18263.42     
    955000   1.0134595      0.0023323615  -0.0016971229   20.433521      18.928533      1.5049873     -1.5623331      18074.064    
    956000   1.0357781      0.0023323615  -0.0044491538   20.444363      18.906232      1.5381304     -1.7069577      18252.222    
    957000   0.83782029     0.0023323615   0.00013936566  20.162173      18.91801       1.2441631     -1.5328059      18186.951    
    958000   1.1197827      0.0023323615   0.00032955084  20.583372      18.920495      1.6628773     -1.6216904      18267.321    
    959000   0.83253313     0.0023323615   0.0020626173   19.970932      18.73462       1.2363117     -1.5983102      18050.207    
    960000   0.97687206     0.0023323615  -0.00094878391  20.248102      18.797447      1.450655      -1.6786055      18106.664    
    961000   1.1158989      0.0023323615  -0.0021939395   20.458914      18.801804      1.6571099     -1.6799441      18355.251    
    962000   1.1096886      0.0023323615  -0.0013526299   20.392845      18.744958      1.6478876     -1.6832837      18073.229    
    963000   1.0435805      0.0023323615  -0.0036954806   20.717282      19.167565      1.5497171     -1.5363599      18093.889    
    964000   0.95613248     0.0023323615   0.0005822315   20.36411       18.944253      1.4198567     -1.4975328      18213.132    
    965000   1.050054       0.0023323615   0.00056304108  20.354264      18.794934      1.5593302     -1.694812       18244.662    
    966000   1.1277237      0.0023323615  -0.0031446869   20.84142       19.16675       1.6746698     -1.4703694      18136.98     
    967000   0.93953173     0.0023323615  -0.0018135164   20.420029      19.024824      1.3952046     -1.3726746      18133.774    
    968000   1.0143014      0.0023323615  -0.00057163328  20.34641       18.840172      1.5062377     -1.6145874      18231.279    
    969000   0.980292       0.0023323615  -0.00052425904  20.50619       19.050456      1.4557336     -1.4740527      18276.61     
    970000   0.98843198     0.0023323615   0.0031058185   20.823806      19.355984      1.4678215     -1.2203533      18445.472    
    971000   0.97722801     0.0023323615   0.00084991349  20.948404      19.49722       1.4511836     -1.2321439      18460.374    
    972000   0.96236292     0.0023323615  -0.0011532364   20.527258      19.098149      1.4291089     -1.293286       18443.206    
    973000   0.9868837      0.0023323615   0.00055092979  20.313489      18.847966      1.4655223     -1.6605022      18252.562    
    974000   1.0385081      0.0023323615  -0.0018453753   20.492593      18.950408      1.5421845     -1.504061       18302.935    
    975000   0.91476717     0.0023323615   0.0006251358   20.540221      19.181791      1.3584292     -1.3183897      18228.765    
    976000   0.95811982     0.0023323615  -0.0027802211   20.560007      19.137199      1.4228079     -1.4009823      18301.777    
    977000   1.0629156      0.0023323615   0.0037132872   20.690854      19.112425      1.5784296     -1.4590227      18356.25     
    978000   1.0744945      0.0023323615   0.00039590298  20.719555      19.123931      1.5956243     -1.3966317      18629.848    
    979000   1.0351149      0.0023323615   0.0041942809   20.706458      19.169313      1.5371456     -1.4164316      18630.6      
    980000   1.0863087      0.0023323615   0.0032758212   20.756715      19.143547      1.6131684     -1.3669765      18594.081    
    981000   0.98530399     0.0023323615  -0.001166589    20.467159      19.003982      1.4631764     -1.5238542      18489.838    
    982000   1.1308698      0.0023323615  -6.7701236e-06  20.746277      19.066935      1.6793417     -1.5106332      18296.614    
    983000   0.98952156     0.0023323615  -0.0027395465   20.648942      19.179503      1.4694395     -1.4080975      18576.356    
    984000   0.89436        0.0023323615   0.0018864621   20.158881      18.830757      1.3281246     -1.6540961      18470.304    
    985000   0.97787692     0.0023323615  -0.0017055552   20.614707      19.162559      1.4521472     -1.302799       18250.593    
    986000   0.96867163     0.0023323615  -0.0024902196   20.748348      19.30987       1.4384774     -1.2546488      18626.629    
    987000   0.94276691     0.0023323615  -0.0023212686   20.52935       19.129341      1.4000089     -1.3982664      18270.848    
    988000   0.92305196     0.0023323615  -0.001768652    20.663214      19.292482      1.3707322     -1.249556       18444.037    
    989000   0.91599134     0.0023323615  -0.0036769048   20.255315      18.895068      1.3602471     -1.6716126      18281.557    
    990000   1.0389737      0.0023323615  -0.00059096262  20.774694      19.231818      1.5428759     -1.2266305      18421.333    
    991000   0.99875363     0.0023323615  -0.00015407854  20.696231      19.213082      1.4831491     -1.2338231      18681.81     
    992000   1.0242122      0.0023323615  -0.00016663959  20.570431      19.049475      1.5209551     -1.4620407      18483.613    
    993000   1.1836751      0.0023323615   0.00038965869  20.800703      19.042946      1.7577575     -1.4041261      18297.919    
    994000   0.8599727      0.0023323615  -0.0035550732   20.311053      19.033994      1.2770595     -1.471096       18239.847    
    995000   0.93548632     0.0023323615  -0.0020226781   20.472453      19.083256      1.3891972     -1.5495116      18247.204    
    996000   0.97397102     0.0023323615   0.00024091348  20.501105      19.054758      1.446347      -1.3024796      18347.851    
    997000   1.104972       0.0023323615  -0.00013424955  20.734077      19.093194      1.6408834     -1.5556548      18375.049    
    998000   0.98709849     0.0023323615   0.00053834168  20.558922      19.093081      1.4658413     -1.347095       18300.422    
    999000   0.98399541     0.0023323615  -0.00059584352  20.351138      18.889905      1.4612332     -1.57909        18186.547    
   1000000   0.86023811     0.0023323615  -0.0048052232   20.257511      18.980058      1.2774536     -1.4920357      18138.908    
Loop time of 54.1734 on 1 procs for 1000000 steps with 100 atoms

Performance: 7974398.841 tau/day, 18459.257 timesteps/s
99.4% CPU use with 1 MPI tasks x 1 OpenMP threads

MPI task timing breakdown:
Section |  min time  |  avg time  |  max time  |%varavg| %total
---------------------------------------------------------------
Pair    | 45.222     | 45.222     | 45.222     |   0.0 | 83.48
Bond    | 1.2649     | 1.2649     | 1.2649     |   0.0 |  2.34
Neigh   | 3.7935     | 3.7935     | 3.7935     |   0.0 |  7.00
Comm    | 1.3745     | 1.3745     | 1.3745     |   0.0 |  2.54
Output  | 0.21047    | 0.21047    | 0.21047    |   0.0 |  0.39
Modify  | 1.9518     | 1.9518     | 1.9518     |   0.0 |  3.60
Other   |            | 0.3558     |            |       |  0.66

Nlocal:            100 ave         100 max         100 min
Histogram: 1 0 0 0 0 0 0 0 0 0
Nghost:            300 ave         300 max         300 min
Histogram: 1 0 0 0 0 0 0 0 0 0
Neighs:           4851 ave        4851 max        4851 min
Histogram: 1 0 0 0 0 0 0 0 0 0

Total # of neighbors = 4851
Ave neighs/atom = 48.51
Ave special neighs/atom = 1.98
Neighbor list builds = 97877
Dangerous builds = 79866

write_data      ${outputfile_assembled} nofix nocoeff
write_data      7_assembled.data nofix nocoeff
System init for write_data ...
Generated 0 of 6 mixed pair_coeff terms from geometric mixing rule

Total wall time: 0:00:55
