LAMMPS (23 Jun 2022 - Update 1)
OMP_NUM_THREADS environment is not set. Defaulting to 1 thread. (src/comm.cpp:98)
  using 1 OpenMP thread(s) per MPI task


variable        runtime equal 1000000
variable		subsample_rate equal 1000

variable		outputfile_created string '3_created.data'
variable		outputfile_relaxed string '5_relaxed.data'
variable		outputfile_selfasb string '6_a_self_assemble.lammpstrj'
variable		outputfile_trajlin string '6_b_trajlin.data'
variable		outputfile_assembled string '7_assembled.data'

units           lj
atom_style      full
dimension       3
boundary        p p p
timestep        0.005

read_data       ${outputfile_created}
read_data       3_created.data
Reading data file ...
  orthogonal box = (0 0 0) to (35 35 35)
  1 by 1 by 1 MPI processor grid
  reading atoms ...
  100 atoms
  reading velocities ...
  100 velocities
  scanning bonds ...
  1 = max bonds/atom
  reading bonds ...
  99 bonds
Finding 1-2 1-3 1-4 neighbors ...
  special bond factors lj:    0        0        0       
  special bond factors coul:  0        0        0       
     2 = max # of 1-2 neighbors
     2 = max # of 1-3 neighbors
     4 = max # of 1-4 neighbors
     6 = max # of special neighbors
  special bonds CPU = 0.000 seconds
  read_data CPU = 0.006 seconds

bond_style      fene
bond_coeff      * 30.0 1.5 1.0 1.0
special_bonds   fene
Finding 1-2 1-3 1-4 neighbors ...
  special bond factors lj:    0        1        1       
  special bond factors coul:  0        1        1       
     2 = max # of 1-2 neighbors
     6 = max # of special neighbors
  special bonds CPU = 0.000 seconds

variable        Temp equal 1.0
variable        velSeed equal 926458

velocity        all create ${Temp} ${velSeed}
velocity        all create 1 ${velSeed}
velocity        all create 1 926458

### Output
thermo_style    custom step temp density press etotal pe ke epair spcpu
thermo          1000

###########################################################################
# Soft relaxation (to remove overlaps of particles)
######################################################################

pair_style      soft 1.0
pair_coeff      * * 0.0
variable        prefactor equal ramp(0,300)
fix             rampSoft all adapt 1 pair soft a * * v_prefactor

minimize        0.0 1.0e-8 1000 100000
WARNING: Using 'neigh_modify every 1 delay 0 check yes' setting during minimization (src/min.cpp:187)
Generated 0 of 6 mixed pair_coeff terms from geometric mixing rule
Neighbor list info ...
  update every 1 steps, delay 0 steps, check yes
  max neighbors/atom: 2000, page size: 100000
  master list distance cutoff = 1.3
  ghost atom cutoff = 1.3
  binsize = 0.65, bins = 54 54 54
  1 neighbor lists, perpetual/occasional/extra = 1 0 0
  (1) pair soft, perpetual
      attributes: half, newton on
      pair build: half/bin/newton
      stencil: half/bin/3d
      bin: standard
WARNING: Communication cutoff 1.3 is shorter than a bond length based estimate of 1.7550000000000001. This may lead to errors. (src/comm.cpp:727)
Per MPI rank memory allocation (min/avg/max) = 8.346 | 8.346 | 8.346 Mbytes
   Step          Temp         Density         Press          TotEng         PotEng         KinEng         E_pair         S/CPU     
         0   1              0.0023323615  -0.0039617958   21.524174      20.039174      1.485          0              0            
       362   1              0.0023323615   0.0023090379   21.485548      20.000548      1.485          0              67412.738    
Loop time of 0.00537245 on 1 procs for 362 steps with 100 atoms

95.3% CPU use with 1 MPI tasks x 1 OpenMP threads

Minimization stats:
  Stopping criterion = force tolerance
  Energy initial, next-to-last, final = 
      20.0391741078675   20.0005480767337   20.0005480767337
  Force two-norm initial, final = 11.878422 7.9509778e-09
  Force max component initial, final = 6.6117807 1.3572772e-09
  Final line search alpha, max atom move = 1 1.3572772e-09
  Iterations, force evaluations = 362 738

MPI task timing breakdown:
Section |  min time  |  avg time  |  max time  |%varavg| %total
---------------------------------------------------------------
Pair    | 0.00021607 | 0.00021607 | 0.00021607 |   0.0 |  4.02
Bond    | 0.0023322  | 0.0023322  | 0.0023322  |   0.0 | 43.41
Neigh   | 0.001629   | 0.001629   | 0.001629   |   0.0 | 30.32
Comm    | 0.00019108 | 0.00019108 | 0.00019108 |   0.0 |  3.56
Output  | 0          | 0          | 0          |   0.0 |  0.00
Modify  | 0          | 0          | 0          |   0.0 |  0.00
Other   |            | 0.001004   |            |       | 18.69

Nlocal:            100 ave         100 max         100 min
Histogram: 1 0 0 0 0 0 0 0 0 0
Nghost:             20 ave          20 max          20 min
Histogram: 1 0 0 0 0 0 0 0 0 0
Neighs:              0 ave           0 max           0 min
Histogram: 1 0 0 0 0 0 0 0 0 0

Total # of neighbors = 0
Ave neighs/atom = 0
Ave special neighs/atom = 1.98
Neighbor list builds = 17
Dangerous builds = 0

fix             nvtSoft all nvt temp ${Temp} ${Temp} 0.5
fix             nvtSoft all nvt temp 1 ${Temp} 0.5
fix             nvtSoft all nvt temp 1 1 0.5
run             100000
Generated 0 of 6 mixed pair_coeff terms from geometric mixing rule
WARNING: Communication cutoff 1.3 is shorter than a bond length based estimate of 1.7550000000000001. This may lead to errors. (src/comm.cpp:727)
Per MPI rank memory allocation (min/avg/max) = 7.221 | 7.221 | 7.221 Mbytes
   Step          Temp         Density         Press          TotEng         PotEng         KinEng         E_pair         S/CPU     
       362   1              0.0023323615   0.0023090379   21.485548      20.000548      1.485          0              0            
      1000   0.90989032     0.0023323615  -0.0021940042   21.776974      20.425787      1.3511871      0.00036425437  73036.729    
      2000   0.86546688     0.0023323615   0.0034714157   21.677128      20.39191       1.2852183      0.0025814786   72671.931    
      3000   0.98199538     0.0023323615   0.0028144228   21.866132      20.407869      1.4582631      0.0011756043   73019.782    
      4000   1.004495       0.0023323615  -0.0014058211   21.945624      20.453949      1.4916751      0.011986179    73269.891    
      5000   1.1222705      0.0023323615   0.0044495116   21.986385      20.319813      1.6665718      0.0050317639   71977.555    
      6000   1.0538243      0.0023323615   0.0023957538   21.985713      20.420784      1.564929       0.012100514    74649.99     
      7000   1.0210598      0.0023323615  -0.00038820026  21.904665      20.388391      1.5162738      0              76473.635    
      8000   0.94819751     0.0023323615   0.0024943091   21.747889      20.339816      1.4080733      0              76812.325    
      9000   0.92364502     0.0023323615   0.0020053029   21.724166      20.352554      1.3716129      1.7780894e-05  75652.024    
     10000   0.86685188     0.0023323615   0.00078277366  21.644879      20.357604      1.287275       0.0098636418   75891.657    
     11000   1.0057103      0.0023323615   0.00010113276  21.8558        20.362321      1.4934798      0.020705341    76027.907    
     12000   0.97901664     0.0023323615  -0.0026996968   21.871206      20.417366      1.4538397      0.0052928539   75552.554    
     13000   0.97718436     0.0023323615  -6.1641422e-06  21.963706      20.512587      1.4511188      0.025022446    75402.732    
     14000   1.0530014      0.0023323615  -0.0009993112   21.947994      20.384287      1.5637071      0.0020860456   74985.47     
     15000   0.99094527     0.0023323615   0.0011068478   21.895146      20.423592      1.4715537      0.0015091113   75805.08     
     16000   0.91285091     0.0023323615  -0.00025424173  21.87524       20.519657      1.3555836      0.0047853639   75518.947    
     17000   0.82806978     0.0023323615  -0.00054698156  21.701984      20.472301      1.2296836      0              75698.783    
     18000   1.043278       0.0023323615  -6.6143919e-05  22.003299      20.454031      1.5492679      0.0034319132   76689.687    
     19000   1.0879249      0.0023323615  -0.0017804642   21.998985      20.383416      1.6155685      0.015376175    75327.047    
     20000   1.1144506      0.0023323615   0.0025198298   22.190904      20.535944      1.6549592      0              76327.086    
     21000   1.0427751      0.0023323615   0.0011345349   22.099492      20.550971      1.548521       0.00040047813  76390.412    
     22000   1.0586695      0.0023323615   0.0017882747   22.05673       20.484606      1.5721242      0              76209.365    
     23000   1.0058426      0.0023323615  -0.0055245362   21.954628      20.460951      1.4936763      0.0027619031   75410.368    
     24000   0.98273442     0.0023323615   0.0015147357   21.862067      20.402707      1.4593606      0              75639.692    
     25000   0.95835343     0.0023323615   0.0017808774   21.937761      20.514606      1.4231548      0.00020839942  75176.648    
     26000   0.93993778     0.0023323615  -0.0021777292   21.884849      20.489042      1.3958076      0.0088889834   75937.727    
     27000   0.9308188      0.0023323615  -0.00011239942  21.842252      20.459986      1.3822659      0.021612409    74998.826    
     28000   1.0149581      0.0023323615   0.0041996387   21.906846      20.399633      1.5072129      0.0064059022   75536.546    
     29000   0.92841138     0.0023323615  -2.5398808e-05  21.987185      20.608494      1.3786909      0.0046112484   75661.944    
     30000   1.021043       0.0023323615   0.001589158    22.097958      20.581709      1.5162489      0.016799508    73221.778    
     31000   1.0465985      0.0023323615  -0.0021744286   22.037917      20.483718      1.5541987      0.0057879149   76033.93     
     32000   0.98907108     0.0023323615  -0.0015558606   22.044089      20.575318      1.4687705      0.009448173    75609.73     
     33000   1.0918536      0.0023323615  -0.0025643847   22.039275      20.417873      1.6214025      0              74679.481    
     34000   0.99801543     0.0023323615   0.0016279766   21.932339      20.450286      1.4820529      0.017384617    77031.187    
     35000   1.0352271      0.0023323615  -0.0052971711   22.076004      20.538692      1.5373122      0.00010473809  75662.23     
     36000   1.1141579      0.0023323615  -0.00093279925  22.222491      20.567966      1.6545245      0.00033678641  76839.47     
     37000   1.0369415      0.0023323615   0.00013065175  22.217841      20.677983      1.5398581      0.013788831    75901.351    
     38000   1.0515596      0.0023323615   0.0021717558   22.070766      20.5092        1.561566       0.0067894678   76198.778    
     39000   1.0238495      0.0023323615   0.00026414509  22.040141      20.519725      1.5204165      0.00044464649  75388.208    
     40000   1.0749111      0.0023323615  -0.0026849368   22.039327      20.443084      1.596243       0.012651334    73985.27     
     41000   0.99070886     0.0023323615  -0.0030385564   22.03241       20.561207      1.4712027      0.00092855646  76949.595    
     42000   0.95315224     0.0023323615   0.0019788197   21.965263      20.549832      1.4154311      0.020233689    75510.998    
     43000   1.0644183      0.0023323615  -0.0011168725   22.287172      20.706511      1.5806611      0.039694129    75558.902    
     44000   1.0253747      0.0023323615  -0.006676522    22.066233      20.543552      1.5226814      0              74663.061    
     45000   0.94179556     0.0023323615  -0.0047206018   21.970644      20.572077      1.3985664      0.019869988    74764.449    
     46000   1.0083495      0.0023323615  -0.0017646918   21.972114      20.474715      1.497399       0.00026040605  75053.016    
     47000   0.98767959     0.0023323615  -0.00080218158  22.091674      20.62497       1.4667042      0.024266258    75093.223    
     48000   1.1473449      0.0023323615  -0.0025885687   22.080512      20.376705      1.7038072      0.00065962995  75415.492    
     49000   1.0679312      0.0023323615   0.0017688272   21.970482      20.384604      1.5858779      0.014142422    76603.106    
     50000   0.9581935      0.0023323615   0.0014398836   21.955202      20.532284      1.4229173      0.0055011948   76154.711    
     51000   1.0215759      0.0023323615  -0.00093292688  21.934681      20.41764       1.5170402      0              75890.102    
     52000   0.98079591     0.0023323615   0.0040701936   21.977374      20.520892      1.4564819      0.0020862422   76629.985    
     53000   1.0090927      0.0023323615   0.0013324753   22.095438      20.596935      1.4985027      0              76019.625    
     54000   0.97519627     0.0023323615   0.0013260734   22.070151      20.621984      1.4481665      0.026885444    76681.971    
     55000   1.1805087      0.0023323615  -0.001586238    22.424088      20.671033      1.7530554      0.024690954    76298.148    
     56000   0.98387121     0.0023323615   0.0037155145   22.104425      20.643376      1.4610487      0.01435493     75877.635    
     57000   1.0723812      0.0023323615  -0.0037916262   22.122726      20.53024       1.592486       0.013635549    76092.706    
     58000   1.0152349      0.0023323615   0.00021908047  22.082827      20.575203      1.5076238      0.00077375639  76114.292    
     59000   1.1424502      0.0023323615  -0.0052108657   22.30072       20.604182      1.6965385      0.013308184    76776.581    
     60000   1.0359703      0.0023323615  -0.00097887545  22.188218      20.649802      1.538416       0.00011346294  75301.59     
     61000   1.1646839      0.0023323615  -0.002085017    22.239945      20.51039       1.7295556      0.012918477    77782.574    
     62000   1.101836       0.0023323615   0.0010338878   22.171386      20.53516       1.6362265      0.001396566    76501.302    
     63000   0.96616435     0.0023323615   0.00097550571  21.903821      20.469067      1.4347541      0.013027663    77746.768    
     64000   1.0068907      0.0023323615  -0.0020278726   22.061652      20.566419      1.4952327      0.013750276    76197.321    
     65000   0.98723233     0.0023323615   0.0022441476   22.031073      20.565033      1.46604        0.0066686189   76822.499    
     66000   1.0273881      0.0023323615  -0.0003515278   22.183579      20.657908      1.5256713      0              74978.987    
     67000   0.96528212     0.0023323615  -0.00014822656  21.9396        20.506156      1.4334439      0.010365557    76623.221    
     68000   1.069702       0.0023323615   9.4754668e-05  22.081119      20.492611      1.5885075      0.00049153926  74216.928    
     69000   1.1229502      0.0023323615   0.0011504079   22.200329      20.532748      1.6675811      0.0068454249   76677.197    
     70000   1.0062775      0.0023323615  -0.00085311964  22.094021      20.599699      1.4943221      0.013222355    75331.144    
     71000   1.0906935      0.0023323615   0.00015260357  22.145362      20.525682      1.6196798      0.018338513    75989.297    
     72000   1.010401       0.0023323615  -6.0487182e-06  22.154105      20.653659      1.5004455      0.0013793953   74780.417    
     73000   1.1177599      0.0023323615  -0.0034084797   22.254435      20.594562      1.6598735      0.00011231735  77288.927    
     74000   0.9768019      0.0023323615   0.00016143893  22.07312       20.622569      1.4505508      0.0084515956   75659.534    
     75000   1.1360996      0.0023323615   0.002159116    22.161595      20.474487      1.6871079      0.0089909162   76311.336    
     76000   0.97379329     0.0023323615  -0.00068458621  21.988928      20.542845      1.446083       0              75554.894    
     77000   0.94876793     0.0023323615  -0.0016073976   21.923496      20.514575      1.4089204      0.017745108    75583.682    
     78000   0.83947996     0.0023323615  -0.00062768559  21.726727      20.480099      1.2466277      0.0054510099   76174.818    
     79000   1.0090614      0.0023323615  -0.00080262643  22.068192      20.569736      1.4984562      0.00023011166  76849.172    
     80000   1.1217643      0.0023323615  -0.0038177864   22.367902      20.702082      1.66582        0.032902439    76234.341    
     81000   1.0240158      0.0023323615   0.00023547123  22.031597      20.510933      1.5206635      0.0068767308   75619.181    
     82000   1.003236       0.0023323615  -0.0022802982   21.894199      20.404393      1.4898055      0.019136282    74773.125    
     83000   1.0554159      0.0023323615   0.004011718    22.104562      20.537269      1.5672927      0.0080869707   74209.206    
     84000   0.83527346     0.0023323615  -0.0034122221   21.874648      20.634267      1.2403811      0.0030083664   75595.406    
     85000   1.036002       0.0023323615   0.0013573923   21.962923      20.42446       1.5384629      0.015709144    75895.47     
     86000   0.9432002      0.0023323615  -0.0032183248   21.913588      20.512936      1.4006523      0.013730309    76400.235    
     87000   0.95566008     0.0023323615  -0.00049614223  21.91653       20.497375      1.4191552      0.0035862035   75474.512    
     88000   0.93373351     0.0023323615  -0.00097093893  21.870485      20.483891      1.3865943      0.0018212145   75231.434    
     89000   0.9684944      0.0023323615  -0.00047342045  21.973429      20.535215      1.4382142      0.00087524744  75462.591    
     90000   0.98293324     0.0023323615  -0.0032204602   22.050919      20.591263      1.4596559      0.015353933    76866.627    
     91000   1.0832827      0.0023323615   0.0048517083   22.11977       20.511095      1.6086749      0.0052867789   77782.211    
     92000   0.85899662     0.0023323615  -0.0013049519   21.765697      20.490087      1.27561        0.0024124001   76571.261    
     93000   0.96176266     0.0023323615  -4.4223672e-05  21.874222      20.446004      1.4282176      0.0045653365   77367.41     
     94000   0.96019503     0.0023323615   0.00024459347  21.944954      20.519064      1.4258896      3.8053462e-05  76748.657    
     95000   0.94702149     0.0023323615  -0.0033658915   21.86315       20.456823      1.4063269      0              77399.986    
     96000   0.91119348     0.0023323615  -0.0013197298   21.825018      20.471896      1.3531223      0.00043282989  76024.144    
     97000   1.0016687      0.0023323615  -0.0019514304   22.013024      20.525546      1.487478       0.0048369955   75617.231    
     98000   1.02143        0.0023323615  -0.0057874974   22.177965      20.661142      1.5168235      0              74492.879    
     99000   1.032786       0.0023323615   0.0018228259   21.975336      20.441649      1.5336871      7.1595851e-05  77658.207    
    100000   1.0594928      0.0023323615   0.0036169719   22.011024      20.437677      1.5733468      0.00032948157  75939.756    
    100362   1.1904942      0.0023323615  -0.00089755607  22.316856      20.548972      1.7678839      0.00063845255  75480.794    
Loop time of 1.32039 on 1 procs for 100000 steps with 100 atoms

Performance: 32717612.233 tau/day, 75735.214 timesteps/s
99.2% CPU use with 1 MPI tasks x 1 OpenMP threads

MPI task timing breakdown:
Section |  min time  |  avg time  |  max time  |%varavg| %total
---------------------------------------------------------------
Pair    | 0.05066    | 0.05066    | 0.05066    |   0.0 |  3.84
Bond    | 0.12598    | 0.12598    | 0.12598    |   0.0 |  9.54
Neigh   | 0.80493    | 0.80493    | 0.80493    |   0.0 | 60.96
Comm    | 0.055712   | 0.055712   | 0.055712   |   0.0 |  4.22
Output  | 0.0010767  | 0.0010767  | 0.0010767  |   0.0 |  0.08
Modify  | 0.24801    | 0.24801    | 0.24801    |   0.0 | 18.78
Other   |            | 0.03402    |            |       |  2.58

Nlocal:            100 ave         100 max         100 min
Histogram: 1 0 0 0 0 0 0 0 0 0
Nghost:             60 ave          60 max          60 min
Histogram: 1 0 0 0 0 0 0 0 0 0
Neighs:             36 ave          36 max          36 min
Histogram: 1 0 0 0 0 0 0 0 0 0

Total # of neighbors = 36
Ave neighs/atom = 0.36
Ave special neighs/atom = 1.98
Neighbor list builds = 9821
Dangerous builds = 8265
unfix           nvtSoft
unfix           rampSoft
reset_timestep  0

write_data      ${outputfile_relaxed}
write_data      5_relaxed.data
System init for write_data ...
Generated 0 of 6 mixed pair_coeff terms from geometric mixing rule
WARNING: Communication cutoff 1.3 is shorter than a bond length based estimate of 1.7550000000000001. This may lead to errors. (src/comm.cpp:727)
WARNING: Not all mixed pair coeffs generated from mixing. Use write_data with 'pair ij' option to store all pair coeffs. (src/write_data.cpp:309)

###########################################################################
# Full LJ with Coulomb
######################################################################

# Cutoffs and parameters:
# - Values: Marcel Verkade's Bachelor Thesis
# - Mapping to atom groups: Patrick Onck's paper
# - 1: aliphatic, 2: aromatic, 3: anion, 4: cation
# pair_style	lj/cut/coul/cut <lj_cut_global> <coul_cut_global>
# pair_coeff	<type_1>  <type_2>  <eps>  <sigma>  <r_cut_lj>  <r_cut_coul>

# Problem: Onck's model is much more complex, and Marcel has no sigma reported
# Using sigma=1 randomly

variable		glob_ljeps equal 1.0
variable		glob_ljsig 	equal 1.0
variable		glob_coulcut equal 10.0
variable		att_ljcut equal 2.50
variable		rep_ljcut equal 1.12

pair_style		lj/cut/coul/cut 						${att_ljcut} 	${glob_coulcut}
pair_style		lj/cut/coul/cut 						2.5 	${glob_coulcut}
pair_style		lj/cut/coul/cut 						2.5 	10
pair_coeff		1 1 	${glob_ljeps} 	${glob_ljsig}	${att_ljcut} 	${glob_coulcut}
pair_coeff		1 1 	1 	${glob_ljsig}	${att_ljcut} 	${glob_coulcut}
pair_coeff		1 1 	1 	1	${att_ljcut} 	${glob_coulcut}
pair_coeff		1 1 	1 	1	2.5 	${glob_coulcut}
pair_coeff		1 1 	1 	1	2.5 	10
pair_coeff		1 2 	${glob_ljeps} 	${glob_ljsig}	${att_ljcut} 	${glob_coulcut}
pair_coeff		1 2 	1 	${glob_ljsig}	${att_ljcut} 	${glob_coulcut}
pair_coeff		1 2 	1 	1	${att_ljcut} 	${glob_coulcut}
pair_coeff		1 2 	1 	1	2.5 	${glob_coulcut}
pair_coeff		1 2 	1 	1	2.5 	10
pair_coeff		1 3 	${glob_ljeps} 	${glob_ljsig}	${rep_ljcut} 	${glob_coulcut}
pair_coeff		1 3 	1 	${glob_ljsig}	${rep_ljcut} 	${glob_coulcut}
pair_coeff		1 3 	1 	1	${rep_ljcut} 	${glob_coulcut}
pair_coeff		1 3 	1 	1	1.12 	${glob_coulcut}
pair_coeff		1 3 	1 	1	1.12 	10
pair_coeff		1 4 	${glob_ljeps} 	${glob_ljsig}	${rep_ljcut} 	${glob_coulcut}
pair_coeff		1 4 	1 	${glob_ljsig}	${rep_ljcut} 	${glob_coulcut}
pair_coeff		1 4 	1 	1	${rep_ljcut} 	${glob_coulcut}
pair_coeff		1 4 	1 	1	1.12 	${glob_coulcut}
pair_coeff		1 4 	1 	1	1.12 	10
pair_coeff		2 2 	${glob_ljeps} 	${glob_ljsig}	${att_ljcut} 	${glob_coulcut}
pair_coeff		2 2 	1 	${glob_ljsig}	${att_ljcut} 	${glob_coulcut}
pair_coeff		2 2 	1 	1	${att_ljcut} 	${glob_coulcut}
pair_coeff		2 2 	1 	1	2.5 	${glob_coulcut}
pair_coeff		2 2 	1 	1	2.5 	10
pair_coeff		2 3 	${glob_ljeps} 	${glob_ljsig}	${rep_ljcut} 	${glob_coulcut}
pair_coeff		2 3 	1 	${glob_ljsig}	${rep_ljcut} 	${glob_coulcut}
pair_coeff		2 3 	1 	1	${rep_ljcut} 	${glob_coulcut}
pair_coeff		2 3 	1 	1	1.12 	${glob_coulcut}
pair_coeff		2 3 	1 	1	1.12 	10
pair_coeff		2 4 	${glob_ljeps} 	${glob_ljsig}	${att_ljcut} 	${glob_coulcut}
pair_coeff		2 4 	1 	${glob_ljsig}	${att_ljcut} 	${glob_coulcut}
pair_coeff		2 4 	1 	1	${att_ljcut} 	${glob_coulcut}
pair_coeff		2 4 	1 	1	2.5 	${glob_coulcut}
pair_coeff		2 4 	1 	1	2.5 	10
pair_coeff		3 3 	${glob_ljeps} 	${glob_ljsig}	${rep_ljcut} 	${glob_coulcut}
pair_coeff		3 3 	1 	${glob_ljsig}	${rep_ljcut} 	${glob_coulcut}
pair_coeff		3 3 	1 	1	${rep_ljcut} 	${glob_coulcut}
pair_coeff		3 3 	1 	1	1.12 	${glob_coulcut}
pair_coeff		3 3 	1 	1	1.12 	10
pair_coeff		3 4 	${glob_ljeps} 	${glob_ljsig}	${att_ljcut} 	${glob_coulcut}
pair_coeff		3 4 	1 	${glob_ljsig}	${att_ljcut} 	${glob_coulcut}
pair_coeff		3 4 	1 	1	${att_ljcut} 	${glob_coulcut}
pair_coeff		3 4 	1 	1	2.5 	${glob_coulcut}
pair_coeff		3 4 	1 	1	2.5 	10
pair_coeff		4 4 	${glob_ljeps} 	${glob_ljsig}	${rep_ljcut} 	${glob_coulcut}
pair_coeff		4 4 	1 	${glob_ljsig}	${rep_ljcut} 	${glob_coulcut}
pair_coeff		4 4 	1 	1	${rep_ljcut} 	${glob_coulcut}
pair_coeff		4 4 	1 	1	1.12 	${glob_coulcut}
pair_coeff		4 4 	1 	1	1.12 	10


fix             noDriftRot 	all momentum 10 linear 1 1 1 angular
fix             nvt1 		all nvt temp ${Temp} ${Temp} 0.5
fix             nvt1 		all nvt temp 1 ${Temp} 0.5
fix             nvt1 		all nvt temp 1 1 0.5

# dump          assemble 	all custom 1000 				${outputfile_selfasb} id type xu yu zu vx vy vz
dump            lindump 	all custom ${subsample_rate} 	${outputfile_trajlin} id type xu yu zu vx vy vz
dump            lindump 	all custom 1000 	${outputfile_trajlin} id type xu yu zu vx vy vz
dump            lindump 	all custom 1000 	6_b_trajlin.data id type xu yu zu vx vy vz

run             ${runtime}
run             1000000
Generated 0 of 6 mixed pair_coeff terms from geometric mixing rule
Neighbor list info ...
  update every 1 steps, delay 10 steps, check yes
  max neighbors/atom: 2000, page size: 100000
  master list distance cutoff = 10.3
  ghost atom cutoff = 10.3
  binsize = 5.15, bins = 7 7 7
  1 neighbor lists, perpetual/occasional/extra = 1 0 0
  (1) pair lj/cut/coul/cut, perpetual
      attributes: half, newton on
      pair build: half/bin/newton
      stencil: half/bin/3d
      bin: standard
Per MPI rank memory allocation (min/avg/max) = 7.712 | 7.712 | 7.712 Mbytes
   Step          Temp         Density         Press          TotEng         PotEng         KinEng         E_pair         S/CPU     
         0   1.1904942      0.0023323615  -0.0014058124   21.871703      20.103819      1.7678839     -0.44451503     0            
      1000   1.0568568      0.0023323615  -0.0037221576   21.441141      19.871709      1.5694323     -0.62079475     33633.603    
      2000   1.041466       0.0023323615   0.0031117812   21.286021      19.739444      1.546577      -0.71698021     31013.919    
      3000   1.1664259      0.0023323615   0.0014421105   21.267612      19.535469      1.7321424     -0.91818129     26304.856    
      4000   0.99879311     0.0023323615   0.0026363456   21.000868      19.51766       1.4832078     -0.88098974     20019.092    
      5000   1.0109684      0.0023323615  -0.0025715175   21.001981      19.500693      1.5012881     -1.0146972      18916.045    
      6000   1.0297974      0.0023323615  -0.00030204151  20.741163      19.211914      1.5292492     -1.2709206      18597.826    
      7000   0.90907678     0.0023323615  -0.0058854013   20.499172      19.149193      1.349979      -1.3171673      18295.269    
      8000   1.0137561      0.0023323615   0.0033804382   20.743233      19.237806      1.5054278     -1.1592299      18674.98     
      9000   1.0418465      0.0023323615  -0.00087754607  20.865167      19.318024      1.5471421     -1.1761375      18719.756    
     10000   0.77553322     0.0023323615  -0.0018924049   20.710429      19.558762      1.1516668     -1.0070051      18755.445    
     11000   0.88903015     0.0023323615  -0.0055495334   20.997856      19.677647      1.3202098     -0.92328193     18889.572    
     12000   1.012236       0.0023323615  -0.00068316981  21.156769      19.653599      1.5031705     -0.97983056     19212.933    
     13000   1.0989417      0.0023323615  -0.0064026073   21.205432      19.573503      1.6319284     -1.1098783      18936.63     
     14000   0.80775324     0.0023323615   0.0076236252   20.918536      19.719023      1.1995136     -0.86832962     18964.251    
     15000   0.9150595      0.0023323615   0.00024969181  20.764291      19.405427      1.3588634     -1.1481154      18864.075    
     16000   0.92699371     0.0023323615  -0.0020124676   20.727894      19.351308      1.3765857     -1.1125147      18590.303    
     17000   1.0876507      0.0023323615   0.0013485495   20.863479      19.248318      1.6151613     -1.2762557      18410.674    
     18000   0.88960691     0.0023323615   1.3279729e-05  20.384801      19.063735      1.3210663     -1.4501203      18515.985    
     19000   1.0818137      0.0023323615   0.0039257352   20.763594      19.157101      1.6064934     -1.3737987      18497.373    
     20000   0.88434744     0.0023323615  -0.0053769702   20.828078      19.514822      1.313256      -1.1923245      18654.21     
     21000   1.0178438      0.0023323615   0.00074703765  20.729982      19.218484      1.511498      -1.2581239      18749.093    
     22000   0.98757352     0.0023323615  -0.0014538032   20.931292      19.464745      1.4665467     -1.306789       18565.389    
     23000   1.0429315      0.0023323615   0.00077254404  20.748159      19.199406      1.5487532     -1.4340504      18608.013    
     24000   0.90242418     0.0023323615  -0.0048037243   20.522482      19.182382      1.3400999     -1.3937757      18619.426    
     25000   0.95681712     0.0023323615  -0.00021178828  20.666555      19.245681      1.4208734     -1.3110305      18518.3      
     26000   0.97345206     0.0023323615  -5.8227588e-05  20.627994      19.182418      1.4455763     -1.3347658      18464.355    
     27000   1.0761293      0.0023323615  -0.0018433261   20.934209      19.336157      1.598052      -1.2126481      18570.657    
     28000   1.0459816      0.0023323615  -0.0010139804   20.955853      19.40257       1.5532827     -1.0705932      18931.785    
     29000   1.0540298      0.0023323615  -0.0020629635   21.04511       19.479876      1.5652342     -1.1093389      18741.929    
     30000   0.94745121     0.0023323615  -0.0017309278   20.698134      19.291169      1.4069651     -1.1040171      18552.431    
     31000   0.91268787     0.0023323615  -0.001691165    20.703187      19.347846      1.3553415     -1.2208805      18485.068    
     32000   1.0028666      0.0023323615   0.0030902736   20.729117      19.23986       1.4892569     -1.241283       18461.716    
     33000   1.0244533      0.0023323615   0.00069429067  20.842896      19.321582      1.5213131     -1.1594645      18643.37     
     34000   1.0408003      0.0023323615   0.00093056422  20.979541      19.433953      1.5455885     -1.1551514      18566.791    
     35000   1.1775295      0.0023323615   0.0047578476   21.140383      19.391752      1.7486313     -1.1653101      18607.687    
     36000   0.97864883     0.0023323615  -0.0030322528   20.385673      18.932379      1.4532935     -1.5166906      18544.686    
     37000   0.97888683     0.0023323615   0.0016382866   20.610597      19.15695       1.4536469     -1.3161197      18387.204    
     38000   0.96348556     0.0023323615  -0.0028998632   20.493197      19.062421      1.4307761     -1.3859933      18349.46     
     39000   0.9762481      0.0023323615   0.0030488531   20.583793      19.134065      1.4497284     -1.3530566      18332.117    
     40000   0.92263677     0.0023323615   0.00065885281  20.596867      19.226752      1.3701156     -1.2781247      18487.937    
     41000   1.0236133      0.0023323615  -0.0020856853   20.844177      19.324111      1.5200658     -1.2361267      18591.085    
     42000   0.95008004     0.0023323615   4.7287301e-06  20.495569      19.0847        1.4108689     -1.3675728      18484.061    
     43000   0.90914764     0.0023323615  -0.00059751852  20.5216        19.171515      1.3500842     -1.2550356      18586.024    
     44000   0.91704488     0.0023323615  -0.0031731184   20.616394      19.254582      1.3618116     -1.2395801      18674.973    
     45000   0.94274621     0.0023323615  -0.0025273855   20.84608       19.446102      1.3999781     -1.1899698      18568.791    
     46000   0.8982143      0.0023323615  -0.00073072669  20.619477      19.285629      1.3338482     -1.273621       18588.537    
     47000   1.0437216      0.0023323615   2.3018948e-05  20.632985      19.083059      1.5499266     -1.4680202      18550.087    
     48000   1.0344416      0.0023323615  -0.0028568873   20.928503      19.392357      1.5361458     -1.1549866      18615.662    
     49000   0.99910998     0.0023323615   0.0025209373   20.995243      19.511565      1.4836783     -1.088044       18621.886    
     50000   0.90224618     0.0023323615  -0.0034551246   20.822988      19.483152      1.3398356     -1.0281633      18653.547    
     51000   1.0264518      0.0023323615  -0.00061541263  20.950115      19.425834      1.5242809     -1.0547297      18709.356    
     52000   1.0257733      0.0023323615   0.00070695532  20.899934      19.37666       1.5232734     -1.1600135      18535.515    
     53000   0.919554       0.0023323615  -0.0067909113   20.647134      19.281596      1.3655377     -1.2927522      18602.98     
     54000   0.91030355     0.0023323615  -0.0035220541   20.94492       19.593119      1.3518008     -0.98046224     18689.786    
     55000   0.9781011      0.0023323615   0.0010742142   20.978644      19.526164      1.4524801     -0.97794005     18818.249    
     56000   1.0303746      0.0023323615  -0.0002396469   21.016998      19.486892      1.5301063     -0.99934284     18703.381    
     57000   0.95657276     0.0023323615   0.00086905901  20.524978      19.104467      1.4205105     -1.3187102      18645.108    
     58000   1.0033668      0.0023323615  -0.0016928757   20.872486      19.382486      1.4899997     -1.147666       18574.375    
     59000   1.0609958      0.0023323615  -0.0026697232   20.902702      19.327123      1.5755788     -1.1320236      18708.016    
     60000   1.1322532      0.0023323615  -0.0025968167   20.972802      19.291406      1.681396      -1.1723277      18714.333    
     61000   0.91453188     0.0023323615  -0.0031549081   20.848026      19.489946      1.3580798     -1.0757723      18613.984    
     62000   0.82507023     0.0023323615  -0.0030586457   20.629141      19.403912      1.2252293     -1.1406591      18661.353    
     63000   1.1453501      0.0023323615  -0.00066804819  21.178652      19.477807      1.7008449     -1.0996772      18913.572    
     64000   1.0842985      0.0023323615  -0.00016063193  20.756826      19.146642      1.6101833     -1.3049071      18648.404    
     65000   0.89531776     0.0023323615  -0.0031674421   20.895474      19.565927      1.3295469     -0.99374204     19098.433    
     66000   0.95065263     0.0023323615   0.0023357893   20.542089      19.13037       1.4117192     -1.3002281      20133.605    
     67000   0.86282506     0.0023323615  -0.0009499918   20.744993      19.463698      1.2812952     -1.0313994      19987.223    
     68000   0.94016604     0.0023323615   0.00028030409  20.641951      19.245805      1.3961466     -1.3451498      19100.969    
     69000   1.0608981      0.0023323615  -0.0058243208   20.850725      19.275292      1.5754337     -1.1722151      18868.961    
     70000   1.0364102      0.0023323615  -0.0026668598   20.615413      19.076344      1.5390692     -1.4306525      18596.949    
     71000   1.1184643      0.0023323615   0.0047010134   21.046064      19.385144      1.6609195     -1.2321541      18547.039    
     72000   1.1281913      0.0023323615   0.0013277984   21.347316      19.671952      1.6753641     -0.97123524     18752.108    
     73000   0.99231195     0.0023323615   0.0011702148   20.903025      19.429442      1.4735833     -1.1394961      18775.339    
     74000   0.95279685     0.0023323615   0.0010305709   20.632794      19.217891      1.4149033     -1.3144658      18533.213    
     75000   0.85218264     0.0023323615  -0.0020892773   20.353883      19.088391      1.2654912     -1.440085       18631.848    
     76000   0.9405813      0.0023323615   0.0036946437   20.11893       18.722167      1.3967632     -1.7556703      18505.212    
     77000   1.0386691      0.0023323615   0.0003422535   20.723178      19.180754      1.5424237     -1.4907042      18500.016    
     78000   1.0110969      0.0023323615   0.00062969331  20.708913      19.207434      1.5014789     -1.3105939      18499.327    
     79000   1.0625325      0.0023323615  -7.3478637e-05  20.942393      19.364532      1.5778608     -1.201304       18622.469    
     80000   0.98113797     0.0023323615   0.0020813392   21.150247      19.693257      1.4569899     -0.91333598     18574.793    
     81000   0.96416419     0.0023323615  -0.0015050025   20.559512      19.127729      1.4317838     -1.3880123      18511.434    
     82000   0.94888404     0.0023323615  -0.0033548498   20.767249      19.358157      1.4090928     -1.2317119      18396.174    
     83000   0.93231901     0.0023323615  -0.0005706807   20.54013       19.155636      1.3844937     -1.3137559      18696.508    
     84000   1.0231397      0.0023323615   0.0015623133   21.075613      19.55625       1.5193624     -1.1337661      18789.887    
     85000   1.0053625      0.0023323615  -0.0015918971   20.598735      19.105772      1.4929633     -1.3846303      18607.371    
     86000   1.0037661      0.0023323615  -0.0021492823   20.657342      19.16675       1.4905927     -1.3720027      18645.596    
     87000   1.1135506      0.0023323615   0.0020227423   20.645863      18.992241      1.6536227     -1.4975174      18506.794    
     88000   1.0804869      0.0023323615   0.0059766575   20.787676      19.183153      1.604523      -1.4421627      18551.462    
     89000   0.94483927     0.0023323615  -0.0024511363   20.52232       19.119234      1.4030863     -1.3760773      18473.145    
     90000   1.0447324      0.0023323615   0.0018826422   21.104682      19.553255      1.5514276     -1.0093083      18668.676    
     91000   0.99921298     0.0023323615   0.00027976602  20.922221      19.43839       1.4838313     -1.068477       18872.578    
     92000   0.96803045     0.0023323615   0.00058041399  20.884065      19.44654       1.4375252     -1.0139246      19007.61     
     93000   1.0082702      0.0023323615   0.0041614208   20.881468      19.384187      1.4972813     -1.1309901      18726.987    
     94000   0.85090547     0.0023323615   0.0042344224   20.779047      19.515452      1.2635946     -1.0921187      18776.682    
     95000   1.0469406      0.0023323615  -0.0015646627   20.893139      19.338432      1.5547068     -1.187007       18766.2      
     96000   1.0455555      0.0023323615  -0.00065140148  20.917103      19.364453      1.5526499     -1.1748294      18732.263    
     97000   0.83200683     0.0023323615   8.0964289e-05  20.716495      19.480965      1.2355301     -1.146744       18850.697    
     98000   0.91316826     0.0023323615  -0.0010525476   20.678995      19.32294       1.3560549     -1.2007143      18618.748    
     99000   1.1072361      0.0023323615   0.0047014174   20.548797      18.904551      1.6442457     -1.535784       18445.81     
    100000   0.9499532      0.0023323615   0.00010560654  20.76731       19.356629      1.4106805     -1.1783123      18598.218    
    101000   0.9715505      0.0023323615  -0.0020124364   20.672196      19.229444      1.4427525     -1.3120649      18717.846    
    102000   1.1144578      0.0023323615   0.0011075949   20.815025      19.160055      1.6549699     -1.2622715      18590.382    
    103000   1.1216587      0.0023323615  -0.00091583286  20.853587      19.187924      1.6656632     -1.3161929      18659.863    
    104000   1.1065041      0.0023323615   0.00090101323  21.028412      19.385254      1.6431586     -1.0797698      18670.107    
    105000   1.1028324      0.0023323615  -0.00064026251  21.078411      19.440705      1.637706      -1.094522       18896.907    
    106000   1.1517084      0.0023323615  -0.00057536773  21.043636      19.333349      1.710287      -1.0307087      18899.626    
    107000   0.9761294      0.0023323615   0.00049269633  20.749698      19.300146      1.4495522     -1.3283941      18625.899    
    108000   1.0895529      0.0023323615   0.0014484978   20.899358      19.281372      1.617986      -1.1610069      18565.458    
    109000   1.0262928      0.0023323615   0.0013945119   20.748146      19.224102      1.5240448     -1.3370589      18600.845    
    110000   1.0277212      0.0023323615   0.00057533998  20.783755      19.257589      1.526166      -1.2541004      18665.321    
    111000   0.96597913     0.0023323615  -0.00096364043  20.644391      19.209912      1.434479      -1.1859211      18710.639    
    112000   1.0948193      0.0023323615   0.0031449216   20.860384      19.234577      1.6258067     -1.2200504      18564.101    
    113000   0.87281337     0.0023323615   0.0018131793   20.547872      19.251744      1.2961278     -1.1411017      18574.236    
    114000   0.84244828     0.0023323615  -0.00013960896  20.602696      19.35166       1.2510357     -1.1975462      18615.12     
    115000   1.1269664      0.0023323615   0.0010939632   20.958689      19.285144      1.6735452     -1.2233256      18660.223    
    116000   0.88484812     0.0023323615  -0.0028861019   20.480744      19.166744      1.3139995     -1.3365405      18656.818    
    117000   1.080724       0.0023323615  -0.0017005308   20.869843      19.264968      1.6048752     -1.2409669      18581.425    
    118000   1.0342471      0.0023323615  -0.0030447387   20.911713      19.375856      1.5358569     -1.2060266      18604.943    
    119000   0.9592785      0.0023323615  -0.0012006199   20.518123      19.093594      1.4245286     -1.3712852      18443.397    
    120000   1.0029492      0.0023323615   0.00077093564  20.605483      19.116104      1.4893795     -1.3714061      18393.822    
    121000   0.82648707     0.0023323615   0.0026437536   20.528259      19.300926      1.2273333     -1.2838638      18509.594    
    122000   0.97020383     0.0023323615   0.0009585829   20.710452      19.2697        1.4407527     -1.3062027      18754.046    
    123000   1.0012159      0.0023323615   0.00026879948  21.13023       19.643424      1.4868056     -0.95694664     18751.569    
    124000   0.962177       0.0023323615   0.0026600708   20.802607      19.373774      1.4288328     -1.1901748      18588.056    
    125000   0.8975058      0.0023323615   0.00094272625  20.641485      19.308689      1.3327961     -1.2412844      18550.145    
    126000   0.9273134      0.0023323615   7.3304556e-05  20.662938      19.285878      1.3770604     -1.3234151      18621.038    
    127000   1.030585       0.0023323615   0.00092200724  20.816999      19.286581      1.5304188     -1.1305117      18688.421    
    128000   0.90134547     0.0023323615  -0.00044463229  20.433451      19.094953      1.338498      -1.4006419      18616.759    
    129000   1.0061464      0.0023323615   0.001687116    20.766029      19.271902      1.4941274     -1.328966       18582.64     
    130000   0.94586933     0.0023323615  -0.0019107644   20.591252      19.186636      1.404616      -1.3328496      18839.233    
    131000   0.96865605     0.0023323615   0.00462846     20.471007      19.032553      1.4384542     -1.484786       18597.119    
    132000   0.90437194     0.0023323615  -0.00014470863  20.664023      19.321031      1.3429923     -1.2578541      18737.358    
    133000   1.1548108      0.0023323615  -0.0024563255   21.243157      19.528263      1.7148941     -1.1254146      18727.567    
    134000   1.1473771      0.0023323615   0.0018226859   20.906362      19.202507      1.7038551     -1.2436966      18743.966    
    135000   1.1253684      0.0023323615  -0.00066959445  20.967232      19.29606       1.671172      -1.2050279      18569.433    
    136000   1.0025096      0.0023323615  -0.0010590467   20.891091      19.402365      1.4887267     -1.0327482      18487.122    
    137000   0.95852865     0.0023323615   0.0038447748   20.900101      19.476686      1.423415      -1.0387207      18734.858    
    138000   0.97306213     0.0023323615  -0.0049037921   20.716155      19.271158      1.4449973     -1.1512651      19343.086    
    139000   1.1212871      0.0023323615   0.00022842096  21.30142       19.636308      1.6651114     -0.84668759     20011.222    
    140000   0.95010162     0.0023323615   0.0016825029   20.873443      19.462542      1.4109009     -1.1182229      18975.129    
    141000   1.0504681      0.0023323615   0.0008842647   20.777471      19.217526      1.5599452     -1.2764537      18596.641    
    142000   0.94573577     0.0023323615  -0.0052456659   20.798315      19.393897      1.4044176     -1.0692427      18762.852    
    143000   0.89495493     0.0023323615   0.0010345988   20.528056      19.199048      1.3290081     -1.3351406      18598.152    
    144000   1.1007044      0.0023323615  -0.0024560256   20.915649      19.281103      1.634546      -1.1962591      18533.189    
    145000   1.0314702      0.0023323615   0.0012340915   20.841579      19.309846      1.5317332     -1.2095521      18539.543    
    146000   0.83328616     0.0023323615  -0.0011847175   20.824544      19.587114      1.2374299     -1.1028084      18512.956    
    147000   0.962183       0.0023323615  -0.0040859493   20.652451      19.223609      1.4288418     -1.3578794      18554.3      
    148000   1.0645448      0.0023323615   0.00060635909  21.286657      19.705808      1.580849      -0.87601178     18569.35     
    149000   1.0977192      0.0023323615   0.0018258857   21.296532      19.666419      1.630113      -0.94144471     18723.099    
    150000   1.0281408      0.0023323615  -0.0049438744   21.088426      19.561637      1.5267891     -1.014893       18987.184    
    151000   1.0185822      0.0023323615  -0.0075949256   21.387428      19.874833      1.5125946     -0.75102566     18791.55     
    152000   1.0337817      0.0023323615   0.0052027293   20.923451      19.388285      1.5351658     -1.1871441      18693.188    
    153000   0.99179928     0.0023323615   0.0019083806   20.776006      19.303184      1.4728219     -1.3548204      18659.567    
    154000   1.2441532      0.0023323615  -0.0017967789   21.089836      19.242268      1.8475675     -1.3101956      18643.583    
    155000   1.1829092      0.0023323615   0.0012143768   21.099786      19.343166      1.7566201     -1.0513851      18567.52     
    156000   0.99627928     0.0023323615  -0.0013352803   20.881387      19.401912      1.4794747     -1.2160673      18707.609    
    157000   0.86704558     0.0023323615   0.001423612    20.727721      19.440158      1.2875627     -1.2047989      18899.884    
    158000   1.0374638      0.0023323615  -0.00016853618  20.777753      19.23712       1.5406337     -1.3198188      18698.781    
    159000   1.0681539      0.0023323615   0.0015610472   21.086142      19.499933      1.5862085     -1.178103       18782.2      
    160000   1.0320342      0.0023323615  -0.002267422    20.968705      19.436135      1.5325707     -0.95251457     18759.386    
    161000   1.0226313      0.0023323615  -0.0010354527   20.721356      19.202749      1.5186074     -1.1802867      18760.92     
    162000   0.86006918     0.0023323615  -0.0037498827   20.560957      19.283754      1.2772027     -1.2729592      18567.879    
    163000   1.0277094      0.0023323615  -0.0012466062   20.748463      19.222315      1.5261484     -1.1703319      18543.528    
    164000   1.1178206      0.0023323615  -0.00025592068  21.199026      19.539062      1.6599635     -1.0667451      18643.726    
    165000   1.0984498      0.0023323615   0.0026534238   20.6294        18.998202      1.631198      -1.38098        18460.612    
    166000   0.99182804     0.0023323615  -0.0031067427   20.648808      19.175943      1.4728646     -1.3500839      18503.799    
    167000   0.83344887     0.0023323615   6.5814183e-05  20.543755      19.306083      1.2376716     -1.209088       18543.842    
    168000   0.9349127      0.0023323615   0.00080223411  20.772803      19.384457      1.3883454     -1.0879423      18668.061    
    169000   1.0326325      0.0023323615   0.0015412711   20.687222      19.153763      1.5334592     -1.2207823      18480.365    
    170000   1.1218026      0.0023323615  -0.0018362443   21.190996      19.525119      1.6658768     -1.1216533      18624.029    
    171000   0.95197035     0.0023323615   0.0027373531   20.688932      19.275256      1.413676      -1.261885       18624.999    
    172000   0.96588497     0.0023323615   0.00097092278  20.506742      19.072402      1.4343392     -1.495505       18656.424    
    173000   0.96978998     0.0023323615  -0.0017535671   20.805574      19.365436      1.4401381     -1.1983902      18549.121    
    174000   1.0115328      0.0023323615   0.00037186044  20.755306      19.25318       1.5021262     -1.2686835      18576.238    
    175000   1.1697986      0.0023323615   0.00011558718  21.080018      19.342867      1.737151      -1.1893758      18675.906    
    176000   0.92175348     0.0023323615  -0.004973327    20.882486      19.513682      1.3688039     -1.1129434      18454.288    
    177000   0.93170126     0.0023323615  -0.0035586028   20.918534      19.534958      1.3835764     -1.0235501      18589.319    
    178000   1.0775641      0.0023323615   0.00028876742  20.742801      19.142618      1.6001826     -1.3090946      18514.851    
    179000   0.98971105     0.0023323615  -0.0018016618   20.922178      19.452457      1.4697209     -1.1613621      18415.718    
    180000   1.01508        0.0023323615  -0.0021107313   20.890597      19.383203      1.5073938     -1.1503094      18397.832    
    181000   1.1389446      0.0023323615  -0.0019647466   20.904025      19.212692      1.6913328     -1.2197756      18556.97     
    182000   1.1970139      0.0023323615  -0.00083525634  20.830933      19.053367      1.7775656     -1.4190975      18412.545    
    183000   1.0845634      0.0023323615   0.0023069754   20.730069      19.119492      1.6105766     -1.2301542      18315.55     
    184000   1.0030214      0.0023323615   0.0007602383   20.824925      19.335439      1.4894868     -1.2009249      18460.729    
    185000   1.1062508      0.0023323615  -0.00095444724  20.613148      18.970365      1.6427824     -1.4064339      18295.487    
    186000   1.1107433      0.0023323615   0.001488813    20.88884       19.239386      1.6494539     -1.2841995      18489.735    
    187000   1.1503574      0.0023323615   0.0013506098   20.863943      19.155662      1.7082808     -1.3337277      18198.052    
    188000   1.1521475      0.0023323615   0.0004326818   21.102071      19.391132      1.7109391     -1.0283901      18413.615    
    189000   1.0194592      0.0023323615  -0.0021386916   20.993082      19.479185      1.5138969     -1.0073926      18653.621    
    190000   0.90681579     0.0023323615   0.0010385399   20.650635      19.304013      1.3466215     -1.1954897      18535.884    
    191000   1.0884228      0.0023323615  -0.00087818665  20.916021      19.299713      1.6163079     -1.201347       18414.454    
    192000   1.0497355      0.0023323615   0.00012727266  21.049774      19.490917      1.5588572     -0.97881694     18453.302    
    193000   0.99697799     0.0023323615  -0.00025642357  21.087624      19.607111      1.4805123     -0.90395819     18658.342    
    194000   1.085622       0.0023323615   0.0014143785   20.753919      19.141771      1.6121487     -1.2887523      18707.115    
    195000   1.035148       0.0023323615   0.0027024579   20.863805      19.326611      1.5371947     -1.1339227      18566.68     
    196000   0.99994778     0.0023323615  -0.0004552365   20.77973       19.294808      1.4849225     -1.2888795      18487.814    
    197000   1.0354795      0.0023323615  -0.0023820141   20.824917      19.28723       1.5376871     -1.271097       18373.78     
    198000   1.0821777      0.0023323615   0.00065596339  20.867738      19.260704      1.6070339     -1.2887452      18297.577    
    199000   1.1289692      0.0023323615  -0.0031570997   21.06459       19.388071      1.6765192     -1.1730411      18502.351    
    200000   1.0351665      0.0023323615   0.0027783034   20.778083      19.240861      1.5372222     -1.153421       18535.061    
    201000   1.0223697      0.0023323615  -0.0028702493   20.463233      18.945014      1.5182189     -1.4635807      18452.282    
    202000   1.0022077      0.0023323615   0.0022777015   20.769451      19.281172      1.4882784     -1.2449688      18420.714    
    203000   0.92488749     0.0023323615  -0.0058296911   20.585018      19.21156       1.3734579     -1.2646801      18479.236    
    204000   1.017527       0.0023323615  -0.0012949831   20.85229       19.341263      1.5110276     -1.1536051      18440.752    
    205000   0.97405611     0.0023323615  -0.0020818494   20.669586      19.223113      1.4464733     -1.339376       18463.266    
    206000   1.2161281      0.0023323615   0.0039377077   21.197573      19.391623      1.8059503     -1.2321212      18384.583    
    207000   0.80487384     0.0023323615  -0.0023235535   20.438285      19.243048      1.1952376     -1.3229427      18482.466    
    208000   0.96553428     0.0023323615  -7.7890224e-05  20.772176      19.338358      1.4338184     -1.1459367      18328.263    
    209000   0.88023465     0.0023323615  -0.0009826166   20.796395      19.489247      1.3071485     -1.1661057      18639.436    
    210000   0.91926995     0.0023323615  -0.0017529551   20.84796       19.482845      1.3651159     -1.1872974      18743.456    
    211000   1.1341016      0.0023323615  -0.0013398227   20.932066      19.247925      1.6841409     -1.2117232      18607.863    
    212000   1.092336       0.0023323615   0.00090134051  21.11047       19.488351      1.6221189     -0.96730578     18439.737    
    213000   0.97180198     0.0023323615   0.0035488439   20.596638      19.153512      1.4431259     -1.3299665      18440.708    
    214000   1.0676961      0.0023323615  -0.003800025    20.780376      19.194847      1.5855287     -1.3414685      18304.778    
    215000   1.0507092      0.0023323615   0.0024801998   20.810723      19.25042       1.5603031     -1.2803692      18516.38     
    216000   1.0212337      0.0023323615  -0.0033619462   20.932389      19.415857      1.5165321     -1.117777       18589.904    
    217000   1.0478224      0.0023323615   0.0013031022   20.826681      19.270664      1.5560162     -1.2905361      18373.807    
    218000   1.0372699      0.0023323615   0.0017572822   21.006462      19.466116      1.5403459     -1.1868153      18298.61     
    219000   0.99880368     0.0023323615  -0.00030178922  20.614966      19.131742      1.4832235     -1.3477033      18304.697    
    220000   0.94941718     0.0023323615  -0.0011109813   20.483539      19.073655      1.4098845     -1.351603       18350.998    
    221000   0.96563633     0.0023323615  -0.0021491502   20.817707      19.383737      1.43397       -1.0824919      18417.159    
    222000   0.97993749     0.0023323615   0.0061362042   20.632163      19.176955      1.4552072     -1.3905285      18413.503    
    223000   0.90432932     0.0023323615  -0.0025176155   20.547137      19.204208      1.342929      -1.4305808      18412.022    
    224000   1.0183365      0.0023323615  -0.0005991615   20.55291       19.04068       1.5122297     -1.3088886      18341.836    
    225000   1.0207742      0.0023323615  -0.00068153443  20.876723      19.360873      1.5158496     -1.1549158      18426.495    
    226000   1.0678395      0.0023323615  -0.0001301046   21.062394      19.476653      1.5857417     -1.099257       18554.987    
    227000   1.1338509      0.0023323615  -0.0022798297   20.997169      19.313401      1.6837686     -1.1098237      18524.851    
    228000   0.82596396     0.0023323615  -0.00023264344  20.596286      19.369729      1.2265565     -1.2269929      18601.937    
    229000   0.99082897     0.0023323615  -0.00051611712  20.733106      19.261725      1.471381      -1.2525857      18689.751    
    230000   0.85355108     0.0023323615   0.00089803661  20.805056      19.537532      1.2675234     -0.99779921     18578.389    
    231000   0.90398459     0.0023323615  -0.0010752655   20.634855      19.292438      1.3424171     -1.2493533      18367.278    
    232000   1.1268402      0.0023323615   0.0015872057   20.713565      19.040207      1.6733577     -1.3720352      18354.555    
    233000   1.0595533      0.0023323615   0.0016841062   21.005339      19.431902      1.5734366     -1.1802278      18335.98     
    234000   1.0361596      0.0023323615   0.0015827393   21.054454      19.515757      1.538697      -1.0360935      18422.608    
    235000   0.97563264     0.0023323615  -0.0033465158   20.819305      19.370491      1.4488145     -1.1378042      18538.052    
    236000   0.96057745     0.0023323615   0.0030126966   20.643953      19.217495      1.4264575     -1.1711496      18387.306    
    237000   1.024821       0.0023323615  -0.0043329394   20.807153      19.285294      1.5218593     -1.1456321      18675.372    
    238000   0.80453048     0.0023323615  -0.00375645     20.687451      19.492724      1.1947278     -1.0254247      18577.255    
    239000   1.0069499      0.0023323615  -0.0023335405   21.049116      19.553795      1.4953206     -1.0244214      18506.176    
    240000   0.79970362     0.0023323615  -0.0029618245   20.32942       19.14186       1.1875599     -1.2166759      18473.21     
    241000   1.0145884      0.0023323615  -2.6987749e-05  21.015281      19.508617      1.5066638     -1.12254        18526.618    
    242000   0.9042569      0.0023323615   0.0054068838   20.767357      19.424536      1.3428215     -1.0036931      18924.495    
    243000   1.0386946      0.0023323615   0.0011627309   21.003563      19.461102      1.5424615     -0.99175884     18851.598    
    244000   1.1112646      0.0023323615   0.00087947672  20.855747      19.205519      1.650228      -1.2742087      18745.579    
    245000   1.1644869      0.0023323615  -0.0040081262   21.0066        19.277337      1.729263      -1.2484402      18589.073    
    246000   1.0145848      0.0023323615   0.000714421    20.481584      18.974926      1.5066584     -1.4019189      18303.261    
    247000   0.96999328     0.0023323615  -0.0019903467   20.998545      19.558105      1.44044       -0.9966162      18544.269    
    248000   1.0318232      0.0023323615   0.0007436561   20.855092      19.322834      1.5322574     -1.2112567      18537.418    
    249000   1.1354215      0.0023323615   0.0024919033   20.846702      19.160601      1.6861009     -1.2305752      18482.932    
    250000   0.9483838      0.0023323615   0.00075373928  20.742704      19.334354      1.4083499     -1.1884484      18476.818    
    251000   1.1149811      0.0023323615  -0.0031088769   20.823241      19.167494      1.6557469     -1.4144056      18553.138    
    252000   0.98692579     0.0023323615   0.003672443    20.69046       19.224875      1.4655848     -1.2285266      18382.385    
    253000   0.93561876     0.0023323615  -9.5325255e-06  20.789599      19.400205      1.3893939     -1.1392873      18481.727    
    254000   0.88832006     0.0023323615   0.0037145972   20.460234      19.141079      1.3191553     -1.4585838      18262.909    
    255000   0.99957575     0.0023323615  -0.0014966516   20.636464      19.152094      1.48437       -1.3105014      18267.719    
    256000   0.99897954     0.0023323615  -0.00099229708  20.730029      19.246544      1.4834846     -1.2014297      18397.727    
    257000   0.95457425     0.0023323615  -0.00078450095  20.800737      19.383194      1.4175428     -1.2146969      18647.118    
    258000   0.99377601     0.0023323615  -0.0015809051   20.911425      19.435667      1.4757574     -1.1339752      18825.177    
    259000   1.1875413      0.0023323615  -0.0025477917   21.249764      19.486265      1.7634989     -1.0164624      18934.985    
    260000   0.99261373     0.0023323615   0.0022890829   20.816281      19.342249      1.4740314     -1.1566695      18631.653    
    261000   0.91621922     0.0023323615   0.00085234164  20.636749      19.276163      1.3605855     -1.2282206      18553.462    
    262000   1.135503       0.0023323615  -0.00017665469  21.11791       19.431688      1.686222      -1.1354145      18467.225    
    263000   1.0563191      0.0023323615   0.0019073084   21.024653      19.456019      1.5686339     -1.1018689      18617.096    
    264000   1.1313371      0.0023323615  -0.003963145    21.13866       19.458625      1.6800356     -1.0001753      19150.777    
    265000   1.0908273      0.0023323615   0.00073659917  21.241067      19.621189      1.6198785     -0.95533627     18744.864    
    266000   0.98349121     0.0023323615  -0.0016054795   20.775011      19.314526      1.4604844     -1.1799659      18468.609    
    267000   0.96237602     0.0023323615   0.001494186    20.864895      19.435767      1.4291284     -1.1418028      18493.729    
    268000   1.1137496      0.0023323615   0.0043626082   20.929907      19.275989      1.6539181     -1.1582257      19084.581    
    269000   1.0244812      0.0023323615  -0.00089033852  21.035711      19.514356      1.5213546     -1.1035534      19557.021    
    270000   1.0518575      0.0023323615   0.00130609     20.843111      19.281103      1.5620084     -1.2409794      19338.243    
    271000   0.93350461     0.0023323615  -0.0018324649   20.887268      19.501013      1.3862544     -1.2521036      18911.121    
    272000   1.105503       0.0023323615  -0.0015529816   20.972         19.330328      1.641672      -1.2521866      18654.51     
    273000   1.0707618      0.0023323615   0.0036189942   20.81239       19.222308      1.5900813     -1.2527505      18461.569    
    274000   0.96900663     0.0023323615   0.0003091965   20.931192      19.492217      1.4389748     -0.97455984     18536.974    
    275000   0.96052864     0.0023323615   0.0024636548   20.806091      19.379706      1.426385      -0.99473449     18773.157    
    276000   0.9100726      0.0023323615   0.00069140093  20.897223      19.545765      1.3514578     -1.0303745      18570.311    
    277000   0.91010437     0.0023323615   0.00012763196  20.585755      19.23425       1.351505      -1.3147939      18606.236    
    278000   0.92592389     0.0023323615  -0.00028916925  20.769422      19.394426      1.374997      -1.1002866      18650.338    
    279000   0.96333274     0.0023323615  -0.003629168    20.743394      19.312845      1.4305491     -1.1676564      18420.048    
    280000   0.89228181     0.0023323615  -0.00030558517  20.638058      19.313019      1.3250385     -1.2232281      18423.274    
    281000   1.0528306      0.0023323615   0.002730694    20.719781      19.156328      1.5634534     -1.3721212      18519.908    
    282000   0.97464839     0.0023323615  -0.00083081706  20.504206      19.056853      1.4473529     -1.3617351      18402.72     
    283000   1.0107889      0.0023323615  -0.0010873107   21.042996      19.541975      1.5010215     -1.0890492      18243.235    
    284000   0.94632529     0.0023323615  -0.0030709547   20.796239      19.390946      1.4052931     -1.0693523      19114.763    
    285000   0.92075262     0.0023323615  -0.0067864644   20.933803      19.566485      1.3673176     -0.99077093     19352.023    
    286000   0.89113256     0.0023323615  -0.0011474324   20.765631      19.442299      1.3233319     -1.1093577      19791.32     
    287000   1.1732264      0.0023323615   0.0035562073   21.158934      19.416692      1.7422412     -1.0330729      19083.972    
    288000   1.1204555      0.0023323615  -0.00020857468  21.16716       19.503284      1.6638764     -0.9944905      18821.475    
    289000   1.083829       0.0023323615   0.0017170555   21.157229      19.547743      1.6094861     -0.94236475     18768.649    
    290000   1.0315811      0.0023323615  -0.00091615319  21.050691      19.518793      1.5318979     -0.96710514     18715.888    
    291000   1.0149814      0.0023323615  -0.00045967478  20.618015      19.110768      1.5072474     -1.3865475      18873.963    
    292000   1.0116282      0.0023323615   0.0010400398   20.643678      19.14141       1.5022678     -1.2754728      18568.49     
    293000   1.0622371      0.0023323615  -0.0018412055   21.064522      19.4871        1.5774221     -1.101246       18673.265    
    294000   0.98305527     0.0023323615  -0.0011115182   20.730862      19.271024      1.4598371     -1.114154       18713.207    
    295000   0.94548967     0.0023323615   0.0028359793   21.075194      19.671141      1.4040522     -0.94971132     18857.496    
    296000   1.0134991      0.0023323615   0.002656184    20.890313      19.385267      1.5050461     -1.1375198      19234.547    
    297000   0.97104918     0.0023323615   0.0010226589   20.850921      19.408913      1.442008      -1.1029405      19895.761    
    298000   0.88567678     0.0023323615  -0.0029991315   20.787513      19.472283      1.31523       -1.0531427      19946.888    
    299000   1.1365501      0.0023323615  -0.0027031681   21.122001      19.434224      1.687777      -1.043099       19128.009    
    300000   1.0736519      0.0023323615  -0.0013882287   20.798047      19.203674      1.594373      -1.3904337      18483.425    
    301000   1.1542711      0.0023323615   0.0015671242   20.812136      19.098044      1.7140926     -1.4056874      18425.872    
    302000   1.1466035      0.0023323615   0.00061561225  21.097977      19.395271      1.7027063     -1.0993513      18510.017    
    303000   0.94024648     0.0023323615  -0.00052196498  20.889094      19.492828      1.396266      -1.1168199      18554.311    
    304000   1.0923302      0.0023323615  -0.00059922052  20.889199      19.267088      1.6221104     -1.2862403      18546.047    
    305000   1.1842191      0.0023323615   0.0021420089   20.936382      19.177817      1.7585654     -1.3091522      18470.041    
    306000   0.92491048     0.0023323615  -0.0038567935   20.903916      19.530424      1.3734921     -0.97056129     18715.919    
    307000   0.89516044     0.0023323615  -0.0034480238   20.649182      19.319869      1.3293133     -1.117973       19409.803    
    308000   1.0585346      0.0023323615   0.0017047428   20.956435      19.384511      1.5719239     -1.1281095      19413.205    
    309000   1.0621655      0.0023323615   0.0027005209   20.812115      19.234799      1.5773157     -1.2990134      19359.758    
    310000   0.93118438     0.0023323615   0.0015409621   20.788992      19.406183      1.3828088     -1.1565197      19104.467    
    311000   1.0099385      0.0023323615  -0.0023375057   21.058971      19.559212      1.4997587     -1.0764809      18677.304    
    312000   1.1283837      0.0023323615  -0.00094469857  21.114556      19.438906      1.6756499     -1.0269476      18591.137    
    313000   0.99293332     0.0023323615  -0.0011904445   21.072001      19.597495      1.474506      -1.0530642      18516.695    
    314000   1.2141321      0.0023323615  -0.00051138403  21.215269      19.412282      1.8029862     -1.0456203      18552.759    
    315000   1.0684107      0.0023323615   0.0059318759   20.923348      19.336758      1.5865899     -1.3071512      18457.564    
    316000   1.0479219      0.0023323615   0.0040847075   21.002688      19.446524      1.556164      -1.251952       18324.144    
    317000   0.99090825     0.0023323615  -0.0039200778   20.58859       19.117091      1.4714987     -1.384184       18300.482    
    318000   0.83531999     0.0023323615  -0.0045551662   20.65516       19.41471       1.2404502     -1.1944142      18308.119    
    319000   0.90863425     0.0023323615  -0.0037207627   20.549197      19.199875      1.3493219     -1.3383641      18449.243    
    320000   0.84561305     0.0023323615  -0.001620347    20.476315      19.22058       1.2557354     -1.2311558      18542.863    
    321000   0.88020837     0.0023323615  -0.0014167334   20.753813      19.446703      1.3071094     -1.0250555      18738.223    
    322000   0.98312503     0.0023323615  -0.0040155945   20.765478      19.305537      1.4599407     -1.2474465      18658.981    
    323000   1.0152277      0.0023323615   0.0025465424   20.782493      19.27488       1.5076131     -1.1697096      18656.292    
    324000   1.0512579      0.0023323615  -0.0065581968   21.197435      19.636317      1.561118      -0.93879117     18822.649    
    325000   0.9605853      0.0023323615  -0.0028178063   21.015807      19.589338      1.4264692     -1.0431264      18870.394    
    326000   1.0115156      0.0023323615   0.0014510251   21.031305      19.529205      1.5021007     -1.2914228      18594.233    
    327000   1.0475834      0.0023323615  -0.0028922235   20.653584      19.097923      1.5556614     -1.3952096      18466.456    
    328000   1.1132287      0.0023323615   0.0049293962   20.980019      19.326874      1.6531446     -1.1739579      18354.923    
    329000   0.9527891      0.0023323615  -0.0016747853   20.876757      19.461866      1.4148918     -1.1384113      18399.396    
    330000   1.2710521      0.0023323615   0.00039380662  21.156402      19.268889      1.8875124     -1.2014642      18632.286    
    331000   1.0511245      0.0023323615  -0.0016717758   20.871531      19.310611      1.5609199     -1.3940096      18517.63     
    332000   0.998717       0.0023323615   0.0034728156   20.761133      19.278038      1.4830948     -1.2778525      18593.194    
    333000   0.93743038     0.0023323615  -0.0023141207   20.562662      19.170578      1.3920841     -1.3253693      18603.781    
    334000   1.0076399      0.0023323615  -0.0010580035   21.00109       19.504745      1.4963452     -1.0701729      18521.736    
    335000   1.0038075      0.0023323615   0.00040150636  20.857881      19.367226      1.4906542     -1.2119369      18319.258    
    336000   1.0648157      0.0023323615  -0.0026164482   20.945873      19.364621      1.5812513     -1.0628647      18464.144    
    337000   1.0898442      0.0023323615   0.0037663354   20.711938      19.09352       1.6184186     -1.4694251      18272.274    
    338000   0.95081773     0.0023323615   0.0038582282   20.722033      19.310069      1.4119643     -1.3897345      18395.069    
    339000   0.94675746     0.0023323615  -0.0027588865   20.817108      19.411173      1.4059348     -1.3512224      18338.847    
    340000   1.1849764      0.0023323615   0.00035590118  21.072194      19.312504      1.7596899     -1.3251348      18522.303    
    341000   1.0755308      0.0023323615   0.0018244937   20.982917      19.385754      1.5971633     -1.1801324      18412.385    
    342000   1.0219554      0.0023323615   0.0034739844   20.845486      19.327882      1.5176037     -1.2508187      18435.351    
    343000   0.9849014      0.0023323615  -0.0021225027   20.513753      19.051174      1.4625786     -1.5307485      18409.339    
    344000   1.0914995      0.0023323615  -0.0011002151   20.770251      19.149374      1.6208767     -1.3535371      18320.721    
    345000   1.0328832      0.0023323615   0.0030184584   20.743196      19.209364      1.5338316     -1.2867129      18516.438    
    346000   0.96246284     0.0023323615   0.0010924309   20.497909      19.068652      1.4292573     -1.3595703      18424.06     
    347000   0.9415601      0.0023323615  -0.00097906158  20.604099      19.205882      1.3982168     -1.2827643      18542.839    
    348000   0.97310675     0.0023323615  -0.0028369943   20.744221      19.299158      1.4450635     -1.1680054      18675.047    
    349000   0.96776106     0.0023323615   0.001910423    20.24827       18.811145      1.4371252     -1.5166339      18400.251    
    350000   1.0829668      0.0023323615   0.0031488435   20.88473       19.276525      1.6082057     -1.3639956      18436.13     
    351000   1.0774143      0.0023323615   0.0017044644   20.820991      19.221031      1.5999602     -1.3128163      18484.441    
    352000   1.041187       0.0023323615  -0.0039736703   21.060029      19.513866      1.5461628     -1.1912652      18542.619    
    353000   0.9414846      0.0023323615   0.0003812973   20.86542       19.467316      1.3981046     -1.1787165      18393.927    
    354000   0.98858737     0.0023323615   0.0015344031   20.859922      19.39187       1.4680522     -1.0768657      18552.845    
    355000   1.1030582      0.0023323615   0.00095592735  21.209281      19.57124       1.6380415     -0.89938269     18501.1      
    356000   1.1588031      0.0023323615  -0.0023308764   20.899202      19.178379      1.7208226     -1.2959727      18553.666    
    357000   1.0789903      0.0023323615   0.00087607966  20.571357      18.969056      1.6023006     -1.4966951      18291.155    
    358000   1.0085074      0.0023323615   0.00040872981  20.775593      19.27796       1.4976335     -1.2246521      18343.528    
    359000   1.0525099      0.0023323615  -0.00028820335  21.012688      19.449711      1.5629772     -1.0727568      18422.771    
    360000   0.98103263     0.0023323615  -0.0012667626   20.682085      19.225251      1.4568334     -1.3826581      18357.424    
    361000   1.0988048      0.0023323615  -0.002252779    20.767079      19.135354      1.6317251     -1.441361       18268.143    
    362000   0.86281511     0.0023323615  -0.00066841353  20.724955      19.443674      1.2812804     -1.0220498      18494.535    
    363000   0.93665604     0.0023323615   1.9866009e-06  20.847358      19.456424      1.3909342     -1.1269343      18786.351    
    364000   1.0840481      0.0023323615   0.0018418738   20.931186      19.321375      1.6098114     -1.2293869      18871.508    
    365000   0.84296736     0.0023323615   0.00025959104  20.583514      19.331707      1.2518065     -1.1647677      18754.782    
    366000   0.96491488     0.0023323615  -0.0017497957   20.705732      19.272834      1.4328986     -1.2402717      18512.835    
    367000   0.95281406     0.0023323615  -0.0016628938   20.732697      19.317768      1.4149289     -1.089637       18443.697    
    368000   0.96786998     0.0023323615  -0.0030735794   20.594288      19.157002      1.4372869     -1.246702       18464.274    
    369000   1.1205421      0.0023323615   0.00046096042  21.146699      19.482694      1.664005      -0.97836455     18546.912    
    370000   0.96143704     0.0023323615   0.00069891463  20.80544       19.377706      1.427734      -1.2256208      18876.168    
    371000   0.95261309     0.0023323615   0.0040394287   20.622194      19.207563      1.4146304     -1.2761524      18497.273    
    372000   1.007083       0.0023323615  -0.0012357626   21.003649      19.508131      1.4955182     -1.0228158      18499.437    
    373000   0.85702251     0.0023323615   0.00053044418  20.644353      19.371675      1.2726784     -1.1173054      18679.758    
    374000   1.1143689      0.0023323615   0.0019569649   20.831498      19.17666       1.6548377     -1.3203787      18536.916    
    375000   0.92927331     0.0023323615  -0.0013861936   20.630587      19.250616      1.3799709     -1.3103343      18400.838    
    376000   0.94583347     0.0023323615  -0.006983162    20.930822      19.52626       1.4045627     -1.1114681      18210.749    
    377000   1.0734328      0.0023323615   0.0043672284   20.669426      19.075378      1.5940478     -1.4298954      18429.765    
    378000   1.0596604      0.0023323615   0.004120746    20.953933      19.380338      1.5735957     -1.1945236      18308.693    
    379000   0.99416464     0.0023323615   9.8045266e-05  20.76138       19.285046      1.4763345     -1.1946219      18528.819    
    380000   1.0786045      0.0023323615  -0.0009623407   20.81625       19.214523      1.6017277     -1.3264971      18416.166    
    381000   1.0128646      0.0023323615  -0.00027861555  20.542982      19.038878      1.504104      -1.4853826      18418.069    
    382000   0.9598607      0.0023323615   0.00036443252  20.687132      19.261738      1.4253931     -1.2268153      18476.787    
    383000   1.1040818      0.0023323615  -0.0024060738   21.10473       19.465168      1.6395615     -1.2134283      18616.179    
    384000   0.90175251     0.0023323615  -0.00081332092  20.56574       19.226637      1.3391025     -1.1754028      18727.824    
    385000   0.93923101     0.0023323615  -0.001451193    20.897905      19.503147      1.3947581     -1.1629223      18586.059    
    386000   1.1213741      0.0023323615  -3.3729701e-05  20.802618      19.137378      1.6652405     -1.2865554      18553.276    
    387000   0.97124586     0.0023323615  -0.0010399069   20.908493      19.466193      1.4423001     -1.1135775      18341.819    
    388000   0.8826587      0.0023323615  -0.0025955591   20.533709      19.222961      1.3107482     -1.2423974      18542.209    
    389000   0.99476601     0.0023323615   0.00016936782  20.781694      19.304466      1.4772275     -1.2652815      18641.288    
    390000   1.1347529      0.0023323615   0.0027844961   20.901212      19.216104      1.6851081     -1.2442873      18405.472    
    391000   0.93525407     0.0023323615  -0.0022508709   20.742395      19.353543      1.3888523     -1.1069765      18440.082    
    392000   0.97476385     0.0023323615  -2.9288476e-05  20.921793      19.474268      1.4475243     -0.97450983     18719.882    
    393000   1.0789411      0.0023323615  -0.0013799786   21.074759      19.472532      1.6022276     -1.0680986      18552.759    
    394000   1.0658682      0.0023323615   0.0031182248   21.297531      19.714717      1.5828143     -0.91841333     18705.572    
    395000   1.0251281      0.0023323615  -0.0014037701   20.716522      19.194207      1.5223153     -1.2584232      18462.808    
    396000   1.0211582      0.0023323615  -0.0001582898   20.90109       19.38467       1.51642       -1.1938699      18409.454    
    397000   0.8776831      0.0023323615  -0.0014131665   20.594909      19.291549      1.3033594     -1.3250901      18368.076    
    398000   1.055672       0.0023323615   0.0011143222   20.788772      19.221099      1.5676729     -1.3660458      18438.514    
    399000   0.97369225     0.0023323615   0.0007844183   20.59477       19.148837      1.445933      -1.3619571      18397.52     
    400000   1.0197824      0.0023323615   0.00036785906  20.883727      19.36935       1.5143768     -1.2484058      18387.377    
    401000   0.93102868     0.0023323615  -0.001019419    20.547368      19.16479       1.3825776     -1.260497       18748.078    
    402000   0.85664741     0.0023323615   0.00084652071  20.41832       19.146198      1.2721214     -1.2653238      18551.055    
    403000   0.90900048     0.0023323615   0.00090595269  20.584563      19.234698      1.3498657     -1.1878099      18528.035    
    404000   0.91482787     0.0023323615   0.001595088    20.567702      19.209182      1.3585194     -1.2189234      18541.585    
    405000   0.99945356     0.0023323615  -0.0042627236   20.763183      19.278994      1.4841885     -1.2782288      18582.373    
    406000   1.1414073      0.0023323615   0.0016202465   20.998487      19.303497      1.6949898     -1.1592318      18444.647    
    407000   0.90362866     0.0023323615   0.00017490289  20.619188      19.277299      1.3418886     -1.2477965      18412.769    
    408000   0.89387475     0.0023323615  -4.350436e-05   20.772661      19.445257      1.327404      -1.0387773      18682.943    
    409000   0.94398779     0.0023323615  -0.0034161203   21.013009      19.611187      1.4018219     -0.90281901     18834.232    
    410000   0.93240469     0.0023323615  -0.00011806489  20.795328      19.410707      1.384621      -1.1910418      18789.965    
    411000   0.98031036     0.0023323615   0.0022559531   20.881703      19.425942      1.4557609     -1.1379929      18484.414    
    412000   1.0137996      0.0023323615   0.00044290621  20.546789      19.041297      1.5054925     -1.5150043      18422.468    
    413000   1.0372781      0.0023323615  -0.0024400539   20.974819      19.434461      1.5403581     -1.1888454      18282.033    
    414000   1.0252116      0.0023323615   0.0039105532   20.667122      19.144683      1.5224392     -1.3767821      18431.657    
    415000   1.0301071      0.0023323615  -0.0053701526   20.910496      19.380787      1.5297091     -1.2006955      18623.994    
    416000   1.0756403      0.0023323615   0.0031971946   21.028811      19.431485      1.5973258     -1.165281       18672.35     
    417000   0.95896956     0.0023323615  -0.0042848764   20.694046      19.269976      1.4240698     -1.2840093      18570.141    
    418000   1.1191097      0.0023323615  -0.0019624722   20.908127      19.24625       1.6618778     -1.1718906      18424.543    
    419000   1.0691651      0.0023323615  -0.0016441233   20.967414      19.379704      1.5877102     -1.2582819      18490.016    
    420000   0.8838697      0.0023323615  -0.0020231607   20.777631      19.465084      1.3125465     -1.1139458      18522.269    
    421000   0.90378014     0.0023323615  -0.00063449104  20.558686      19.216572      1.3421135     -1.29234        18513.371    
    422000   0.93552888     0.0023323615   0.0046744436   20.663268      19.274007      1.3892604     -1.3028866      18254.128    
    423000   0.98341621     0.0023323615   0.0028962308   20.678423      19.21805       1.4603731     -1.2247436      18338.368    
    424000   0.96778061     0.0023323615   0.0014712476   20.516731      19.079577      1.4371542     -1.296688       18382.426    
    425000   0.97462755     0.0023323615  -0.003761445    20.801953      19.354631      1.4473219     -1.1745359      18435.728    
    426000   1.010471       0.0023323615   0.0019972534   20.726954      19.226405      1.5005494     -1.3598916      18356.614    
    427000   1.1399295      0.0023323615   0.000637016    20.882194      19.189399      1.6927953     -1.3374334      18260.6      
    428000   0.8653466      0.0023323615   0.0010598196   20.648113      19.363073      1.2850397     -1.1166324      18373.378    
    429000   0.90869297     0.0023323615   0.0036427233   20.579216      19.229807      1.3494091     -1.3743802      18585.107    
    430000   1.0023002      0.0023323615   0.0020211546   20.806862      19.318447      1.4884157     -1.3409959      18344.59     
    431000   0.9035362      0.0023323615   0.00084111333  20.583488      19.241737      1.3417513     -1.2798223      18413.112    
    432000   1.1252148      0.0023323615   0.0014936951   20.71741       19.046467      1.6709439     -1.4504694      18226.036    
    433000   0.96534361     0.0023323615  -0.00079885153  20.672405      19.23887       1.4335353     -1.2556889      18427.978    
    434000   1.0032108      0.0023323615  -0.00049054686  20.810291      19.320523      1.489768      -1.180261       18490.208    
    435000   1.0163412      0.0023323615  -0.0038185082   20.613513      19.104247      1.5092666     -1.5192671      18495.707    
    436000   0.87623278     0.0023323615   0.0020825605   20.423713      19.122507      1.3012057     -1.3622132      18412.256    
    437000   0.95178305     0.0023323615   0.0010336974   20.838221      19.424823      1.4133978     -1.1197184      18433.376    
    438000   1.1404899      0.0023323615   0.00032522729  20.747312      19.053685      1.6936275     -1.3107603      18454.882    
    439000   0.97393802     0.0023323615  -0.005556339    20.515361      19.069063      1.446298      -1.4229923      18398.891    
    440000   1.0065784      0.0023323615   0.0010231096   20.76964       19.274871      1.494769      -1.3959668      18493.051    
    441000   1.0538557      0.0023323615  -0.0010275505   21.055593      19.490617      1.5649758     -1.1154656      18886.494    
    442000   1.0422801      0.0023323615   0.00013528614  21.047756      19.499971      1.5477859     -1.0215128      18838.675    
    443000   1.0561856      0.0023323615  -0.0041077314   21.278307      19.709871      1.5684356     -0.99141624     18609.418    
    444000   1.0571365      0.0023323615   0.00090265615  21.015585      19.445737      1.5698477     -1.0817345      18594.736    
    445000   1.0123361      0.0023323615   0.0049540705   20.70366       19.200341      1.5033191     -1.2484065      18642.636    
    446000   0.97429886     0.0023323615   0.0020203202   20.939466      19.492633      1.4468338     -0.97551973     18526.312    
    447000   1.0292768      0.0023323615  -0.0033422912   20.815391      19.286915      1.5284761     -1.1909023      18619.092    
    448000   1.0304948      0.0023323615  -0.0021324873   20.720364      19.190079      1.5302848     -1.3040541      18631.98     
    449000   1.2211867      0.0023323615   0.0001874787   21.437733      19.624271      1.8134622     -0.84232732     18607.7      
    450000   0.93084669     0.0023323615  -0.0036302475   21.002719      19.620411      1.3823073     -0.91240823     18717.516    
    451000   1.0691065      0.0023323615  -0.0015582902   21.088252      19.500629      1.5876231     -1.0004278      18771.13     
    452000   1.0519534      0.0023323615  -0.0015538917   20.902171      19.34002       1.5621508     -1.076404       18444.661    
    453000   1.0797562      0.0023323615   0.0051220983   20.771769      19.168331      1.603438      -1.3143421      18635.006    
    454000   0.98258471     0.0023323615   0.00048856041  20.817629      19.358491      1.4591383     -1.1528591      18505.981    
    455000   0.88877454     0.0023323615   2.1419232e-05  20.589641      19.26981       1.3198302     -1.1555889      18433.968    
    456000   1.0106288      0.0023323615  -0.0011432944   20.864868      19.364084      1.5007837     -1.1485313      18642.082    
    457000   0.9488929      0.0023323615  -0.00011681231  20.887543      19.478437      1.409106      -1.0057613      18595.016    
    458000   0.99030161     0.0023323615   0.0010984558   20.989025      19.518427      1.4705979     -1.0080408      19305.852    
    459000   0.97931856     0.0023323615   0.0016807864   20.905327      19.451039      1.4542881     -1.0002114      18799.474    
    460000   0.90432517     0.0023323615  -0.00088934366  20.959969      19.617046      1.3429229     -1.0240586      18629.403    
    461000   0.91451514     0.0023323615  -0.00030820575  20.828791      19.470736      1.358055      -1.1353669      18969.319    
    462000   1.0532469      0.0023323615  -0.0012798142   21.198804      19.634732      1.5640716     -0.99752603     18725.224    
    463000   1.133511       0.0023323615   0.0015661589   20.973737      19.290473      1.6832638     -1.2072426      18656.891    
    464000   1.0383638      0.0023323615  -0.00032733229  20.787915      19.245945      1.5419702     -1.2468494      18540.411    
    465000   1.0130676      0.0023323615  -0.0016808211   20.612763      19.108358      1.5044054     -1.3962031      18379.535    
    466000   0.97580948     0.0023323615   0.0024514682   21.107774      19.658697      1.4490771     -0.86742057     18576.46     
    467000   0.94617823     0.0023323615  -0.0013002144   20.755734      19.350659      1.4050747     -1.1171072      18458.103    
    468000   0.95495882     0.0023323615   0.0013312411   20.755657      19.337543      1.4181139     -1.0357843      18532.645    
    469000   1.0320799      0.0023323615   0.0011491711   20.910539      19.3779        1.5326386     -1.022124       18611.042    
    470000   0.9789647      0.0023323615  -0.0018098803   20.640027      19.186265      1.4537626     -1.3066166      18446.427    
    471000   0.97865276     0.0023323615  -0.0017164243   20.82768       19.37438       1.4532993     -1.130155       18557.343    
    472000   1.0226482      0.0023323615   0.00049289492  20.913704      19.395072      1.5186326     -1.1444333      18608.432    
    473000   0.97288617     0.0023323615   0.00024307385  20.982097      19.537361      1.444736      -1.0863148      19102.471    
    474000   0.91126704     0.0023323615   0.0023892436   20.670819      19.317588      1.3532316     -1.3354257      18830.323    
    475000   1.0033533      0.0023323615   7.3933526e-05  20.678376      19.188396      1.4899797     -1.3251198      18554.207    
    476000   0.9443907      0.0023323615   0.0014996816   20.525862      19.123442      1.4024202     -1.3862124      18573.432    
    477000   1.0664508      0.0023323615  -0.00090508388  20.761608      19.177928      1.5836794     -1.2500162      18568.915    
    478000   1.0924065      0.0023323615  -0.00075246413  20.890849      19.268625      1.6222236     -1.2511407      18548.466    
    479000   1.0591896      0.0023323615  -0.0032545701   20.984524      19.411627      1.5728966     -1.1807597      18701.99     
    480000   1.0583706      0.0023323615   0.0016486482   20.85957       19.287889      1.5716803     -1.223343       18516.39     
    481000   0.97028848     0.0023323615  -0.00042654888  20.5569        19.116022      1.4408784     -1.3507704      18405.662    
    482000   0.91203376     0.0023323615   0.0010899278   20.537486      19.183116      1.3543701     -1.1780218      18446.458    
    483000   0.94398302     0.0023323615   0.00012489474  20.596873      19.195058      1.4018148     -1.2190954      18449.465    
    484000   0.90373348     0.0023323615  -0.00071755867  20.580001      19.237957      1.3420442     -1.3107729      18341.58     
    485000   0.8878407      0.0023323615  -0.0017605087   20.644838      19.326394      1.3184434     -1.235461       18447.024    
    486000   0.93830852     0.0023323615  -0.00038851069  20.55613       19.162742      1.3933882     -1.3358091      18444.095    
    487000   1.0445186      0.0023323615   0.0015396735   20.772093      19.220983      1.5511101     -1.280407       18436.297    
    488000   0.97109911     0.0023323615  -0.0010357496   20.674784      19.232702      1.4420822     -1.3402008      18347.972    
    489000   0.995789       0.0023323615   0.00176407     21.00714       19.528394      1.4787467     -1.0540284      18608.887    
    490000   1.1132419      0.0023323615  -0.0034028039   20.91827       19.265106      1.6531642     -1.335088       18497.513    
    491000   0.93010951     0.0023323615   0.001180259    20.806885      19.425673      1.3812126     -1.1483753      18472.646    
    492000   0.95700795     0.0023323615   0.001854894    20.709093      19.287936      1.4211568     -1.2045115      18520.393    
    493000   0.88912054     0.0023323615  -0.0018818066   20.473179      19.152835      1.320344      -1.3238026      18336.145    
    494000   0.82612838     0.0023323615  -0.0014935787   20.63274       19.405939      1.2268006     -1.13325        18385.02     
    495000   0.94266852     0.0023323615  -0.0026645824   20.604721      19.204858      1.3998628     -1.3279597      18522.805    
    496000   0.92092308     0.0023323615   0.0018292125   21.016498      19.648927      1.3675708     -0.95712722     18579.686    
    497000   1.165099       0.0023323615   0.00063661018  20.94774       19.217568      1.730172      -1.2992951      18568.466    
    498000   0.90718622     0.0023323615  -0.0017290337   20.463618      19.116446      1.3471715     -1.3994301      18552.276    
    499000   1.03017        0.0023323615  -0.0017166537   20.958549      19.428747      1.5298024     -1.0955276      18420.432    
    500000   1.0844944      0.0023323615   0.0048563048   20.947889      19.337415      1.6104741     -1.155389       18634.091    
    501000   0.88626397     0.0023323615   3.0176467e-05  20.406303      19.090201      1.316102      -1.3902428      18490.126    
    502000   0.97532636     0.0023323615   0.00046344437  20.777263      19.328903      1.4483597     -1.1266063      18444.855    
    503000   1.1931994      0.0023323615   0.001089347    20.978619      19.206718      1.7719011     -1.416931       18546.947    
    504000   1.1348249      0.0023323615  -0.00078654834  20.938512      19.253297      1.685215      -1.2060746      18502.193    
    505000   0.95192129     0.0023323615  -0.0013499881   20.890172      19.476569      1.4136031     -0.97292713     18401.994    
    506000   0.91052471     0.0023323615  -0.001601325    20.781008      19.428879      1.3521292     -1.1056983      18844.259    
    507000   0.85334548     0.0023323615  -0.00053998121  20.83446       19.567242      1.267218      -1.0004985      18916.375    
    508000   0.94832054     0.0023323615   0.0010966529   20.505103      19.096847      1.408256      -1.3400032      18539.144    
    509000   1.0324533      0.0023323615  -0.00017497954  20.990844      19.457651      1.5331931     -1.1990579      18458.53     
    510000   0.9364307      0.0023323615  -0.0010660938   20.719951      19.329351      1.3905996     -1.1690131      18691.519    
    511000   1.0131192      0.0023323615  -0.0023569946   20.929782      19.4253        1.504482      -1.1987853      18726.559    
    512000   1.0703291      0.0023323615  -0.0016707914   21.104536      19.515097      1.5894386     -1.0527617      18985.31     
    513000   0.90580966     0.0023323615   0.0013581812   20.777752      19.432625      1.3451274     -1.158866       19215.844    
    514000   0.96995951     0.0023323615  -0.0044115203   20.992676      19.552287      1.4403899     -0.98520435     18558.55     
    515000   1.111929       0.0023323615  -0.0027846525   20.998816      19.347602      1.6512145     -1.0943223      18621.983    
    516000   0.88104883     0.0023323615   0.0008500113   20.615145      19.306787      1.3083575     -1.1693237      18436.416    
    517000   1.0692361      0.0023323615  -0.0010760261   20.907573      19.319758      1.5878156     -1.1609986      18556.512    
    518000   1.029924       0.0023323615   0.0024437176   20.946355      19.416917      1.5294371     -1.1713848      19213.051    
    519000   0.95798239     0.0023323615  -0.0019098797   20.837185      19.414581      1.4226038     -1.1371334      19993.781    
    520000   0.90466446     0.0023323615   0.0046243804   20.677835      19.334408      1.3434267     -1.2181347      19201.952    
    521000   0.96517927     0.0023323615   0.00083797933  20.689543      19.256252      1.4332912     -1.3420297      18472.468    
    522000   1.0081195      0.0023323615   0.00040458503  20.7287        19.231642      1.4970575     -1.2503927      18364.054    
    523000   0.90879339     0.0023323615  -0.0014176687   20.721919      19.37236       1.3495582     -1.1555051      18554.735    
    524000   1.0352679      0.0023323615   0.00038803488  20.90476       19.367387      1.5373728     -1.2243303      18482.757    
    525000   1.0377242      0.0023323615   0.0010143427   20.958116      19.417095      1.5410205     -1.1167552      18589.728    
    526000   1.0129016      0.0023323615  -0.0010918698   20.899634      19.395475      1.5041589     -1.1231461      18972.795    
    527000   0.93880273     0.0023323615   0.0025289949   20.86644       19.472318      1.3941221     -1.0636439      18915.3      
    528000   0.94881202     0.0023323615   0.00043370126  21.050931      19.641945      1.4089859     -0.98982634     18498.692    
    529000   1.0110127      0.0023323615   0.002539103    20.746026      19.244673      1.5013538     -1.3305309      18412.769    
    530000   1.0531456      0.0023323615   0.0021345177   20.745472      19.181551      1.5639212     -1.337212       18328.734    
    531000   1.0853084      0.0023323615   0.00058040861  21.019971      19.408288      1.611683      -1.2358444      18384.704    
    532000   1.1514852      0.0023323615   0.0025669996   21.044809      19.334854      1.7099555     -1.2032477      18434.036    
    533000   0.85663459     0.0023323615   0.00062636668  20.669662      19.39756       1.2721024     -1.0634274      18522.293    
    534000   1.003431       0.0023323615   0.0011469119   20.701844      19.211749      1.490095      -1.188751       18488.639    
    535000   0.8249325      0.0023323615  -0.0046213723   20.616136      19.391111      1.2250248     -1.2039386      18444.099    
    536000   0.97567686     0.0023323615   0.00043663225  20.854321      19.405441      1.4488801     -1.1444764      18576.549    
    537000   1.0944127      0.0023323615  -0.00060246271  20.804996      19.179793      1.6252029     -1.2596114      18630.926    
    538000   0.94280104     0.0023323615   0.00030933677  20.772099      19.372039      1.4000595     -1.1948212      18844.106    
    539000   0.93255625     0.0023323615   0.00350537     20.694082      19.309236      1.384846      -1.1788745      18709.98     
    540000   0.8384075      0.0023323615  -0.0025036754   20.643372      19.398336      1.2450351     -1.0736097      19062.931    
    541000   1.0364728      0.0023323615  -0.0055951037   21.123926      19.584764      1.539162      -0.95906118     19121.401    
    542000   1.0626088      0.0023323615  -0.0015410561   20.824396      19.246422      1.577974      -1.130499       18863.33     
    543000   0.93277181     0.0023323615   0.0045640149   20.735337      19.350171      1.3851661     -1.1286683      18727.082    
    544000   0.94846419     0.0023323615  -0.003189168    20.629546      19.221077      1.4084693     -1.2588729      18664.151    
    545000   0.94366583     0.0023323615   0.00035645718  21.046991      19.645647      1.4013438     -1.006348       19076.783    
    546000   0.84390476     0.0023323615  -0.0019396397   21.011308      19.758109      1.2531986     -0.88130835     19042.306    
    547000   0.98598881     0.0023323615   0.00045628227  20.79788       19.333687      1.4641934     -1.0830574      18989.11     
    548000   0.84157133     0.0023323615  -0.0016210291   20.706936      19.457203      1.2497334     -1.110212       18809.823    
    549000   0.9157466      0.0023323615  -0.0023054384   20.585214      19.22533       1.3598837     -1.2861624      18574.928    
    550000   1.0000907      0.0023323615   0.0015101011   20.987235      19.5021        1.4851347     -1.1777963      18281.473    
    551000   1.1193756      0.0023323615  -0.0018188654   21.044886      19.382613      1.6622728     -1.1025911      18490.156    
    552000   1.0402416      0.0023323615  -0.0042629409   21.24609       19.701331      1.5447588     -0.84811544     18739.997    
    553000   0.99069445     0.0023323615  -0.002135726    20.848537      19.377356      1.4711813     -1.1422224      18716.425    
    554000   1.1463586      0.0023323615   0.00021326795  21.078858      19.376515      1.7023426     -1.1227863      18585.861    
    555000   1.0084771      0.0023323615  -0.001973953    20.714139      19.216551      1.4975885     -1.2353328      18390.853    
    556000   0.98033491     0.0023323615  -0.0045278962   20.920347      19.46455       1.4557973     -1.1911249      18368.451    
    557000   0.89464329     0.0023323615  -0.0016848295   20.389792      19.061247      1.3285453     -1.3830519      18348.363    
    558000   0.84833391     0.0023323615  -0.0034237559   20.542158      19.282382      1.2597759     -1.1793749      18385.426    
    559000   1.0574463      0.0023323615   0.0032709427   20.810983      19.240676      1.5703078     -1.2368212      18578.558    
    560000   0.85166027     0.0023323615   0.0027135948   20.537028      19.272312      1.2647155     -1.3106677      18487.666    
    561000   0.98343545     0.0023323615  -0.0013401096   20.587175      19.126774      1.4604016     -1.29953        18408.056    
    562000   1.236799       0.0023323615   0.00051210361  21.355671      19.519024      1.8366465     -1.0101891      18399.701    
    563000   1.097142       0.0023323615  -0.00030815898  20.744479      19.115223      1.6292558     -1.4021714      18378.165    
    564000   1.0231426      0.0023323615  -0.0028569814   20.649844      19.130478      1.5193668     -1.4491549      18398.884    
    565000   1.0817696      0.0023323615   0.00012188843  20.879356      19.272929      1.6064278     -1.2835269      18381.498    
    566000   1.0820274      0.0023323615  -0.0038530774   20.990052      19.383241      1.6068106     -1.2941946      18466.754    
    567000   0.93544089     0.0023323615   0.001182683    20.631188      19.242059      1.3891297     -1.2262445      18809.259    
    568000   0.96490495     0.0023323615   0.0016494843   20.766093      19.333209      1.4328839     -1.1579884      18602.821    
    569000   0.9627058      0.0023323615  -0.00115184     21.053756      19.624138      1.4296181     -0.96169494     18742.731    
    570000   0.94689309     0.0023323615   0.001140645    20.886219      19.480082      1.4061362     -1.1969339      18545.155    
    571000   1.0043123      0.0023323615   0.001956968    20.991748      19.500344      1.4914038     -1.0949974      18402.938    
    572000   1.0389146      0.0023323615  -0.00071505096  20.690318      19.14753       1.5427882     -1.3624992      18433.079    
    573000   1.0930015      0.0023323615  -0.003422606    20.637523      19.014416      1.6231072     -1.4555778      18591.165    
    574000   0.98820249     0.0023323615  -0.0042060448   20.500876      19.033395      1.4674807     -1.5330203      18608.325    
    575000   1.0797969      0.0023323615   0.0010572326   20.678811      19.075313      1.6034984     -1.3781303      18486.759    
    576000   0.87792592     0.0023323615   0.0019847736   20.612526      19.308806      1.30372       -1.1237999      18599.185    
    577000   0.96609747     0.0023323615  -0.00053980282  20.896218      19.461563      1.4346547     -1.0420249      18597.05     
    578000   1.0534116      0.0023323615  -0.00062982611  20.989514      19.425198      1.5643162     -1.1771607      18561.864    
    579000   1.0697927      0.0023323615   0.0047258353   20.695967      19.107324      1.5886422     -1.3068737      18442.422    
    580000   1.0436017      0.0023323615   0.0040792512   20.644212      19.094463      1.5497485     -1.4344148      18479.653    
    581000   0.88588181     0.0023323615  -0.0048745285   20.715611      19.400077      1.3155345     -1.1616891      18463.287    
    582000   0.97797548     0.0023323615   0.0025568464   20.680108      19.227814      1.4522936     -1.280048       18632.554    
    583000   0.97180377     0.0023323615   0.0011489181   20.788851      19.345722      1.4431286     -1.0658866      18608.741    
    584000   1.0579094      0.0023323615   0.0014468148   21.20364       19.632644      1.5709955     -0.97153068     18686.808    
    585000   1.0555557      0.0023323615  -0.0032678307   20.997467      19.429967      1.5675002     -1.155752       18779.564    
    586000   0.99008382     0.0023323615  -0.0043459701   20.819489      19.349215      1.4702745     -1.1619413      18711.835    
    587000   0.97443306     0.0023323615   0.0024378648   20.896553      19.44952       1.4470331     -0.93186196     18864.874    
    588000   0.99662409     0.0023323615   0.0016137883   21.091008      19.611021      1.4799868     -0.8832164      18924.9      
    589000   1.0207505      0.0023323615  -0.0014222766   20.9492        19.433386      1.5158145     -1.0499431      18940.102    
    590000   1.1430792      0.0023323615   0.00057383302  20.731542      19.03407       1.6974726     -1.3245547      18605.661    
    591000   1.0158936      0.0023323615  -7.9675875e-05  20.787993      19.279391      1.508602      -1.2239157      18475.265    
    592000   0.90551011     0.0023323615   0.00298731     20.887679      19.542997      1.3446825     -1.0454528      18448.568    
    593000   0.9605256      0.0023323615  -0.0012515179   20.978139      19.551758      1.4263805     -1.0266541      18552.645    
    594000   0.99510078     0.0023323615   0.001697321    20.960089      19.482364      1.4777247     -1.1393121      18448.786    
    595000   1.0577937      0.0023323615  -0.0021461743   21.003343      19.43252       1.5708236     -1.0964281      18428.38     
    596000   1.1524817      0.0023323615   0.00027082733  21.101785      19.39035       1.7114353     -1.2405048      18339.423    
    597000   0.97448526     0.0023323615   0.0054870451   20.965268      19.518157      1.4471106     -0.92564173     18794.455    
    598000   0.96688495     0.0023323615   0.0014183174   20.889034      19.45321       1.4358242     -1.1678752      18877.243    
    599000   0.84717236     0.0023323615   0.00091125365  20.670456      19.412405      1.258051      -1.1184201      18613.478    
    600000   0.95886199     0.0023323615  -0.0016113455   20.786218      19.362308      1.4239101     -1.2552152      18366.829    
    601000   1.0300929      0.0023323615   0.0014825543   20.807143      19.277455      1.5296879     -1.1413329      18570.148    
    602000   1.0015127      0.0023323615  -0.0032014779   20.970542      19.483295      1.4872463     -1.0759192      18886.452    
    603000   0.97544938     0.0023323615   0.00016662426  20.882875      19.434333      1.4485423     -1.0671416      19274.376    
    604000   1.0676782      0.0023323615   0.0015004035   20.844291      19.258789      1.5855021     -1.1577761      18769.486    
    605000   1.044455       0.0023323615  -0.0021025125   20.828647      19.277631      1.5510157     -1.3134095      18512.609    
    606000   0.8795186      0.0023323615  -0.0012256285   20.709716      19.403631      1.3060851     -1.1524064      18537.773    
    607000   0.95546849     0.0023323615   0.0011817221   20.827023      19.408152      1.4188707     -0.99439966     18719.988    
    608000   0.95835057     0.0023323615  -0.0015906967   21.043139      19.619989      1.4231506     -0.90477008     18762.288    
    609000   0.97944841     0.0023323615  -0.00087543107  20.994211      19.53973       1.4544809     -0.91964083     18661.297    
    610000   1.0033405      0.0023323615   0.00026507147  21.155006      19.665046      1.4899606     -0.88617729     18685.206    
    611000   0.96869859     0.0023323615  -0.0024623438   20.875575      19.437058      1.4385174     -1.0153397      18907.402    
    612000   0.86188443     0.0023323615   0.0024598901   20.786097      19.506199      1.2798984     -1.1023558      18932.941    
    613000   1.0297323      0.0023323615   0.0079359681   20.739411      19.210259      1.5291524     -1.2074423      18585.892    
    614000   0.99812517     0.0023323615  -0.00025605338  20.737493      19.255277      1.4822159     -1.2695278      18508.877    
    615000   0.98843455     0.0023323615  -0.0012116114   20.963363      19.495538      1.4678253     -1.0213038      18502.931    
    616000   1.0386534      0.0023323615   0.0034438873   20.984183      19.441782      1.5424003     -1.1609929      18517.444    
    617000   1.1480133      0.0023323615  -0.0031244921   21.209777      19.504977      1.7047998     -1.066545       18691.609    
    618000   1.0152415      0.0023323615  -0.0013633599   20.614097      19.106463      1.5076337     -1.4839911      18556.619    
    619000   1.0203718      0.0023323615   0.0016148523   20.326415      18.811163      1.5152521     -1.5740637      18445.387    
    620000   0.93474257     0.0023323615  -6.6332209e-05  20.430283      19.04219       1.3880927     -1.5154         18600.716    
    621000   0.9380009      0.0023323615   0.00055119937  20.764784      19.371853      1.3929313     -1.263549       18575.395    
    622000   0.97030376     0.0023323615  -0.00046638543  20.84856       19.407658      1.4409011     -1.1789392      18679.824    
    623000   0.8609686      0.0023323615   9.1635348e-05  20.679029      19.40049       1.2785384     -1.0378412      18954.049    
    624000   0.88527636     0.0023323615   0.00221651     20.856719      19.542084      1.3146354     -0.96386333     19188.754    
    625000   1.0559942      0.0023323615  -0.0017512259   21.041179      19.473027      1.5681515     -1.1049909      19397.902    
    626000   1.0195892      0.0023323615  -0.00029669212  20.95803       19.44394       1.51409       -1.2758083      19136.37     
    627000   0.96992966     0.0023323615  -0.0020614226   20.943313      19.502967      1.4403456     -1.0544408      18988.532    
    628000   0.90261305     0.0023323615  -0.00048833358  20.755536      19.415155      1.3403804     -1.0290728      18806.846    
    629000   0.83997549     0.0023323615   0.0014141862   20.700239      19.452875      1.2473636     -1.2161601      18669.734    
    630000   0.98088637     0.0023323615   0.00075083303  20.982306      19.525689      1.4566163     -1.0505871      18687.463    
    631000   1.0097937      0.0023323615  -3.5017545e-05  21.064535      19.564991      1.4995437     -0.89279944     19142.752    
    632000   1.067322       0.0023323615  -0.0010766069   21.285676      19.700703      1.5849732     -0.99421786     19463.803    
    633000   0.93554288     0.0023323615  -0.0022415627   20.952317      19.563035      1.3892812     -0.9677053      19808.115    
    634000   1.0242         0.0023323615  -0.0021944067   20.861641      19.340704      1.520937      -1.0322243      21040.557    
    635000   1.0219105      0.0023323615   0.0010790124   21.03587       19.518332      1.5175371     -1.0041241      20848.498    
    636000   1.0278897      0.0023323615   0.0014487935   20.930207      19.40379       1.5264162     -1.1820946      19029.477    
    637000   0.98804842     0.0023323615   0.0037069653   21.294754      19.827502      1.4672519     -0.93285808     18974.746    
    638000   1.0894575      0.0023323615   6.0978627e-05  20.922351      19.304506      1.6178444     -1.2495737      19069.654    
    639000   1.0559357      0.0023323615   6.2878029e-05  21.105829      19.537764      1.5680646     -0.92940331     19109.23     
    640000   0.96246676     0.0023323615   0.0017669344   20.705956      19.276693      1.4292631     -1.1136957      19839.94     
    641000   1.1488148      0.0023323615  -0.0018243021   21.419467      19.713477      1.70599       -0.88490288     19814.434    
    642000   0.92907299     0.0023323615  -0.0008072868   20.995621      19.615948      1.3796734     -0.9730862      19236.175    
    643000   1.0756541      0.0023323615   0.00018161487  21.020422      19.423076      1.5973464     -1.1286736      18713.196    
    644000   0.98297746     0.0023323615   0.0018440774   20.904653      19.444931      1.4597215     -1.0494475      18724.275    
    645000   0.92115331     0.0023323615  -0.0021617109   20.885938      19.518025      1.3679127     -0.99552567     18852.313    
    646000   0.92446933     0.0023323615  -0.0016502456   20.845306      19.472469      1.372837      -1.1962074      18643.092    
    647000   1.1561139      0.0023323615   0.006369951    21.082238      19.365409      1.7168291     -1.3248569      18600.512    
    648000   0.9920695      0.0023323615   0.0025599909   20.74216       19.268937      1.4732232     -1.2803505      18613.304    
    649000   1.2743117      0.0023323615  -0.0010503319   21.316063      19.42371       1.8923529     -1.1335767      18560.538    
    650000   1.0273019      0.0023323615   1.7211862e-05  20.722943      19.1974        1.5255433     -1.2959313      18649.17     
    651000   1.1075718      0.0023323615   0.0027592457   21.07325       19.428506      1.6447441     -1.2152839      18632.404    
    652000   0.95997749     0.0023323615  -0.00022716913  21.0903        19.664734      1.4255666     -0.91850429     18592.651    
    653000   1.0014502      0.0023323615  -0.0021304405   20.937221      19.450068      1.4871535     -1.0434423      18844.522    
    654000   1.0507329      0.0023323615   0.0020342335   20.954047      19.393709      1.5603384     -1.0215256      18920.681    
    655000   0.97146648     0.0023323615   0.00073223781  20.744872      19.302245      1.4426277     -1.1556182      18863.914    
    656000   1.0567103      0.0023323615  -0.0015697301   21.077046      19.507831      1.5692149     -1.0478624      18887.667    
    657000   1.1101318      0.0023323615  -0.001945858    20.805574      19.157028      1.6485457     -1.3501585      18688.141    
    658000   1.024437       0.0023323615  -0.00056640352  20.770215      19.248926      1.5212889     -1.1239175      18554.093    
    659000   1.114018       0.0023323615  -0.0010834118   20.900044      19.245727      1.6543167     -1.2822066      18488.965    
    660000   1.0786617      0.0023323615   0.0027286806   20.841727      19.239914      1.6018127     -1.3353615      18562.886    
    661000   0.92185066     0.0023323615  -0.0033178574   20.902775      19.533827      1.3689482     -1.2340144      18355.416    
    662000   1.0598298      0.0023323615   0.0044106217   20.857278      19.28343       1.5738473     -1.3494434      18333.218    
    663000   1.0369545      0.0023323615  -0.00015945777  20.789899      19.250021      1.5398774     -1.2635955      18257.871    
    664000   1.154397       0.0023323615   0.0049819002   20.95801       19.24373       1.7142795     -1.2125123      18259.114    
    665000   1.1035023      0.0023323615   0.002329039    20.993387      19.354686      1.6387008     -1.2053266      18413.71     
    666000   0.92044781     0.0023323615  -0.0015429257   21.078396      19.711531      1.366865      -0.81042553     18711.572    
    667000   1.0195289      0.0023323615   0.0017425449   20.766065      19.252065      1.5140004     -1.2348195      19159.666    
    668000   1.0644245      0.0023323615   0.00019409767  21.127754      19.547083      1.5806705     -1.0094173      19017.779    
    669000   1.0264269      0.0023323615  -0.0020506987   20.882001      19.357757      1.5242439     -1.0088116      19224.808    
    670000   0.94863288     0.0023323615  -0.00072335636  20.758666      19.349946      1.4087198     -1.1159262      18849.259    
    671000   0.87190498     0.0023323615  -0.0013865983   20.803582      19.508803      1.2947789     -1.0359696      18621.927    
    672000   1.0450252      0.0023323615   0.0018498493   20.99264       19.440778      1.5518625     -1.0783853      18732.298    
    673000   1.2486421      0.0023323615  -2.2004741e-05  21.321368      19.467134      1.8542336     -1.072213       18612.221    
    674000   1.0484478      0.0023323615  -0.0027524778   20.977138      19.420193      1.556945      -1.1160181      18522.506    
    675000   1.0763463      0.0023323615  -0.0030605794   20.936336      19.337962      1.5983742     -1.1623652      18636.343    
    676000   0.937566       0.0023323615  -0.003452422    20.786111      19.393825      1.3922855     -1.1325557      18695.877    
    677000   0.965808       0.0023323615   0.0011589696   20.851143      19.416918      1.4342249     -1.0557014      18560.618    
    678000   0.94660806     0.0023323615  -0.0014706215   20.663019      19.257306      1.405713      -1.0886679      18696.256    
    679000   1.0004883      0.0023323615   0.0020048553   21.028296      19.542571      1.4857251     -0.95419749     18632.397    
    680000   0.86604674     0.0023323615  -0.0043991819   20.807466      19.521386      1.2860794     -0.96353964     18606.24     
    681000   1.098334       0.0023323615   0.0075107315   20.991645      19.360619      1.6310261     -1.041019       18801.04     
    682000   1.0289632      0.0023323615   0.0015322462   20.832363      19.304352      1.5280103     -1.1086689      18768.321    
    683000   1.1231635      0.0023323615   0.0036356321   21.004156      19.336258      1.6678978     -1.1081472      18575.937    
    684000   0.85077269     0.0023323615  -0.0028141004   20.485539      19.222141      1.2633974     -1.3492443      18453.22     
    685000   0.98758088     0.0023323615  -0.0026495859   20.839169      19.372611      1.4665576     -1.0826379      18374.917    
    686000   1.0645556      0.0023323615   0.00054170532  20.726066      19.145201      1.580865      -1.249016       18440.994    
    687000   0.97870978     0.0023323615   0.00070943715  20.756953      19.303569      1.453384      -1.2299169      18552.176    
    688000   0.99389544     0.0023323615  -0.003446282    20.916163      19.440228      1.4759347     -1.0936756      18636.436    
    689000   0.92364047     0.0023323615  -0.0039804786   20.546384      19.174778      1.3716061     -1.3019722      18374.328    
    690000   0.96741038     0.0023323615  -0.00020097391  20.522333      19.085729      1.4366044     -1.4150885      18489.283    
    691000   1.0085927      0.0023323615  -0.0017069952   20.948647      19.450887      1.4977601     -1.0418511      18556.032    
    692000   0.91123892     0.0023323615  -0.0044132951   20.945529      19.59234       1.3531898     -1.0652598      18660.369    
    693000   0.99167491     0.0023323615   0.0022041849   20.910181      19.437544      1.4726372     -1.0413461      18569.972    
    694000   0.99267699     0.0023323615  -0.0011343958   20.545893      19.071768      1.4741253     -1.4105224      18598.024    
    695000   1.1531088      0.0023323615  -0.00064733228  20.820857      19.108491      1.7123666     -1.3557395      18269.273    
    696000   1.0256049      0.0023323615   0.00091835418  20.953255      19.430232      1.5230233     -1.24363        18324.289    
    697000   0.97808684     0.0023323615   0.0013304839   20.483474      19.031015      1.452459      -1.4868785      18369.567    
    698000   1.0630979      0.0023323615   0.0014259853   20.861242      19.282542      1.5787003     -1.2947841      18389.033    
    699000   1.1215215      0.0023323615   0.0045929609   20.937904      19.272445      1.6654594     -1.3225265      18394.405    
    700000   0.97749726     0.0023323615  -0.0023264969   20.824584      19.373001      1.4515834     -1.1660583      18430.744    
    701000   0.89885508     0.0023323615   0.0019468241   20.507821      19.173022      1.3347998     -1.202384       18375.982    
    702000   0.96402035     0.0023323615  -0.0019819788   20.585242      19.153672      1.4315702     -1.3472115      18706.624    
    703000   1.0724047      0.0023323615   0.00053504853  20.762453      19.169932      1.592521      -1.3063803      18691.939    
    704000   1.1007267      0.0023323615  -0.00081886368  21.036243      19.401663      1.6345792     -1.2205787      18430.986    
    705000   1.0669191      0.0023323615   0.00049687746  21.110631      19.526256      1.5843749     -1.1094683      18527.791    
    706000   1.0467192      0.0023323615  -0.0025372796   20.593341      19.038963      1.554378      -1.4152047      18466.149    
    707000   0.90531912     0.0023323615  -0.0013441421   20.730146      19.385747      1.3443989     -1.1744547      18449.704    
    708000   0.91832118     0.0023323615  -0.0014552905   20.412419      19.048712      1.363707      -1.4244657      18421.503    
    709000   0.93387162     0.0023323615   0.0021926001   20.642855      19.256055      1.3867994     -1.4556812      18305.103    
    710000   0.92877281     0.0023323615  -0.0037548454   20.577728      19.1985        1.3792276     -1.2295225      18504.523    
    711000   1.0282608      0.0023323615  -0.001070256    20.990504      19.463536      1.5269673     -1.0939979      18524.545    
    712000   0.97611174     0.0023323615   0.0030501662   20.704888      19.255362      1.4495259     -1.1789548      18725.614    
    713000   1.0974242      0.0023323615   0.00019368096  20.982985      19.35331       1.629675      -1.2072455      18682.01     
    714000   1.0829555      0.0023323615  -0.0011101957   21.219592      19.611403      1.6081889     -0.96062081     18786.015    
    715000   0.99863749     0.0023323615   0.00037165468  20.683404      19.200427      1.4829767     -1.2200997      18701.601    
    716000   1.0848196      0.0023323615   0.00090730958  21.065424      19.454467      1.6109571     -1.105589       18545.761    
    717000   1.1183681      0.0023323615   0.0010557197   20.907537      19.246761      1.6607766     -1.3077867      18508.695    
    718000   1.0631574      0.0023323615   0.0026529641   20.851743      19.272954      1.5787888     -1.2246918      18618.464    
    719000   0.90680524     0.0023323615   0.0018637341   20.781536      19.43493       1.3466058     -0.93992138     18785.17     
    720000   0.99031837     0.0023323615   0.0024240859   20.541783      19.07116       1.4706228     -1.3634928      18626.184    
    721000   1.0563011      0.0023323615   0.0025612277   20.989044      19.420437      1.5686071     -1.1495064      18512.653    
    722000   0.98454344     0.0023323615   0.00078531684  20.800302      19.338255      1.462047      -1.1818316      18680.003    
    723000   0.94355061     0.0023323615   0.0019809664   20.741368      19.340196      1.4011726     -1.1076594      18781.554    
    724000   0.95230259     0.0023323615  -0.0032920694   20.767697      19.353528      1.4141693     -1.1562796      18764.153    
    725000   0.74496743     0.0023323615  -0.0017247183   20.64589       19.539613      1.1062766     -1.1299411      18597.009    
    726000   0.97734598     0.0023323615   0.0017353801   21.053276      19.601917      1.4513588     -1.0319816      18632.108    
    727000   0.84378771     0.0023323615   0.00041059849  20.539029      19.286004      1.2530247     -1.1918068      18658.995    
    728000   1.0242116      0.0023323615   0.00039589171  21.02933       19.508376      1.5209542     -1.2690308      18551.104    
    729000   0.95631249     0.0023323615   0.00077230993  20.696126      19.276002      1.420124      -1.2188107      18441.986    
    730000   1.107015       0.0023323615  -0.0010148192   20.841412      19.197495      1.6439173     -1.2746086      18744.572    
    731000   0.9515588      0.0023323615  -0.0046114227   20.770894      19.357829      1.4130648     -1.1425049      18657.537    
    732000   1.0308646      0.0023323615  -0.00050542818  20.693452      19.162618      1.530834      -1.380004       18724.77     
    733000   0.99704955     0.0023323615   0.0049916909   20.773826      19.293208      1.4806186     -1.1785738      18723.222    
    734000   0.99145598     0.0023323615  -0.0022573164   20.590049      19.117737      1.4723121     -1.3925789      18603.209    
    735000   1.034755       0.0023323615   0.0018702863   20.789103      19.252492      1.5366112     -1.1095061      18496.139    
    736000   0.93904908     0.0023323615  -0.0029333166   20.865516      19.471028      1.3944879     -1.0489489      18471.678    
    737000   1.0305449      0.0023323615  -0.0019779608   20.740378      19.210019      1.5303591     -1.2283558      18493.544    
    738000   0.7858085      0.0023323615  -0.0040702346   20.477388      19.310462      1.1669256     -1.1290159      18744.251    
    739000   0.98329092     0.0023323615   0.0049626509   20.497075      19.036888      1.460187      -1.3986721      19117.681    
    740000   1.073242       0.0023323615   0.00087924179  20.966815      19.373051      1.5937644     -1.150973       19523.782    
    741000   0.93623483     0.0023323615   0.0018491312   20.525106      19.134797      1.3903087     -1.2098964      19217.002    
    742000   1.0321099      0.0023323615  -0.0014293125   21.039031      19.506347      1.5326832     -0.93882161     19016.218    
    743000   0.8799249      0.0023323615  -0.0010133991   20.656053      19.349364      1.3066885     -1.1188971      18905.075    
    744000   0.94362772     0.0023323615   0.00057912682  20.306572      18.905285      1.4012872     -1.4071103      18614.558    
    745000   1.0982106      0.0023323615   0.00038618696  20.674081      19.043239      1.6308427     -1.4548827      18574.814    
    746000   1.0664512      0.0023323615  -0.0016520934   20.854749      19.271069      1.58368       -1.2789262      18646.777    
    747000   1.0078697      0.0023323615  -0.0028433654   20.727568      19.230881      1.4966865     -1.3106868      18525.256    
    748000   0.96072031     0.0023323615   0.001048069    20.372372      18.945702      1.4266697     -1.5103102      18500.548    
    749000   0.94681474     0.0023323615   0.003344834    20.634897      19.228877      1.4060199     -1.382306       18481.501    
    750000   0.9339994      0.0023323615  -0.00077872491  20.550711      19.163722      1.3869891     -1.5555419      18575.17     
    751000   1.1484473      0.0023323615   0.0002613401   20.968128      19.262684      1.7054443     -1.4101996      18739.599    
    752000   0.98337252     0.0023323615  -0.0016408368   20.647395      19.187087      1.4603082     -1.3810403      18694.351    
    753000   1.0204498      0.0023323615   0.0011373793   20.804541      19.289173      1.515368      -1.255165       18516.953    
    754000   0.97812806     0.0023323615  -0.0030095679   20.787504      19.334984      1.4525202     -1.2180749      18611.5      
    755000   0.8506306      0.0023323615   0.0019154803   20.754453      19.491267      1.2631864     -1.0357082      18697.45     
    756000   0.91835954     0.0023323615  -0.001752311    20.518158      19.154395      1.3637639     -1.1983434      18956.555    
    757000   0.95956147     0.0023323615  -0.00085571011  20.893932      19.468983      1.4249488     -1.1560569      18718.762    
    758000   1.1590344      0.0023323615  -0.0010068209   20.841762      19.120596      1.7211661     -1.413847       18652.265    
    759000   1.1275757      0.0023323615   0.0019647549   21.041632      19.367182      1.6744498     -1.1472225      18718.833    
    760000   1.0814383      0.0023323615  -0.0013113714   20.92893       19.322994      1.6059359     -1.245933       18703.84     
    761000   1.0733893      0.0023323615  -0.00087430897  20.865037      19.271053      1.5939831     -1.3087747      18813.726    
    762000   1.033663       0.0023323615  -0.0003449536   20.88738       19.35239       1.5349896     -1.2156281      19072.044    
    763000   1.0431235      0.0023323615   0.0045152302   20.66532       19.116281      1.5490384     -1.362015       18537.525    
    764000   1.188688       0.0023323615   0.00018129672  21.011209      19.246007      1.7652017     -1.246248       18538.269    
    765000   1.0593487      0.0023323615   0.0035316978   20.815063      19.24193       1.5731329     -1.3455485      18622.295    
    766000   1.0452886      0.0023323615  -0.0017674503   20.972722      19.420468      1.5522536     -1.132834       18697.39     
    767000   0.98932547     0.0023323615  -0.0029374051   20.698495      19.229347      1.4691483     -1.2745499      18607.017    
    768000   1.0469048      0.0023323615   0.0015682062   21.000428      19.445774      1.5546537     -1.0608782      18838.223    
    769000   1.0784181      0.0023323615  -0.0011812193   20.97963       19.378179      1.6014509     -1.2183826      18691.952    
    770000   1.0994923      0.0023323615  -0.0031446616   20.89219       19.259444      1.632746      -1.2886262      18599.864    
    771000   1.0743124      0.0023323615  -0.0033932365   21.07683       19.481476      1.5953539     -1.0079223      18618.822    
    772000   1.0864888      0.0023323615  -0.0018470227   20.967196      19.353761      1.6134359     -1.2015226      18583.979    
    773000   1.1693981      0.0023323615   0.0011203619   20.985689      19.249133      1.7365561     -1.2255233      18609.917    
    774000   1.0291336      0.0023323615   0.0036727281   21.131883      19.60362       1.5282634     -0.94857316     18738.857    
    775000   0.91162005     0.0023323615  -0.00015382391  20.731423      19.377667      1.3537558     -1.159678       18840.464    
    776000   0.91869079     0.0023323615   0.00090091198  20.57117       19.206914      1.3642558     -1.2565031      18687.095    
    777000   0.92316414     0.0023323615  -0.00078997789  20.505532      19.134633      1.3708987     -1.4146358      18545.878    
    778000   1.0294905      0.0023323615   0.0039899725   21.048195      19.519401      1.5287933     -1.0748922      18569.14     
    779000   1.1437347      0.0023323615   0.00098452984  21.083644      19.385198      1.698446      -1.1233628      19035.468    
    780000   1.0641712      0.0023323615  -0.0013941159   21.167312      19.587017      1.5802942     -0.93471891     18807.505    
    781000   1.1065347      0.0023323615  -0.0010171796   21.030827      19.387623      1.643204      -1.1071733      18693.02     
    782000   1.0558988      0.0023323615   0.0025040277   21.103517      19.535507      1.5680097     -0.93981986     18774.114    
    783000   1.0272466      0.0023323615   0.0049909441   20.918298      19.392837      1.5254612     -1.0870583      18831.673    
    784000   0.98944134     0.0023323615   0.00050285664  21.170995      19.701675      1.4693204     -0.91277464     19089.348    
    785000   1.1954381      0.0023323615  -0.00080032322  21.001531      19.226305      1.7752255     -1.2558638      18888.063    
    786000   0.97976044     0.0023323615  -0.0040771459   20.987371      19.532427      1.4549443     -1.0719826      18823.192    
    787000   0.96105651     0.0023323615  -0.00022040507  20.958932      19.531763      1.4271689     -1.097017       18814.503    
    788000   1.2648471      0.0023323615   0.0029991      21.511299      19.633001      1.878298      -0.86779753     18888.664    
    789000   0.98849791     0.0023323615   0.00039542182  21.096765      19.628846      1.4679194     -0.83779392     19162.797    
    790000   0.97709638     0.0023323615   0.0036675654   20.748088      19.297099      1.4509881     -1.1446909      18774.785    
    791000   1.0329723      0.0023323615  -0.0037848164   20.918815      19.384851      1.5339639     -1.1976137      18660.058    
    792000   0.91954669     0.0023323615  -0.0021167881   20.847875      19.482348      1.3655268     -1.0698241      18626.681    
    793000   1.0034635      0.0023323615  -0.0006353403   20.89737       19.407226      1.4901433     -1.0715579      18638.994    
    794000   1.0393451      0.0023323615   0.0036156491   20.983377      19.43995       1.5434275     -1.0378089      18613.534    
    795000   1.0983981      0.0023323615  -0.0024515099   20.826832      19.195711      1.6311212     -1.301927       18481.73     
    796000   0.97839579     0.0023323615   0.00091178536  20.813852      19.360934      1.4529177     -1.1637824      18608.009    
    797000   1.0208419      0.0023323615   0.0038703296   20.766806      19.250856      1.5159502     -1.1563384      18692.996    
    798000   0.93403165     0.0023323615   0.0029630436   20.782626      19.395589      1.387037      -1.1870251      18720.03     
    799000   1.0340901      0.0023323615   0.0042191035   20.815708      19.280084      1.5356237     -1.2319044      18578.074    
    800000   0.90842399     0.0023323615  -0.0014044087   20.672289      19.323279      1.3490096     -1.2067669      18579.378    
    801000   0.94654325     0.0023323615  -0.00098124619  20.501849      19.096233      1.4056167     -1.3266537      18653.753    
    802000   0.98043498     0.0023323615   0.0031892434   20.593495      19.13755       1.4559459     -1.4492956      18640.954    
    803000   1.052166       0.0023323615   0.001638799    20.881196      19.318729      1.5624666     -1.1760054      18606.677    
    804000   1.0393027      0.0023323615   0.0027786561   20.812348      19.268984      1.5433645     -1.4368389      18553.203    
    805000   0.93125166     0.0023323615  -0.0021009988   20.507669      19.12476       1.3829087     -1.3509088      18641.686    
    806000   0.91172947     0.0023323615  -0.00091181279  20.767866      19.413948      1.3539183     -1.0895348      18595.418    
    807000   1.0548206      0.0023323615   0.00088290493  21.072419      19.50601       1.5664087     -1.0724265      18690.629    
    808000   1.0625017      0.0023323615  -1.1022521e-05  20.908321      19.330506      1.577815      -1.1927287      18701.401    
    809000   0.86630095     0.0023323615  -0.0017955987   20.698823      19.412366      1.2864569     -1.1876345      18699.272    
    810000   0.86563043     0.0023323615   0.0037343499   20.671381      19.38592       1.2854612     -1.165068       18692.936    
    811000   1.0536378      0.0023323615   0.001911391    20.907578      19.342926      1.5646522     -1.1335473      18900.621    
    812000   0.98682553     0.0023323615   8.9162823e-05  20.998668      19.533232      1.4654359     -1.1934369      18971.233    
    813000   0.82043715     0.0023323615  -0.0017348288   20.511757      19.293408      1.2183492     -1.1345526      18556.277    
    814000   1.1134381      0.0023323615   0.0011400429   21.113209      19.459753      1.6534556     -1.1470323      18577.569    
    815000   1.1863259      0.0023323615  -0.00027478715  20.981708      19.220014      1.7616939     -1.2298737      18547.56     
    816000   1.0818467      0.0023323615   0.0029209431   21.169282      19.56274       1.6065424     -1.0409135      18591.532    
    817000   0.97323942     0.0023323615  -0.00067619891  20.899228      19.453967      1.4452605     -1.128685       18725.642    
    818000   0.98606576     0.0023323615  -0.00070901522  20.937863      19.473555      1.4643077     -1.0678802      18679.153    
    819000   1.1655626      0.0023323615   0.0017955422   21.057296      19.326435      1.7308604     -1.1517302      18594.916    
    820000   1.0754218      0.0023323615  -0.0023758096   21.134004      19.537003      1.5970014     -0.91812552     18619.214    
    821000   1.1251034      0.0023323615  -0.00077292828  20.972747      19.301968      1.6707785     -1.1698374      18783.819    
    822000   0.86651041     0.0023323615   0.0026110342   20.475989      19.189221      1.286768      -1.2961507      18549.618    
    823000   0.96495005     0.0023323615   0.00066510583  20.839601      19.40665       1.4329508     -1.1421977      18431.694    
    824000   1.0591967      0.0023323615  -0.0051723291   20.479916      18.907008      1.5729071     -1.4929681      18422.665    
    825000   0.79910371     0.0023323615   0.00182722     20.518795      19.332126      1.186669      -1.1319889      18640.724    
    826000   1.0545923      0.0023323615  -0.00072576961  21.113847      19.547777      1.5660696     -1.1478296      18912.622    
    827000   0.87733868     0.0023323615   0.00036500838  20.678613      19.375765      1.3028479     -1.1267233      18983.555    
    828000   0.97310951     0.0023323615   0.0043160528   20.848066      19.402998      1.4450676     -1.1074641      18676.969    
    829000   0.97570989     0.0023323615  -0.0034205315   21.018119      19.56919       1.4489292     -1.1366101      18710.762    
    830000   1.0467247      0.0023323615   0.0045516938   21.101797      19.547411      1.5543861     -1.0412416      18774.262    
    831000   1.015887       0.0023323615  -0.0036745133   21.086135      19.577543      1.5085922     -0.98492654     18633.883    
    832000   0.87169527     0.0023323615   0.00098187781  20.708194      19.413726      1.2944675     -1.1426519      18703.77     
    833000   1.0498081      0.0023323615   0.0020268964   20.796387      19.237422      1.558965      -1.2277323      18838.49     
    834000   0.99526633     0.0023323615   0.0047633237   20.975537      19.497567      1.4779705     -1.097264       19019.881    
    835000   0.91418431     0.0023323615   0.0012541494   20.792767      19.435203      1.3575637     -1.1621851      18817.163    
    836000   0.95586728     0.0023323615  -0.00086876041  20.86756       19.448097      1.4194629     -1.0589711      18642.775    
    837000   0.96407934     0.0023323615  -0.0012244084   20.944104      19.512447      1.4316578     -0.89766452     18887.595    
    838000   0.98039763     0.0023323615   0.00021109793  20.972933      19.517043      1.4558905     -1.0691071      19071.549    
    839000   1.0320259      0.0023323615  -0.0023032771   21.165741      19.633182      1.5325585     -0.92511732     19639.775    
    840000   1.0419967      0.0023323615  -7.4565144e-05  20.929494      19.382129      1.547365      -1.1695549      19478.438    
    841000   0.8923556      0.0023323615  -0.00022649478  20.797192      19.472044      1.3251481     -1.1368356      18890.376    
    842000   0.84631066     0.0023323615  -5.8194675e-05  20.837926      19.581154      1.2567713     -1.0160177      18756.09     
    843000   0.97677245     0.0023323615  -4.2883249e-05  20.814763      19.364256      1.4505071     -1.0471388      18674.641    
    844000   1.0980069      0.0023323615  -0.00022055462  21.200476      19.569936      1.6305403     -0.87950946     18788.494    
    845000   0.99650941     0.0023323615  -0.0046153637   20.811449      19.331632      1.4798165     -1.1434047      18645.143    
    846000   1.0282036      0.0023323615   0.0013343911   20.740517      19.213634      1.5268823     -1.2536741      18547.636    
    847000   0.914418       0.0023323615  -0.0020609774   20.758574      19.400663      1.3579107     -1.1241404      18434.305    
    848000   0.9991343      0.0023323615   0.0050948802   20.660641      19.176926      1.4837144     -1.2530578      18563.518    
    849000   0.98856246     0.0023323615   0.00092334928  20.695644      19.227628      1.4680153     -1.2301431      18498.309    
    850000   1.158458       0.0023323615   0.0028368854   21.12732       19.40701       1.7203101     -1.1403843      18575.899    
    851000   0.93159861     0.0023323615   0.0027118349   20.723571      19.340147      1.3834239     -1.2397349      18666.448    
    852000   1.0396916      0.0023323615  -0.0008019442   20.871432      19.32749       1.543942      -1.2063376      18624.759    
    853000   1.0629049      0.0023323615   0.0021651123   20.7024        19.123987      1.5784137     -1.3268577      18670.68     
    854000   1.067558       0.0023323615  -0.0055890327   21.032713      19.44739       1.5853236     -1.0950655      18706.031    
    855000   1.0713889      0.0023323615   0.00073927248  20.853883      19.26287       1.5910125     -1.28109        18717.674    
    856000   1.0469907      0.0023323615  -8.3766032e-05  21.059637      19.504856      1.5547811     -1.0566581      18591.722    
    857000   1.0707354      0.0023323615  -0.0026693823   20.976933      19.386891      1.590042      -1.1595573      18560.138    
    858000   0.85941856     0.0023323615  -0.0039031823   20.755223      19.478986      1.2762366     -1.1006339      18858.29     
    859000   0.98858923     0.0023323615   0.0002016278   20.683644      19.215589      1.468055      -1.2722353      18771.286    
    860000   0.97175531     0.0023323615   0.0033104449   20.722055      19.278998      1.4430566     -1.1704517      18619.336    
    861000   0.97204636     0.0023323615   0.001114049    20.901889      19.4584        1.4434888     -1.1330638      18798.2      
    862000   1.0500968      0.0023323615   0.0015594316   20.72678       19.167386      1.5593937     -1.3197189      19401.684    
    863000   0.96669492     0.0023323615   0.0031228145   20.745817      19.310275      1.435542      -1.2902882      18998.182    
    864000   0.82786725     0.0023323615  -0.0015716707   20.582901      19.353518      1.2293829     -1.1996045      18642.243    
    865000   1.1224196      0.0023323615   0.00078007792  20.913558      19.246765      1.6667931     -1.1373106      18683.464    
    866000   0.95354952     0.0023323615   0.0024984483   20.837327      19.421306      1.416021      -1.2685067      18490.208    
    867000   0.982083       0.0023323615  -0.0018758292   20.738594      19.280201      1.4583932     -1.2535182      18530.233    
    868000   0.90593029     0.0023323615  -0.0025934259   20.711115      19.365808      1.3453065     -1.1839831      18733.999    
    869000   1.1503857      0.0023323615   0.0028225929   21.018661      19.310338      1.7083228     -1.2246695      18655.166    
    870000   0.96187353     0.0023323615  -0.0042954234   20.806339      19.377956      1.4283822     -1.2168474      18677.807    
    871000   0.89554792     0.0023323615   0.0035574717   20.512594      19.182705      1.3298887     -1.3551578      18566.781    
    872000   1.1016091      0.0023323615  -0.0019300176   21.019631      19.383741      1.6358895     -1.144843       18322.338    
    873000   0.9604843      0.0023323615  -0.0025955261   20.834584      19.408265      1.4263192     -1.1502908      18495.974    
    874000   0.99858499     0.0023323615   0.00095428545  20.537036      19.054137      1.4828987     -1.4088305      18574.437    
    875000   1.0075801      0.0023323615  -0.0010709205   21.053463      19.557206      1.4962565     -1.0500142      18553.328    
    876000   0.93916557     0.0023323615  -0.0022272277   20.760695      19.366034      1.3946609     -1.1642122      18709.944    
    877000   1.0730514      0.0023323615   0.0012321624   21.026346      19.432865      1.5934813     -1.1344025      19030.405    
    878000   0.96906955     0.0023323615  -0.0048838569   21.024309      19.585241      1.4390683     -0.9845225      19099.861    
    879000   1.0472615      0.0023323615   0.00045201921  20.85689       19.301707      1.5551833     -1.1847826      18912.741    
    880000   0.95899004     0.0023323615   0.00088946037  20.843663      19.419562      1.4241002     -1.1435836      18753.035    
    881000   1.0160861      0.0023323615  -0.0026803508   20.81124       19.302352      1.5088878     -1.2278086      18641.41     
    882000   1.0451975      0.0023323615  -0.00060061066  20.874105      19.321987      1.5521183     -1.3276105      18606.715    
    883000   1.0317076      0.0023323615   4.48485e-05    20.797708      19.265623      1.5320858     -1.2763903      18547.563    
    884000   0.92058242     0.0023323615   0.00075031358  21.001573      19.634508      1.3670649     -0.96237893     18704.867    
    885000   1.0112042      0.0023323615   0.00055682185  20.673752      19.172114      1.5016382     -1.3183369      18754.821    
    886000   0.87838785     0.0023323615  -0.0027308692   20.501671      19.197265      1.304406      -1.2443008      18645.651    
    887000   0.95135078     0.0023323615   3.5720468e-05  20.678969      19.266213      1.4127559     -1.1923398      18692.698    
    888000   0.91341292     0.0023323615  -0.0064902787   20.997037      19.640619      1.3564182     -0.96410824     18914.959    
    889000   0.89933657     0.0023323615  -0.0021146515   20.769636      19.434121      1.3355148     -1.0328826      19086.424    
    890000   0.96465155     0.0023323615   0.0012211045   20.618988      19.18648       1.4325076     -1.3105865      18735.027    
    891000   1.0732217      0.0023323615  -2.7310833e-05  20.807912      19.214177      1.5937342     -1.2390746      18507.923    
    892000   0.99906451     0.0023323615  -0.0024172865   21.164629      19.681018      1.4836108     -0.88023052     18915.507    
    893000   1.0551356      0.0023323615  -0.00068180178  21.192149      19.625272      1.5668764     -0.92489865     18980.35     
    894000   0.91119952     0.0023323615   0.00016299025  20.418161      19.06503       1.3531313     -1.4140124      18690.087    
    895000   1.0317669      0.0023323615   0.0035046936   20.790801      19.258627      1.5321739     -1.3100168      18475.826    
    896000   0.93094956     0.0023323615  -0.0021035948   20.583213      19.200753      1.3824601     -1.3047091      18520.492    
    897000   1.081615       0.0023323615   0.00055981234  21.014146      19.407948      1.6061983     -1.1377634      18643.778    
    898000   1.1445318      0.0023323615  -0.0015769521   20.883378      19.183748      1.6996297     -1.3284754      18580.976    
    899000   1.0305474      0.0023323615   0.0062044084   21.046613      19.51625       1.5303629     -1.0004523      18689.453    
    900000   0.93744123     0.0023323615  -0.0022952424   20.69253       19.30043       1.3921002     -1.2194254      18637.943    
    901000   0.94012532     0.0023323615   0.0014159799   20.71779       19.321704      1.3960861     -1.1346058      18650.077    
    902000   1.1094143      0.0023323615   0.00016045607  21.167101      19.519621      1.6474802     -1.0256233      18614.519    
    903000   0.98564777     0.0023323615  -5.1325663e-05  20.971824      19.508137      1.4636869     -1.1142892      18635.914    
    904000   1.1220153      0.0023323615   0.0013786795   20.986913      19.32072       1.6661927     -1.2768179      18543.497    
    905000   1.0903445      0.0023323615  -0.00061093988  20.658637      19.039475      1.6191616     -1.4211773      18467.649    
    906000   1.113253       0.0023323615  -0.0042391015   20.817784      19.164603      1.6531807     -1.3976416      18400.003    
    907000   1.1080501      0.0023323615   0.00087429032  21.040824      19.395369      1.6454544     -1.1614365      18400.943    
    908000   1.0996963      0.0023323615   0.0040509182   20.977667      19.344618      1.633049      -1.1041346      18474.109    
    909000   1.0308909      0.0023323615  -0.0036004199   20.974466      19.443593      1.530873      -1.0213142      18789.311    
    910000   0.91338717     0.0023323615  -0.0029470955   21.090721      19.734341      1.3563799     -0.95789576     18867.983    
    911000   1.0661767      0.0023323615   0.0030605952   21.00656       19.423288      1.5832724     -1.037314       18897.984    
    912000   1.2740457      0.0023323615  -0.0025496701   21.229978      19.33802       1.8919579     -1.2017449      18451.511    
    913000   1.0657552      0.0023323615   0.00021985315  21.028899      19.446253      1.5826464     -1.1083727      18417.791    
    914000   0.98062836     0.0023323615  -0.0028919938   20.772079      19.315846      1.4562331     -1.1318343      18651.46     
    915000   0.93275042     0.0023323615   0.00038412887  20.881657      19.496522      1.3851344     -1.0559703      18958.841    
    916000   0.96525393     0.0023323615   0.0013743477   21.035908      19.602506      1.4334021     -0.99990639     18897.132    
    917000   1.1198545      0.0023323615   0.0040988574   21.29931       19.636327      1.6629839     -0.9715752      18705.698    
    918000   1.0216462      0.0023323615   0.00026701615  20.83281       19.315665      1.5171446     -1.2146818      18526.866    
    919000   1.2459833      0.0023323615  -0.0024933111   21.06483       19.214545      1.8502852     -1.2144463      18320.128    
    920000   1.1553546      0.0023323615   0.0060773911   21.069452      19.35375       1.7157015     -1.1710056      18401.353    
    921000   0.85566502     0.0023323615  -0.001421004    20.679306      19.408643      1.2706626     -1.1091223      18458.462    
    922000   0.88226483     0.0023323615  -0.00016517155  20.675606      19.365443      1.3101633     -1.2793139      18420.615    
    923000   1.0791448      0.0023323615   0.0026622969   20.75777       19.15524       1.6025301     -1.314877       18450.56     
    924000   1.1468975      0.0023323615  -0.00020663345  21.276087      19.572944      1.7031428     -1.1172284      18440.538    
    925000   1.023855       0.0023323615  -0.00014437634  20.859224      19.338799      1.5204247     -1.1888482      18391.998    
    926000   0.98337809     0.0023323615   0.0036418387   20.755396      19.295079      1.4603165     -1.2868183      18512.629    
    927000   0.95624446     0.0023323615   0.0015639442   20.982588      19.562565      1.420023      -1.042241       18602.921    
    928000   0.99693393     0.0023323615   0.00075787453  20.823532      19.343085      1.4804469     -1.1923878      18542.019    
    929000   0.98074514     0.0023323615  -0.0042876141   20.833239      19.376832      1.4564065     -1.1026212      18597.58     
    930000   0.98752185     0.0023323615  -0.0032984344   21.032747      19.566277      1.46647       -1.0017792      18683.678    
    931000   1.0178043      0.0023323615  -0.0011687994   20.799609      19.28817       1.5114395     -1.2257053      18716.926    
    932000   0.97862465     0.0023323615  -0.0039253315   20.710479      19.257222      1.4532576     -1.2419343      18364.632    
    933000   1.059217       0.0023323615   0.00087602001  20.953098      19.380161      1.5729373     -1.1902808      18401.777    
    934000   1.0844075      0.0023323615  -0.0022565472   21.041757      19.431412      1.6103451     -1.1360834      18589.956    
    935000   0.99603173     0.0023323615  -0.0018784251   20.768084      19.288977      1.4791071     -1.2157724      18512.145    
    936000   0.96001158     0.0023323615  -0.00044641603  20.751142      19.325525      1.4256172     -1.1610369      18307.682    
    937000   1.0552914      0.0023323615   0.0026151671   20.896065      19.328957      1.5671078     -1.2059295      18477.707    
    938000   0.9606743      0.0023323615  -0.0025764469   20.677854      19.251253      1.4266013     -1.2134436      18353.219    
    939000   0.8858938      0.0023323615  -0.00044716057  20.761154      19.445602      1.3155523     -1.0795064      18387.265    
    940000   1.0413356      0.0023323615  -0.00062180146  20.799733      19.253349      1.5463834     -1.3014726      18375.13     
    941000   1.0399783      0.0023323615  -0.0028075833   20.642717      19.098349      1.5443677     -1.3463264      18423.771    
    942000   0.99323944     0.0023323615  -0.0045759499   20.748952      19.273991      1.4749606     -1.3238724      18389.043    
    943000   1.0132063      0.0023323615   0.000511151    20.721207      19.216596      1.5046113     -1.3005346      18370.01     
    944000   1.2309161      0.0023323615  -0.0016921285   21.190718      19.362808      1.8279104     -1.2564276      18435.548    
    945000   0.97438344     0.0023323615   7.7858883e-05  20.473295      19.026335      1.4469594     -1.3931601      18481.115    
    946000   0.99452648     0.0023323615   0.0002583105   20.653025      19.176153      1.4768718     -1.2275936      18232.434    
    947000   1.0924182      0.0023323615   0.0026964607   21.248819      19.626578      1.622241      -1.0155468      18526.618    
    948000   0.98062965     0.0023323615   0.00020580255  20.784951      19.328716      1.456235      -1.2355488      18532.937    
    949000   1.005185       0.0023323615   0.00054228289  20.733048      19.240348      1.4926998     -1.1979084      18437.332    
    950000   0.89176807     0.0023323615   0.0013129292   20.478739      19.154463      1.3242756     -1.3497476      18551.697    
    951000   1.0849218      0.0023323615  -0.001516077    20.983309      19.372201      1.6111088     -1.1851589      18369.367    
    952000   0.9915212      0.0023323615   0.0014603988   20.507408      19.034999      1.472409      -1.4327187      18382.724    
    953000   0.8555753      0.0023323615  -0.0024390928   20.520926      19.250397      1.2705293     -1.1504935      18327.256    
    954000   0.97069713     0.0023323615   0.0012765054   20.557573      19.116088      1.4414852     -1.3989388      18488.146    
    955000   1.0314339      0.0023323615   0.002780122    20.581558      19.049879      1.5316793     -1.4226547      18559.724    
    956000   1.0091528      0.0023323615  -0.002151565    20.84974       19.351148      1.498592      -1.278356       18342.149    
    957000   0.98155211     0.0023323615   0.00018124753  20.785387      19.327782      1.4576049     -1.2696343      18233.344    
    958000   1.0120493      0.0023323615  -0.0030758006   21.000251      19.497357      1.5028932     -1.0981069      18489.951    
    959000   1.0407301      0.0023323615  -0.0014756532   20.93712       19.391636      1.5454842     -1.1459382      18567.634    
    960000   1.0388447      0.0023323615  -0.0014756404   20.45799       18.915306      1.5426844     -1.6311008      18342.166    
    961000   1.1038823      0.0023323615   7.0626926e-05  20.661747      19.022482      1.6392652     -1.5137174      18303.858    
    962000   1.2300307      0.0023323615   0.0046563053   20.960677      19.134082      1.8265956     -1.3818364      18533.23     
    963000   1.055124       0.0023323615  -0.0032249592   20.669039      19.10218       1.5668591     -1.2738403      18613.325    
    964000   0.9332725      0.0023323615   0.0017839061   20.498085      19.112176      1.3859097     -1.3301185      18612.895    
    965000   1.0742993      0.0023323615  -0.0033852065   21.147015      19.55168       1.5953344     -1.1294025      18720.528    
    966000   1.1478918      0.0023323615  -0.0025005898   21.043317      19.338698      1.7046194     -1.2352053      18475.097    
    967000   0.98467201     0.0023323615   0.0030263826   20.691296      19.229058      1.4622379     -1.2724872      18452.289    
    968000   0.90122191     0.0023323615  -0.00022557633  20.711775      19.37346       1.3383145     -1.1714935      18736.993    
    969000   0.850714       0.0023323615   0.0014412088   20.626705      19.363395      1.2633103     -1.3006024      18583.259    
    970000   1.0215467      0.0023323615   0.0031341621   20.783169      19.266172      1.5169969     -1.2281828      18568.764    
    971000   1.0330859      0.0023323615   0.0042573102   20.806482      19.272349      1.5341326     -1.1888046      18501.487    
    972000   0.89350306     0.0023323615   0.0027636122   20.817603      19.490751      1.326852      -1.0297716      18583.605    
    973000   0.91830682     0.0023323615   0.0042469433   20.721755      19.35807       1.3636856     -1.0858612      18537.542    
    974000   0.98521058     0.0023323615  -0.0025978354   20.72848       19.265442      1.4630377     -1.1872427      18341.391    
    975000   1.0392177      0.0023323615   0.0020593148   20.805113      19.261875      1.5432384     -1.1177574      18426.135    
    976000   1.0766         0.0023323615  -0.0046012529   20.916738      19.317988      1.5987509     -1.1206962      18460.596    
    977000   1.0190558      0.0023323615   0.0034233137   20.591497      19.078199      1.5132979     -1.3536318      18346.259    
    978000   1.0574895      0.0023323615   0.0026067626   20.783543      19.213172      1.5703719     -1.3785255      18388.247    
    979000   1.0016265      0.0023323615   0.00067084474  21.009937      19.522522      1.4874153     -0.95003826     18331.854    
    980000   1.0479883      0.0023323615  -0.0028983707   20.988261      19.431999      1.5562626     -1.2199309      18587.627    
    981000   1.0228874      0.0023323615  -0.00014711813  20.940245      19.421257      1.5189878     -1.0206604      18525.047    
    982000   1.0091436      0.0023323615  -0.0029512759   20.680308      19.181729      1.4985783     -1.3345194      18414.556    
    983000   0.96429424     0.0023323615  -0.0027144517   20.515012      19.083035      1.4319769     -1.44631        18331.03     
    984000   1.0285105      0.0023323615  -0.0027724912   20.478271      18.950933      1.5273381     -1.4761042      18500.75     
    985000   1.0643698      0.0023323615   0.0011259021   20.754365      19.173776      1.5805891     -1.3360017      18292.536    
    986000   0.98648065     0.0023323615  -0.0010935137   20.882678      19.417755      1.4649238     -1.144505       18244.245    
    987000   1.0525545      0.0023323615   0.00066013064  20.66804       19.104997      1.5630434     -1.324911       18136.677    
    988000   0.85157993     0.0023323615  -0.00038734264  20.555383      19.290787      1.2645962     -1.2654517      18282.826    
    989000   0.98269915     0.0023323615   0.0010344087   20.612905      19.153596      1.4593082     -1.3876939      18441.257    
    990000   0.93995975     0.0023323615   0.00014038048  20.640122      19.244282      1.3958402     -1.3373954      18288.742    
    991000   1.0038869      0.0023323615   0.0028837519   20.667747      19.176975      1.4907721     -1.3626228      18349.015    
    992000   0.98497693     0.0023323615   0.00037268577  20.854785      19.392095      1.4626907     -1.2285527      18524.899    
    993000   1.0638557      0.0023323615  -0.0030352538   21.038306      19.45848       1.5798257     -1.0946342      18561.426    
    994000   1.0997548      0.0023323615  -0.0019376471   21.002906      19.369771      1.6331359     -1.0608727      18560.307    
    995000   0.95214149     0.0023323615   0.00073099456  20.470306      19.056376      1.4139301     -1.4185443      18317.674    
    996000   0.99239801     0.0023323615  -0.00024590415  20.722236      19.248525      1.473711      -1.3978216      18153.797    
    997000   1.0170137      0.0023323615  -0.0013898299   20.950294      19.440028      1.5102654     -1.1144432      18278.966    
    998000   0.92739579     0.0023323615   0.003037839    20.493469      19.116286      1.3771827     -1.3677349      18255.306    
    999000   0.97270771     0.0023323615  -0.0023986962   20.962832      19.518361      1.444471      -1.2005149      18286.621    
   1000000   1.0463585      0.0023323615   0.0067698912   20.57691       19.023067      1.5538424     -1.4303135      18410.242    
Loop time of 53.6238 on 1 procs for 1000000 steps with 100 atoms

Performance: 8056123.149 tau/day, 18648.433 timesteps/s
99.4% CPU use with 1 MPI tasks x 1 OpenMP threads

MPI task timing breakdown:
Section |  min time  |  avg time  |  max time  |%varavg| %total
---------------------------------------------------------------
Pair    | 44.591     | 44.591     | 44.591     |   0.0 | 83.16
Bond    | 1.2607     | 1.2607     | 1.2607     |   0.0 |  2.35
Neigh   | 3.8482     | 3.8482     | 3.8482     |   0.0 |  7.18
Comm    | 1.4018     | 1.4018     | 1.4018     |   0.0 |  2.61
Output  | 0.21072    | 0.21072    | 0.21072    |   0.0 |  0.39
Modify  | 1.9499     | 1.9499     | 1.9499     |   0.0 |  3.64
Other   |            | 0.3615     |            |       |  0.67

Nlocal:            100 ave         100 max         100 min
Histogram: 1 0 0 0 0 0 0 0 0 0
Nghost:            314 ave         314 max         314 min
Histogram: 1 0 0 0 0 0 0 0 0 0
Neighs:           4851 ave        4851 max        4851 min
Histogram: 1 0 0 0 0 0 0 0 0 0

Total # of neighbors = 4851
Ave neighs/atom = 48.51
Ave special neighs/atom = 1.98
Neighbor list builds = 97930
Dangerous builds = 80394

write_data      ${outputfile_assembled} nofix nocoeff
write_data      7_assembled.data nofix nocoeff
System init for write_data ...
Generated 0 of 6 mixed pair_coeff terms from geometric mixing rule

Total wall time: 0:00:54
