LAMMPS (23 Jun 2022 - Update 1)
OMP_NUM_THREADS environment is not set. Defaulting to 1 thread. (src/comm.cpp:98)
  using 1 OpenMP thread(s) per MPI task


variable        runtime equal 1000000
variable		subsample_rate equal 1000

variable		outputfile_created string '3_created.data'
variable		outputfile_relaxed string '5_relaxed.data'
variable		outputfile_selfasb string '6_a_self_assemble.lammpstrj'
variable		outputfile_trajlin string '6_b_trajlin.data'
variable		outputfile_assembled string '7_assembled.data'

units           lj
atom_style      full
dimension       3
boundary        p p p
timestep        0.005

read_data       ${outputfile_created}
read_data       3_created.data
Reading data file ...
  orthogonal box = (0 0 0) to (35 35 35)
  1 by 1 by 1 MPI processor grid
  reading atoms ...
  100 atoms
  reading velocities ...
  100 velocities
  scanning bonds ...
  1 = max bonds/atom
  reading bonds ...
  99 bonds
Finding 1-2 1-3 1-4 neighbors ...
  special bond factors lj:    0        0        0       
  special bond factors coul:  0        0        0       
     2 = max # of 1-2 neighbors
     2 = max # of 1-3 neighbors
     4 = max # of 1-4 neighbors
     6 = max # of special neighbors
  special bonds CPU = 0.000 seconds
  read_data CPU = 0.021 seconds

bond_style      fene
bond_coeff      * 30.0 1.5 1.0 1.0
special_bonds   fene
Finding 1-2 1-3 1-4 neighbors ...
  special bond factors lj:    0        1        1       
  special bond factors coul:  0        1        1       
     2 = max # of 1-2 neighbors
     6 = max # of special neighbors
  special bonds CPU = 0.000 seconds

variable        Temp equal 1.0
variable        velSeed equal 926458

velocity        all create ${Temp} ${velSeed}
velocity        all create 1 ${velSeed}
velocity        all create 1 926458

### Output
thermo_style    custom step temp density press etotal pe ke epair spcpu
thermo          1000

###########################################################################
# Soft relaxation (to remove overlaps of particles)
######################################################################

pair_style      soft 1.0
pair_coeff      * * 0.0
variable        prefactor equal ramp(0,300)
fix             rampSoft all adapt 1 pair soft a * * v_prefactor

minimize        0.0 1.0e-8 1000 100000
WARNING: Using 'neigh_modify every 1 delay 0 check yes' setting during minimization (src/min.cpp:187)
Generated 0 of 6 mixed pair_coeff terms from geometric mixing rule
Neighbor list info ...
  update every 1 steps, delay 0 steps, check yes
  max neighbors/atom: 2000, page size: 100000
  master list distance cutoff = 1.3
  ghost atom cutoff = 1.3
  binsize = 0.65, bins = 54 54 54
  1 neighbor lists, perpetual/occasional/extra = 1 0 0
  (1) pair soft, perpetual
      attributes: half, newton on
      pair build: half/bin/newton
      stencil: half/bin/3d
      bin: standard
WARNING: Communication cutoff 1.3 is shorter than a bond length based estimate of 1.7550000000000001. This may lead to errors. (src/comm.cpp:727)
Per MPI rank memory allocation (min/avg/max) = 8.346 | 8.346 | 8.346 Mbytes
   Step          Temp         Density         Press          TotEng         PotEng         KinEng         E_pair         S/CPU     
         0   1              0.0023323615  -0.0039617958   21.524174      20.039174      1.485          0              0            
       362   1              0.0023323615   0.0023090379   21.485548      20.000548      1.485          0              69414.536    
Loop time of 0.0052178 on 1 procs for 362 steps with 100 atoms

97.9% CPU use with 1 MPI tasks x 1 OpenMP threads

Minimization stats:
  Stopping criterion = force tolerance
  Energy initial, next-to-last, final = 
      20.0391741078675   20.0005480767337   20.0005480767337
  Force two-norm initial, final = 11.878422 7.9509778e-09
  Force max component initial, final = 6.6117807 1.3572772e-09
  Final line search alpha, max atom move = 1 1.3572772e-09
  Iterations, force evaluations = 362 738

MPI task timing breakdown:
Section |  min time  |  avg time  |  max time  |%varavg| %total
---------------------------------------------------------------
Pair    | 0.00021567 | 0.00021567 | 0.00021567 |   0.0 |  4.13
Bond    | 0.0023588  | 0.0023588  | 0.0023588  |   0.0 | 45.21
Neigh   | 0.0014759  | 0.0014759  | 0.0014759  |   0.0 | 28.29
Comm    | 0.00018192 | 0.00018192 | 0.00018192 |   0.0 |  3.49
Output  | 0          | 0          | 0          |   0.0 |  0.00
Modify  | 0          | 0          | 0          |   0.0 |  0.00
Other   |            | 0.0009855  |            |       | 18.89

Nlocal:            100 ave         100 max         100 min
Histogram: 1 0 0 0 0 0 0 0 0 0
Nghost:             20 ave          20 max          20 min
Histogram: 1 0 0 0 0 0 0 0 0 0
Neighs:              0 ave           0 max           0 min
Histogram: 1 0 0 0 0 0 0 0 0 0

Total # of neighbors = 0
Ave neighs/atom = 0
Ave special neighs/atom = 1.98
Neighbor list builds = 17
Dangerous builds = 0

fix             nvtSoft all nvt temp ${Temp} ${Temp} 0.5
fix             nvtSoft all nvt temp 1 ${Temp} 0.5
fix             nvtSoft all nvt temp 1 1 0.5
run             100000
Generated 0 of 6 mixed pair_coeff terms from geometric mixing rule
WARNING: Communication cutoff 1.3 is shorter than a bond length based estimate of 1.7550000000000001. This may lead to errors. (src/comm.cpp:727)
Per MPI rank memory allocation (min/avg/max) = 7.221 | 7.221 | 7.221 Mbytes
   Step          Temp         Density         Press          TotEng         PotEng         KinEng         E_pair         S/CPU     
       362   1              0.0023323615   0.0023090379   21.485548      20.000548      1.485          0              0            
      1000   0.90989032     0.0023323615  -0.0021940042   21.776974      20.425787      1.3511871      0.00036425437  78869.013    
      2000   0.86546688     0.0023323615   0.0034714157   21.677128      20.39191       1.2852183      0.0025814786   78130.353    
      3000   0.98199538     0.0023323615   0.0028144228   21.866132      20.407869      1.4582631      0.0011756043   74638.825    
      4000   1.004495       0.0023323615  -0.0014058211   21.945624      20.453949      1.4916751      0.011986179    74801.259    
      5000   1.1222705      0.0023323615   0.0044495116   21.986385      20.319813      1.6665718      0.0050317639   74943.524    
      6000   1.0538243      0.0023323615   0.0023957538   21.985713      20.420784      1.564929       0.012100514    74386.342    
      7000   1.0210598      0.0023323615  -0.00038820026  21.904665      20.388391      1.5162738      0              77096.104    
      8000   0.94819751     0.0023323615   0.0024943091   21.747889      20.339816      1.4080733      0              77171.808    
      9000   0.92364502     0.0023323615   0.0020053029   21.724166      20.352554      1.3716129      1.7780894e-05  76349.096    
     10000   0.86685188     0.0023323615   0.00078277366  21.644879      20.357604      1.287275       0.0098636418   76042.042    
     11000   1.0057103      0.0023323615   0.00010113276  21.8558        20.362321      1.4934798      0.020705341    75874.693    
     12000   0.97901664     0.0023323615  -0.0026996968   21.871206      20.417366      1.4538397      0.0052928539   75833.651    
     13000   0.97718436     0.0023323615  -6.1641422e-06  21.963706      20.512587      1.4511188      0.025022446    75479.878    
     14000   1.0530014      0.0023323615  -0.0009993112   21.947994      20.384287      1.5637071      0.0020860456   72709.78     
     15000   0.99094527     0.0023323615   0.0011068478   21.895146      20.423592      1.4715537      0.0015091113   73630.35     
     16000   0.91285091     0.0023323615  -0.00025424173  21.87524       20.519657      1.3555836      0.0047853639   73799.278    
     17000   0.82806978     0.0023323615  -0.00054698156  21.701984      20.472301      1.2296836      0              73458.891    
     18000   1.043278       0.0023323615  -6.6143919e-05  22.003299      20.454031      1.5492679      0.0034319132   76001.858    
     19000   1.0879249      0.0023323615  -0.0017804642   21.998985      20.383416      1.6155685      0.015376175    75076.67     
     20000   1.1144506      0.0023323615   0.0025198298   22.190904      20.535944      1.6549592      0              76023.445    
     21000   1.0427751      0.0023323615   0.0011345349   22.099492      20.550971      1.548521       0.00040047813  76068.35     
     22000   1.0586695      0.0023323615   0.0017882747   22.05673       20.484606      1.5721242      0              76150.124    
     23000   1.0058426      0.0023323615  -0.0055245362   21.954628      20.460951      1.4936763      0.0027619031   74883.588    
     24000   0.98273442     0.0023323615   0.0015147357   21.862067      20.402707      1.4593606      0              75474.626    
     25000   0.95835343     0.0023323615   0.0017808774   21.937761      20.514606      1.4231548      0.00020839942  73512.293    
     26000   0.93993778     0.0023323615  -0.0021777292   21.884849      20.489042      1.3958076      0.0088889834   75599.424    
     27000   0.9308188      0.0023323615  -0.00011239942  21.842252      20.459986      1.3822659      0.021612409    75029.432    
     28000   1.0149581      0.0023323615   0.0041996387   21.906846      20.399633      1.5072129      0.0064059022   75604.059    
     29000   0.92841138     0.0023323615  -2.5398808e-05  21.987185      20.608494      1.3786909      0.0046112484   75524.771    
     30000   1.021043       0.0023323615   0.001589158    22.097958      20.581709      1.5162489      0.016799508    73039.718    
     31000   1.0465985      0.0023323615  -0.0021744286   22.037917      20.483718      1.5541987      0.0057879149   76271.094    
     32000   0.98907108     0.0023323615  -0.0015558606   22.044089      20.575318      1.4687705      0.009448173    75833.593    
     33000   1.0918536      0.0023323615  -0.0025643847   22.039275      20.417873      1.6214025      0              72691.514    
     34000   0.99801543     0.0023323615   0.0016279766   21.932339      20.450286      1.4820529      0.017384617    77179.497    
     35000   1.0352271      0.0023323615  -0.0052971711   22.076004      20.538692      1.5373122      0.00010473809  75766.191    
     36000   1.1141579      0.0023323615  -0.00093279925  22.222491      20.567966      1.6545245      0.00033678641  76965.55     
     37000   1.0369415      0.0023323615   0.00013065175  22.217841      20.677983      1.5398581      0.013788831    75773.149    
     38000   1.0515596      0.0023323615   0.0021717558   22.070766      20.5092        1.561566       0.0067894678   76687.211    
     39000   1.0238495      0.0023323615   0.00026414509  22.040141      20.519725      1.5204165      0.00044464649  75644.682    
     40000   1.0749111      0.0023323615  -0.0026849368   22.039327      20.443084      1.596243       0.012651334    73211.636    
     41000   0.99070886     0.0023323615  -0.0030385564   22.03241       20.561207      1.4712027      0.00092855646  76060.521    
     42000   0.95315224     0.0023323615   0.0019788197   21.965263      20.549832      1.4154311      0.020233689    75636.317    
     43000   1.0644183      0.0023323615  -0.0011168725   22.287172      20.706511      1.5806611      0.039694129    75472.057    
     44000   1.0253747      0.0023323615  -0.006676522    22.066233      20.543552      1.5226814      0              74677.245    
     45000   0.94179556     0.0023323615  -0.0047206018   21.970644      20.572077      1.3985664      0.019869988    75093.335    
     46000   1.0083495      0.0023323615  -0.0017646918   21.972114      20.474715      1.497399       0.00026040605  75295.053    
     47000   0.98767959     0.0023323615  -0.00080218158  22.091674      20.62497       1.4667042      0.024266258    75079.725    
     48000   1.1473449      0.0023323615  -0.0025885687   22.080512      20.376705      1.7038072      0.00065962995  73362.517    
     49000   1.0679312      0.0023323615   0.0017688272   21.970482      20.384604      1.5858779      0.014142422    76399.71     
     50000   0.9581935      0.0023323615   0.0014398836   21.955202      20.532284      1.4229173      0.0055011948   76019.388    
     51000   1.0215759      0.0023323615  -0.00093292688  21.934681      20.41764       1.5170402      0              75826.911    
     52000   0.98079591     0.0023323615   0.0040701936   21.977374      20.520892      1.4564819      0.0020862422   76615.636    
     53000   1.0090927      0.0023323615   0.0013324753   22.095438      20.596935      1.4985027      0              75664.01     
     54000   0.97519627     0.0023323615   0.0013260734   22.070151      20.621984      1.4481665      0.026885444    76793.119    
     55000   1.1805087      0.0023323615  -0.001586238    22.424088      20.671033      1.7530554      0.024690954    76321.132    
     56000   0.98387121     0.0023323615   0.0037155145   22.104425      20.643376      1.4610487      0.01435493     73984.066    
     57000   1.0723812      0.0023323615  -0.0037916262   22.122726      20.53024       1.592486       0.013635549    76388.475    
     58000   1.0152349      0.0023323615   0.00021908047  22.082827      20.575203      1.5076238      0.00077375639  75993.409    
     59000   1.1424502      0.0023323615  -0.0052108657   22.30072       20.604182      1.6965385      0.013308184    77127.5      
     60000   1.0359703      0.0023323615  -0.00097887545  22.188218      20.649802      1.538416       0.00011346294  75603.431    
     61000   1.1646839      0.0023323615  -0.002085017    22.239945      20.51039       1.7295556      0.012918477    77720.133    
     62000   1.101836       0.0023323615   0.0010338878   22.171386      20.53516       1.6362265      0.001396566    76344.952    
     63000   0.96616435     0.0023323615   0.00097550571  21.903821      20.469067      1.4347541      0.013027663    77528.401    
     64000   1.0068907      0.0023323615  -0.0020278726   22.061652      20.566419      1.4952327      0.013750276    74047.346    
     65000   0.98723233     0.0023323615   0.0022441476   22.031073      20.565033      1.46604        0.0066686189   76543.539    
     66000   1.0273881      0.0023323615  -0.0003515278   22.183579      20.657908      1.5256713      0              75005.982    
     67000   0.96528212     0.0023323615  -0.00014822656  21.9396        20.506156      1.4334439      0.010365557    77007.833    
     68000   1.069702       0.0023323615   9.4754668e-05  22.081119      20.492611      1.5885075      0.00049153926  74252.153    
     69000   1.1229502      0.0023323615   0.0011504079   22.200329      20.532748      1.6675811      0.0068454249   77012.939    
     70000   1.0062775      0.0023323615  -0.00085311964  22.094021      20.599699      1.4943221      0.013222355    75475.486    
     71000   1.0906935      0.0023323615   0.00015260357  22.145362      20.525682      1.6196798      0.018338513    76057.102    
     72000   1.010401       0.0023323615  -6.0487182e-06  22.154105      20.653659      1.5004455      0.0013793953   73971.068    
     73000   1.1177599      0.0023323615  -0.0034084797   22.254435      20.594562      1.6598735      0.00011231735  77690.431    
     74000   0.9768019      0.0023323615   0.00016143893  22.07312       20.622569      1.4505508      0.0084515956   75633.846    
     75000   1.1360996      0.0023323615   0.002159116    22.161595      20.474487      1.6871079      0.0089909162   76206.461    
     76000   0.97379329     0.0023323615  -0.00068458621  21.988928      20.542845      1.446083       0              75236.03     
     77000   0.94876793     0.0023323615  -0.0016073976   21.923496      20.514575      1.4089204      0.017745108    75511.916    
     78000   0.83947996     0.0023323615  -0.00062768559  21.726727      20.480099      1.2466277      0.0054510099   76235.736    
     79000   1.0090614      0.0023323615  -0.00080262643  22.068192      20.569736      1.4984562      0.00023011166  76796.782    
     80000   1.1217643      0.0023323615  -0.0038177864   22.367902      20.702082      1.66582        0.032902439    76319.035    
     81000   1.0240158      0.0023323615   0.00023547123  22.031597      20.510933      1.5206635      0.0068767308   75668.253    
     82000   1.003236       0.0023323615  -0.0022802982   21.894199      20.404393      1.4898055      0.019136282    74587.791    
     83000   1.0554159      0.0023323615   0.004011718    22.104562      20.537269      1.5672927      0.0080869707   73438.731    
     84000   0.83527346     0.0023323615  -0.0034122221   21.874648      20.634267      1.2403811      0.0030083664   75742.84     
     85000   1.036002       0.0023323615   0.0013573923   21.962923      20.42446       1.5384629      0.015709144    76516.849    
     86000   0.9432002      0.0023323615  -0.0032183248   21.913588      20.512936      1.4006523      0.013730309    76437.265    
     87000   0.95566008     0.0023323615  -0.00049614223  21.91653       20.497375      1.4191552      0.0035862035   75231.044    
     88000   0.93373351     0.0023323615  -0.00097093893  21.870485      20.483891      1.3865943      0.0018212145   75128.884    
     89000   0.9684944      0.0023323615  -0.00047342045  21.973429      20.535215      1.4382142      0.00087524744  74248.619    
     90000   0.98293324     0.0023323615  -0.0032204602   22.050919      20.591263      1.4596559      0.015353933    76650.931    
     91000   1.0832827      0.0023323615   0.0048517083   22.11977       20.511095      1.6086749      0.0052867789   75977.271    
     92000   0.85899662     0.0023323615  -0.0013049519   21.765697      20.490087      1.27561        0.0024124001   76373.458    
     93000   0.96176266     0.0023323615  -4.4223672e-05  21.874222      20.446004      1.4282176      0.0045653365   77359.916    
     94000   0.96019503     0.0023323615   0.00024459347  21.944954      20.519064      1.4258896      3.8053462e-05  76680.084    
     95000   0.94702149     0.0023323615  -0.0033658915   21.86315       20.456823      1.4063269      0              74833.955    
     96000   0.91119348     0.0023323615  -0.0013197298   21.825018      20.471896      1.3531223      0.00043282989  75977.04     
     97000   1.0016687      0.0023323615  -0.0019514304   22.013024      20.525546      1.487478       0.0048369955   75519.569    
     98000   1.02143        0.0023323615  -0.0057874974   22.177965      20.661142      1.5168235      0              74534.765    
     99000   1.032786       0.0023323615   0.0018228259   21.975336      20.441649      1.5336871      7.1595851e-05  77652.714    
    100000   1.0594928      0.0023323615   0.0036169719   22.011024      20.437677      1.5733468      0.00032948157  75818.041    
    100362   1.1904942      0.0023323615  -0.00089755607  22.316856      20.548972      1.7678839      0.00063845255  75399.843    
Loop time of 1.32232 on 1 procs for 100000 steps with 100 atoms

Performance: 32669752.357 tau/day, 75624.427 timesteps/s
99.3% CPU use with 1 MPI tasks x 1 OpenMP threads

MPI task timing breakdown:
Section |  min time  |  avg time  |  max time  |%varavg| %total
---------------------------------------------------------------
Pair    | 0.049448   | 0.049448   | 0.049448   |   0.0 |  3.74
Bond    | 0.1264     | 0.1264     | 0.1264     |   0.0 |  9.56
Neigh   | 0.8065     | 0.8065     | 0.8065     |   0.0 | 60.99
Comm    | 0.055521   | 0.055521   | 0.055521   |   0.0 |  4.20
Output  | 0.0013016  | 0.0013016  | 0.0013016  |   0.0 |  0.10
Modify  | 0.24833    | 0.24833    | 0.24833    |   0.0 | 18.78
Other   |            | 0.03483    |            |       |  2.63

Nlocal:            100 ave         100 max         100 min
Histogram: 1 0 0 0 0 0 0 0 0 0
Nghost:             60 ave          60 max          60 min
Histogram: 1 0 0 0 0 0 0 0 0 0
Neighs:             36 ave          36 max          36 min
Histogram: 1 0 0 0 0 0 0 0 0 0

Total # of neighbors = 36
Ave neighs/atom = 0.36
Ave special neighs/atom = 1.98
Neighbor list builds = 9821
Dangerous builds = 8265
unfix           nvtSoft
unfix           rampSoft
reset_timestep  0

write_data      ${outputfile_relaxed}
write_data      5_relaxed.data
System init for write_data ...
Generated 0 of 6 mixed pair_coeff terms from geometric mixing rule
WARNING: Communication cutoff 1.3 is shorter than a bond length based estimate of 1.7550000000000001. This may lead to errors. (src/comm.cpp:727)
WARNING: Not all mixed pair coeffs generated from mixing. Use write_data with 'pair ij' option to store all pair coeffs. (src/write_data.cpp:309)

###########################################################################
# Full LJ with Coulomb
######################################################################

# Cutoffs and parameters:
# - Values: Marcel Verkade's Bachelor Thesis
# - Mapping to atom groups: Patrick Onck's paper
# - 1: aliphatic, 2: aromatic, 3: anion, 4: cation
# pair_style	lj/cut/coul/cut <lj_cut_global> <coul_cut_global>
# pair_coeff	<type_1>  <type_2>  <eps>  <sigma>  <r_cut_lj>  <r_cut_coul>

# Problem: Onck's model is much more complex, and Marcel has no sigma reported
# Using sigma=1 randomly

variable		glob_ljeps equal 1.0
variable		glob_ljsig 	equal 1.0
variable		glob_coulcut equal 10.0
variable		att_ljcut equal 2.50
variable		rep_ljcut equal 1.12

pair_style		lj/cut/coul/cut 						${att_ljcut} 	${glob_coulcut}
pair_style		lj/cut/coul/cut 						2.5 	${glob_coulcut}
pair_style		lj/cut/coul/cut 						2.5 	10
pair_coeff		1 1 	${glob_ljeps} 	${glob_ljsig}	${att_ljcut} 	${glob_coulcut}
pair_coeff		1 1 	1 	${glob_ljsig}	${att_ljcut} 	${glob_coulcut}
pair_coeff		1 1 	1 	1	${att_ljcut} 	${glob_coulcut}
pair_coeff		1 1 	1 	1	2.5 	${glob_coulcut}
pair_coeff		1 1 	1 	1	2.5 	10
pair_coeff		1 2 	${glob_ljeps} 	${glob_ljsig}	${att_ljcut} 	${glob_coulcut}
pair_coeff		1 2 	1 	${glob_ljsig}	${att_ljcut} 	${glob_coulcut}
pair_coeff		1 2 	1 	1	${att_ljcut} 	${glob_coulcut}
pair_coeff		1 2 	1 	1	2.5 	${glob_coulcut}
pair_coeff		1 2 	1 	1	2.5 	10
pair_coeff		1 3 	${glob_ljeps} 	${glob_ljsig}	${rep_ljcut} 	${glob_coulcut}
pair_coeff		1 3 	1 	${glob_ljsig}	${rep_ljcut} 	${glob_coulcut}
pair_coeff		1 3 	1 	1	${rep_ljcut} 	${glob_coulcut}
pair_coeff		1 3 	1 	1	1.12 	${glob_coulcut}
pair_coeff		1 3 	1 	1	1.12 	10
pair_coeff		1 4 	${glob_ljeps} 	${glob_ljsig}	${rep_ljcut} 	${glob_coulcut}
pair_coeff		1 4 	1 	${glob_ljsig}	${rep_ljcut} 	${glob_coulcut}
pair_coeff		1 4 	1 	1	${rep_ljcut} 	${glob_coulcut}
pair_coeff		1 4 	1 	1	1.12 	${glob_coulcut}
pair_coeff		1 4 	1 	1	1.12 	10
pair_coeff		2 2 	${glob_ljeps} 	${glob_ljsig}	${att_ljcut} 	${glob_coulcut}
pair_coeff		2 2 	1 	${glob_ljsig}	${att_ljcut} 	${glob_coulcut}
pair_coeff		2 2 	1 	1	${att_ljcut} 	${glob_coulcut}
pair_coeff		2 2 	1 	1	2.5 	${glob_coulcut}
pair_coeff		2 2 	1 	1	2.5 	10
pair_coeff		2 3 	${glob_ljeps} 	${glob_ljsig}	${rep_ljcut} 	${glob_coulcut}
pair_coeff		2 3 	1 	${glob_ljsig}	${rep_ljcut} 	${glob_coulcut}
pair_coeff		2 3 	1 	1	${rep_ljcut} 	${glob_coulcut}
pair_coeff		2 3 	1 	1	1.12 	${glob_coulcut}
pair_coeff		2 3 	1 	1	1.12 	10
pair_coeff		2 4 	${glob_ljeps} 	${glob_ljsig}	${att_ljcut} 	${glob_coulcut}
pair_coeff		2 4 	1 	${glob_ljsig}	${att_ljcut} 	${glob_coulcut}
pair_coeff		2 4 	1 	1	${att_ljcut} 	${glob_coulcut}
pair_coeff		2 4 	1 	1	2.5 	${glob_coulcut}
pair_coeff		2 4 	1 	1	2.5 	10
pair_coeff		3 3 	${glob_ljeps} 	${glob_ljsig}	${rep_ljcut} 	${glob_coulcut}
pair_coeff		3 3 	1 	${glob_ljsig}	${rep_ljcut} 	${glob_coulcut}
pair_coeff		3 3 	1 	1	${rep_ljcut} 	${glob_coulcut}
pair_coeff		3 3 	1 	1	1.12 	${glob_coulcut}
pair_coeff		3 3 	1 	1	1.12 	10
pair_coeff		3 4 	${glob_ljeps} 	${glob_ljsig}	${att_ljcut} 	${glob_coulcut}
pair_coeff		3 4 	1 	${glob_ljsig}	${att_ljcut} 	${glob_coulcut}
pair_coeff		3 4 	1 	1	${att_ljcut} 	${glob_coulcut}
pair_coeff		3 4 	1 	1	2.5 	${glob_coulcut}
pair_coeff		3 4 	1 	1	2.5 	10
pair_coeff		4 4 	${glob_ljeps} 	${glob_ljsig}	${rep_ljcut} 	${glob_coulcut}
pair_coeff		4 4 	1 	${glob_ljsig}	${rep_ljcut} 	${glob_coulcut}
pair_coeff		4 4 	1 	1	${rep_ljcut} 	${glob_coulcut}
pair_coeff		4 4 	1 	1	1.12 	${glob_coulcut}
pair_coeff		4 4 	1 	1	1.12 	10


fix             noDriftRot 	all momentum 10 linear 1 1 1 angular
fix             nvt1 		all nvt temp ${Temp} ${Temp} 0.5
fix             nvt1 		all nvt temp 1 ${Temp} 0.5
fix             nvt1 		all nvt temp 1 1 0.5

# dump          assemble 	all custom 1000 				${outputfile_selfasb} id type xu yu zu vx vy vz
dump            lindump 	all custom ${subsample_rate} 	${outputfile_trajlin} id type xu yu zu vx vy vz
dump            lindump 	all custom 1000 	${outputfile_trajlin} id type xu yu zu vx vy vz
dump            lindump 	all custom 1000 	6_b_trajlin.data id type xu yu zu vx vy vz

run             ${runtime}
run             1000000
Generated 0 of 6 mixed pair_coeff terms from geometric mixing rule
Neighbor list info ...
  update every 1 steps, delay 10 steps, check yes
  max neighbors/atom: 2000, page size: 100000
  master list distance cutoff = 10.3
  ghost atom cutoff = 10.3
  binsize = 5.15, bins = 7 7 7
  1 neighbor lists, perpetual/occasional/extra = 1 0 0
  (1) pair lj/cut/coul/cut, perpetual
      attributes: half, newton on
      pair build: half/bin/newton
      stencil: half/bin/3d
      bin: standard
Per MPI rank memory allocation (min/avg/max) = 7.712 | 7.712 | 7.712 Mbytes
   Step          Temp         Density         Press          TotEng         PotEng         KinEng         E_pair         S/CPU     
         0   1.1904942      0.0023323615  -0.0015082059   21.840498      20.072614      1.7678839     -0.47571979     0            
      1000   0.92959448     0.0023323615   0.00060918784  20.935892      19.555444      1.3804478     -0.87877315     32728.48     
      2000   0.8415391      0.0023323615  -0.0053414927   20.760943      19.511257      1.2496856     -0.8970743      29665.422    
      3000   1.0209018      0.0023323615  -0.00010184697  20.67446       19.158421      1.5160392     -1.2171886      23959.984    
      4000   1.0122409      0.0023323615   0.0020372722   20.74831       19.245132      1.5031777     -1.2158497      19837.342    
      5000   1.1371284      0.0023323615   0.00017255757  20.862927      19.174291      1.6886357     -1.421696       18428.672    
      6000   1.0836795      0.0023323615  -0.0048988218   20.667209      19.057945      1.6092641     -1.456208       18674.82     
      7000   1.0861387      0.0023323615  -0.0011577728   20.985525      19.372609      1.612916      -1.2553787      18493.473    
      8000   1.0160486      0.0023323615   0.0022339469   20.596346      19.087514      1.5088322     -1.4223355      18516.06     
      9000   1.0790296      0.0023323615  -0.0014404176   20.676335      19.073976      1.6023589     -1.5229397      18401.031    
     10000   0.96043387     0.0023323615   0.0018434762   20.683391      19.257147      1.4262443     -1.3120043      18413.058    
     11000   0.96129776     0.0023323615  -0.0027241936   20.699247      19.27172       1.4275272     -1.2462881      18548.018    
     12000   1.0556088      0.0023323615   0.0014481579   20.547368      18.979789      1.5675791     -1.5709529      18515.631    
     13000   1.0715126      0.0023323615   0.00098967921  20.656365      19.065169      1.5911962     -1.393219       18533.051    
     14000   0.93848898     0.0023323615   0.00084845128  20.379065      18.985409      1.3936561     -1.4613057      18512.808    
     15000   1.0527598      0.0023323615  -0.0014130596   20.858055      19.294706      1.5633482     -1.2462272      18547.618    
     16000   1.0543275      0.0023323615   6.374759e-05   20.785491      19.219814      1.5656764     -1.3314566      18414.318    
     17000   0.98128547     0.0023323615   0.00085517609  20.822153      19.364944      1.4572089     -1.3768142      18435.892    
     18000   1.0722096      0.0023323615  -0.002403135    20.665422      19.073191      1.5922313     -1.5116552      18469.508    
     19000   1.0864062      0.0023323615  -0.0002252005   20.589384      18.976071      1.6133131     -1.595267       18398.731    
     20000   1.0244846      0.0023323615   0.0014429956   20.528321      19.006961      1.5213596     -1.5733903      18339.19     
     21000   1.0978369      0.0023323615   0.0044371354   20.691431      19.061144      1.6302878     -1.461346       18406.633    
     22000   1.0329924      0.0023323615  -0.0032432051   20.691515      19.157521      1.5339937     -1.4457098      18395.168    
     23000   1.0590273      0.0023323615  -0.0011948645   20.605216      19.032561      1.5726556     -1.6031752      18540.445    
     24000   0.896258       0.0023323615   0.00031427071  20.37995       19.049006      1.3309431     -1.5412233      18337.775    
     25000   1.0817186      0.0023323615  -0.0017063323   20.686307      19.079955      1.6063521     -1.5020486      18497.438    
     26000   1.0277881      0.0023323615   0.00073269667  20.517232      18.990967      1.5262654     -1.5275887      18592.654    
     27000   0.9572651      0.0023323615  -0.00066335582  20.488288      19.066749      1.4215387     -1.458106       18550.038    
     28000   0.95877149     0.0023323615  -0.0013469346   20.415876      18.992101      1.4237757     -1.4023297      18413.442    
     29000   1.0825778      0.0023323615  -0.0022886337   20.940159      19.332531      1.607628      -1.2095817      18447.777    
     30000   1.0021299      0.0023323615   0.003365502    20.32246       18.834297      1.4881629     -1.5895192      18427.393    
     31000   1.0026633      0.0023323615   0.00068349833  20.677915      19.18896       1.488955      -1.3589411      18545.079    
     32000   0.9160109      0.0023323615   0.0050741468   20.179195      18.818919      1.3602762     -1.6278921      18551.89     
     33000   1.0492275      0.0023323615  -0.0026411705   20.522605      18.964503      1.5581028     -1.5489742      18411.176    
     34000   1.0246758      0.0023323615  -0.0014112959   20.62783       19.106187      1.5216436     -1.376418       18396.263    
     35000   0.96519885     0.0023323615   0.0018868125   20.589142      19.155822      1.4333203     -1.3498296      18426.583    
     36000   1.0710612      0.0023323615  -0.0016463563   20.505063      18.914538      1.5905258     -1.691454       18496.818    
     37000   0.9278475      0.0023323615  -0.0025628547   20.634749      19.256896      1.3778535     -1.3654406      18418.96     
     38000   1.1729858      0.0023323615   0.0010235123   20.773008      19.031124      1.7418839     -1.4193324      18486.633    
     39000   1.0317227      0.0023323615   0.0019625661   20.837171      19.305063      1.5321082     -1.2896709      18524.287    
     40000   0.93269164     0.0023323615  -0.00045061067  20.557271      19.172224      1.3850471     -1.4045001      18459.763    
     41000   1.0911837      0.0023323615  -0.0018872468   20.741833      19.121425      1.6204078     -1.3028974      18445.697    
     42000   0.98151212     0.0023323615  -0.00090870443  20.563364      19.105818      1.4575455     -1.4461285      18572.011    
     43000   0.91964403     0.0023323615   0.0035445348   20.341979      18.976308      1.3656714     -1.4490837      18542.825    
     44000   1.1146531      0.0023323615  -0.0011555299   20.662553      19.007294      1.6552598     -1.5024356      18515.559    
     45000   0.94011718     0.0023323615  -0.00026737554  20.399628      19.003554      1.396074      -1.4278135      18608.46     
     46000   1.0103549      0.0023323615   0.0032486719   20.386127      18.88575       1.5003771     -1.6605897      18314.205    
     47000   0.98815824     0.0023323615  -0.00014581921  20.525221      19.057806      1.467415      -1.4267843      18261.031    
     48000   1.0253737      0.0023323615  -0.0020416705   20.404132      18.881452      1.52268       -1.6881299      18196.835    
     49000   0.83240935     0.0023323615   0.00086222034  20.591046      19.354918      1.2361279     -1.2591802      18264.653    
     50000   0.90991954     0.0023323615   0.0024137105   20.113402      18.762171      1.3512305     -1.7534576      18384.339    
     51000   0.99307106     0.0023323615   0.0047126431   20.560814      19.086103      1.4747105     -1.5467097      18292.781    
     52000   0.92056136     0.0023323615   0.0011784835   20.368768      19.001734      1.3670336     -1.5827473      18326.032    
     53000   1.0729262      0.0023323615  -0.0040467524   20.559636      18.96634       1.5932954     -1.5436507      18349.328    
     54000   0.9391278      0.0023323615   0.0043681589   20.444188      19.049583      1.3946048     -1.5327211      18334.188    
     55000   1.0702032      0.0023323615  -0.00092254131  20.614659      19.025407      1.5892518     -1.6490919      18335.589    
     56000   0.91010577     0.0023323615  -0.0035948532   20.444444      19.092937      1.3515071     -1.3407988      18409.855    
     57000   0.95430672     0.0023323615  -0.0021366444   20.553929      19.136784      1.4171455     -1.290514       18461.357    
     58000   1.035526       0.0023323615  -0.00094917053  20.715606      19.17785       1.5377561     -1.3338886      18539.464    
     59000   0.85367173     0.0023323615   0.0025126217   20.387226      19.119523      1.2677025     -1.3698965      18413.73     
     60000   0.98433487     0.0023323615  -0.00042000927  20.421823      18.960086      1.4617373     -1.6073803      18382.351    
     61000   1.1063915      0.0023323615   0.0017105898   20.822026      19.179035      1.6429913     -1.3105808      18405.724    
     62000   0.9854533      0.0023323615   6.0392735e-05  20.53478       19.071381      1.4633981     -1.5457044      18549.104    
     63000   1.1074534      0.0023323615  -0.0015783227   20.796759      19.152191      1.6445684     -1.3072216      18557.474    
     64000   0.9894928      0.0023323615   0.0042768041   20.40266       18.933263      1.4693968     -1.5375831      18457.397    
     65000   0.96915411     0.0023323615   0.0018879217   20.362273      18.92308       1.4391939     -1.6113403      18367.603    
     66000   1.0561231      0.0023323615   0.0024311013   20.700767      19.132424      1.5683428     -1.2649327      18495.793    
     67000   0.88290016     0.0023323615   0.0016724461   20.221706      18.910599      1.3111067     -1.5008544      18524.51     
     68000   0.87535112     0.0023323615   0.002149956    20.257705      18.957808      1.2998964     -1.4379786      18347.854    
     69000   1.1173231      0.0023323615  -0.00098483652  20.889229      19.230004      1.6592249     -1.3033103      18453.067    
     70000   0.95891146     0.0023323615   0.0029025959   20.453581      19.029598      1.4239835     -1.4692499      18508.928    
     71000   1.2357933      0.0023323615   0.0030060631   20.897993      19.06284       1.835153      -1.5605441      18402.965    
     72000   1.0972678      0.0023323615  -0.0045576783   20.764745      19.135303      1.6294426     -1.4824599      18512.897    
     73000   1.0549306      0.0023323615   0.0034771578   20.543863      18.977291      1.5665719     -1.4892927      18521.035    
     74000   0.95156584     0.0023323615  -0.00022320253  20.224154      18.811079      1.4130753     -1.7933238      18559.758    
     75000   1.0529375      0.0023323615   0.0009294134   20.451011      18.887399      1.5636122     -1.5905536      18504.492    
     76000   1.1243258      0.0023323615  -0.0011741755   20.555671      18.886047      1.6696238     -1.6119466      18521.736    
     77000   0.94958047     0.0023323615  -0.0045351134   20.657269      19.247142      1.410127      -1.2963159      18567.564    
     78000   0.92758404     0.0023323615   0.0030692658   20.629882      19.25242       1.3774623     -1.347296       18581.426    
     79000   0.90964483     0.0023323615  -0.0051016587   20.182104      18.831281      1.3508226     -1.6220335      18391.948    
     80000   0.99957213     0.0023323615  -0.0017496829   20.696368      19.212003      1.4843646     -1.3152888      18528.052    
     81000   0.93523929     0.0023323615   0.003410312    20.462017      19.073186      1.3888303     -1.4537251      18446.093    
     82000   1.0805456      0.0023323615  -0.0010564104   20.805051      19.200441      1.6046103     -1.3194845      18374.203    
     83000   0.98757578     0.0023323615  -0.000628929    20.430557      18.964007      1.46655       -1.6217241      18459.141    
     84000   1.0105464      0.0023323615   0.00097580231  20.609458      19.108796      1.5006615     -1.3901182      18355.581    
     85000   0.85582721     0.0023323615   0.0019250216   20.367442      19.096539      1.2709034     -1.4765039      18385.944    
     86000   0.9410273      0.0023323615  -0.00089145999  20.633222      19.235796      1.3974255     -1.2952251      18611.704    
     87000   0.9559879      0.0023323615   0.002256654    20.203932      18.78429       1.419642      -1.7297446      18472.304    
     88000   1.1358724      0.0023323615  -0.0024116696   20.833717      19.146946      1.6867706     -1.3673618      18446.43     
     89000   0.94233155     0.0023323615   0.0001853744   20.418196      19.018834      1.3993623     -1.4783374      18296.651    
     90000   1.1166777      0.0023323615  -0.0011295502   20.906754      19.248488      1.6582664     -1.4866533      18259.194    
     91000   1.0138654      0.0023323615  -0.00044069284  20.469345      18.963755      1.5055901     -1.5446188      18251.575    
     92000   1.1437351      0.0023323615   0.0035480595   20.673469      18.975022      1.6984467     -1.6026313      18230.909    
     93000   1.0755356      0.0023323615  -0.0035588315   20.646905      19.049735      1.5971703     -1.5112542      18337.799    
     94000   0.90772187     0.0023323615   0.0010450391   20.407022      19.059055      1.347967      -1.4847719      18387.99     
     95000   0.98017664     0.0023323615  -0.0002673284   20.530388      19.074826      1.4555623     -1.5419604      18332.262    
     96000   1.0628128      0.0023323615   0.0021657617   20.596456      19.018179      1.578277      -1.4047086      18421.006    
     97000   0.86918558     0.0023323615  -0.0020608027   20.42259       19.13185       1.2907406     -1.4384649      18430.234    
     98000   0.96748229     0.0023323615   0.0013882455   20.598476      19.161764      1.4367112     -1.4096528      18451.586    
     99000   1.0106101      0.0023323615   0.00038873455  20.604999      19.104243      1.500756      -1.3686513      18357.951    
    100000   1.1447046      0.0023323615   0.00022722117  20.805861      19.105974      1.6998864     -1.3552709      18441.867    
    101000   0.92728476     0.0023323615   0.0048145593   20.10657       18.729552      1.3770179     -1.7686368      18391.632    
    102000   1.1441527      0.0023323615   2.5804282e-05  20.829476      19.130409      1.6990668     -1.530526       18309.435    
    103000   1.0534731      0.0023323615   0.0011211678   20.53157       18.967163      1.5644075     -1.5759306      18292.667    
    104000   1.0550963      0.0023323615  -0.0012455611   20.554126      18.987308      1.566818      -1.5222903      18385.355    
    105000   1.0961413      0.0023323615   0.00043083356  20.759756      19.131986      1.6277698     -1.3545751      18471.046    
    106000   0.91177055     0.0023323615   0.0021382082   20.688204      19.334225      1.3539793     -1.2240328      18528.764    
    107000   1.0722306      0.0023323615  -0.00057245253  20.827772      19.235509      1.5922625     -1.3497831      18556.001    
    108000   0.91673585     0.0023323615  -0.0022488216   20.552157      19.190804      1.3613527     -1.425024       18400.712    
    109000   1.0339499      0.0023323615  -0.0024609732   20.570643      19.035227      1.5354155     -1.391255       18485.208    
    110000   1.0370565      0.0023323615  -0.0064549035   20.82984       19.289811      1.540029      -1.3332107      18330.7      
    111000   0.96936001     0.0023323615   0.00053185646  20.606582      19.167082      1.4394996     -1.3572789      18428.257    
    112000   0.89402509     0.0023323615   0.0002506578   20.651353      19.323726      1.3276273     -1.2309029      18464.13     
    113000   0.90711586     0.0023323615  -0.0013768334   20.413144      19.066077      1.3470671     -1.5115516      18652.955    
    114000   0.93626652     0.0023323615   5.0462727e-05  20.817091      19.426735      1.3903558     -1.2652832      18644.356    
    115000   1.0555433      0.0023323615  -6.9946952e-05  20.698294      19.130812      1.5674818     -1.4750915      18548.184    
    116000   0.85207645     0.0023323615   0.0051814869   20.52463       19.259297      1.2653335     -1.2763504      18508.874    
    117000   1.0228909      0.0023323615   0.0050345935   20.215941      18.696948      1.518993      -1.7964714      18420.962    
    118000   0.99046445     0.0023323615  -0.00080279806  20.720617      19.249778      1.4708397     -1.3084594      18390.433    
    119000   1.028272       0.0023323615  -0.0036421872   20.775039      19.248056      1.526984      -1.3163771      18563.807    
    120000   0.92742449     0.0023323615  -0.0018518161   20.625799      19.248574      1.3772254     -1.3747959      18478.213    
    121000   1.123587       0.0023323615   0.002876167    20.624879      18.956353      1.6685267     -1.5899137      18343.568    
    122000   1.0771178      0.0023323615   0.0013738293   20.609701      19.010182      1.5995199     -1.6202989      18402.761    
    123000   0.92581074     0.0023323615  -0.0029992444   20.493237      19.118408      1.3748289     -1.4634895      18404.631    
    124000   0.9479738      0.0023323615   0.0029642748   20.433126      19.025385      1.4077411     -1.510947       18289.248    
    125000   1.0051519      0.0023323615  -0.0041585722   20.306803      18.814152      1.4926505     -1.6509641      18201.049    
    126000   0.97057784     0.0023323615   0.0025115049   20.41076       18.969452      1.4413081     -1.5573402      18524.889    
    127000   0.94320258     0.0023323615  -0.0021797336   20.297625      18.896969      1.4006558     -1.5764101      18114.002    
    128000   0.93132958     0.0023323615  -0.0014018625   20.638763      19.255738      1.3830244     -1.3999513      18158.433    
    129000   0.87602009     0.0023323615  -0.0021718702   20.563353      19.262463      1.3008898     -1.3281398      18419.837    
    130000   1.0637735      0.0023323615   0.00018509078  20.656155      19.076452      1.5797037     -1.4359916      18541.423    
    131000   1.0241933      0.0023323615  -0.0021671865   20.407727      18.8868        1.5209271     -1.560909       18405.693    
    132000   0.97145962     0.0023323615   0.0022044624   20.447598      19.00498       1.4426175     -1.5305568      18307.534    
    133000   1.0297809      0.0023323615   0.0013887303   20.38515       18.855925      1.5292246     -1.6256842      18285.094    
    134000   0.97748636     0.0023323615   0.0016370851   20.429643      18.978076      1.4515672     -1.5730622      18395.296    
    135000   1.0001982      0.0023323615  -0.0002243283   20.515785      19.030491      1.4852943     -1.5371902      18430.97     
    136000   1.1272274      0.0023323615   0.0027826992   20.736389      19.062457      1.6739327     -1.464136       18315.029    
    137000   1.1099159      0.0023323615   0.00066148747  20.732944      19.084719      1.6482252     -1.4277659      18331.033    
    138000   1.0318863      0.0023323615  -0.00059619965  20.526623      18.994272      1.5323512     -1.5005793      18324.544    
    139000   1.1794375      0.0023323615  -0.0017656267   21.065229      19.313764      1.7514647     -1.3837416      18379.802    
    140000   1.0953118      0.0023323615  -0.0023754534   20.793251      19.166713      1.6265381     -1.4273212      18354.673    
    141000   1.0369874      0.0023323615   0.0012811803   20.583661      19.043734      1.5399263     -1.5251026      18403.623    
    142000   1.024795       0.0023323615   0.00053525171  20.449128      18.927307      1.5218206     -1.5608513      18299.881    
    143000   0.88458006     0.0023323615   0.00052239765  20.465101      19.1515        1.3136014     -1.4411172      18408.569    
    144000   0.93910482     0.0023323615   0.0014651044   20.347102      18.952532      1.3945707     -1.6121465      18446.768    
    145000   0.98610577     0.0023323615  -0.0035861302   20.496446      19.032079      1.4643671     -1.5122745      18356.459    
    146000   0.97194483     0.0023323615   0.0010358917   20.470133      19.026795      1.4433381     -1.4009385      18343.464    
    147000   1.0245157      0.0023323615   0.0046398658   20.743129      19.221723      1.5214059     -1.4554357      18423.373    
    148000   0.97244901     0.0023323615  -0.00016603411  20.797442      19.353356      1.4440868     -1.4903739      18297.855    
    149000   1.1207015      0.0023323615   0.0058418419   20.700735      19.036493      1.6642418     -1.4857166      18210.174    
    150000   1.0337246      0.0023323615   0.00077811998  20.693757      19.158676      1.5350811     -1.3432875      18429.38     
    151000   1.1330047      0.0023323615  -0.0013477633   20.711592      19.02908       1.6825121     -1.5436061      18321.803    
    152000   1.1409886      0.0023323615   0.0020110144   20.614837      18.920469      1.694368      -1.560189       18000.863    
    153000   0.91309811     0.0023323615  -0.0034339019   20.409656      19.053705      1.3559507     -1.4209571      18153.245    
    154000   1.0282249      0.0023323615   2.1824351e-06  20.610237      19.083323      1.526914      -1.4954665      18387.221    
    155000   1.1617756      0.0023323615  -0.0018190393   20.45951       18.734273      1.7252368     -1.7727429      18141.047    
    156000   0.96876188     0.0023323615   0.0021262859   20.471678      19.033067      1.4386114     -1.6176515      18191.426    
    157000   0.82166805     0.0023323615  -0.00038984545  20.000963      18.780786      1.2201771     -1.7215267      18112.861    
    158000   1.1060355      0.0023323615  -0.00083359788  20.453345      18.810882      1.6424627     -1.6747295      18248.695    
    159000   0.94775601     0.0023323615  -0.0044390972   20.586432      19.179014      1.4074177     -1.309254       18124.166    
    160000   0.99784525     0.0023323615   0.00094835533  20.569589      19.087789      1.4818002     -1.3637073      18192.258    
    161000   1.0406693      0.0023323615  -0.0024097091   20.732209      19.186815      1.5453939     -1.2872076      18331.09     
    162000   1.1367583      0.0023323615  -0.0017968598   20.5948        18.906714      1.688086      -1.586482       18230.912    
    163000   0.98947688     0.0023323615   0.0008373956   20.577397      19.108024      1.4693732     -1.3980191      18245.956    
    164000   0.97403918     0.0023323615  -0.0070238123   20.470612      19.024164      1.4464482     -1.5701315      18279.019    
    165000   1.0172824      0.0023323615  -0.0020154895   20.587956      19.077291      1.5106643     -1.4451379      18219.229    
    166000   1.0126738      0.0023323615  -0.0011120397   20.501396      18.997575      1.5038206     -1.4221277      18337.347    
    167000   1.0153114      0.0023323615   0.0018778552   20.67255       19.164813      1.5077374     -1.3325394      18404.699    
    168000   1.0618177      0.0023323615   0.00042638484  20.624942      19.048142      1.5767992     -1.4049706      18431.5      
    169000   0.94829527     0.0023323615   0.0016068387   20.4055        18.997282      1.4082185     -1.4677507      18285.198    
    170000   0.96411867     0.0023323615  -0.00086868523  20.431419      18.999703      1.4317162     -1.4996701      18239.311    
    171000   0.93117918     0.0023323615  -0.0025537286   20.447842      19.06504       1.3828011     -1.4919928      18350.762    
    172000   1.0375135      0.0023323615   0.0017899166   20.647975      19.107267      1.5407076     -1.4637386      18418.042    
    173000   1.0242559      0.0023323615  -0.0023196311   20.553447      19.032427      1.52102       -1.4648886      18415.117    
    174000   0.92485622     0.0023323615  -0.0022914538   20.532682      19.159271      1.3734115     -1.343662       18363.433    
    175000   1.1214908      0.0023323615   0.0028580316   20.684138      19.018724      1.6654139     -1.4482436      18317.698    
    176000   1.0698101      0.0023323615   0.00060433968  20.743267      19.154599      1.588668      -1.352306       18331.386    
    177000   0.98414606     0.0023323615  -0.00067980322  20.87147       19.410013      1.4614569     -1.1056427      18565.423    
    178000   1.0048218      0.0023323615   0.00070207828  20.808566      19.316405      1.4921603     -1.1379496      18696.063    
    179000   1.0412785      0.0023323615   0.0082903574   20.717876      19.171577      1.5462985     -1.3313108      18621.5      
    180000   1.1145048      0.0023323615   0.001797485    20.786629      19.131589      1.6550397     -1.3438111      18624.06     
    181000   1.0425407      0.0023323615  -0.0010144922   20.606237      19.058064      1.5481729     -1.3876134      18309.428    
    182000   0.95212289     0.0023323615  -0.0014787421   20.687576      19.273673      1.4139025     -1.3763901      18289.349    
    183000   1.1717716      0.0023323615  -0.0025685      21.058635      19.318555      1.7400808     -1.2807818      18392.781    
    184000   0.92109971     0.0023323615   0.0011595194   20.732129      19.364296      1.3678331     -1.1071531      18689.65     
    185000   0.92212048     0.0023323615   0.0010835856   20.635516      19.266167      1.3693489     -1.2488506      18664.085    
    186000   1.0300261      0.0023323615  -0.00080594989  20.671042      19.141453      1.5295888     -1.4008231      18362.419    
    187000   0.92957453     0.0023323615   0.0035579359   20.507376      19.126957      1.3804182     -1.3599673      18185.404    
    188000   0.93126426     0.0023323615   0.0031397942   20.331761      18.948834      1.3829274     -1.5231557      18144.428    
    189000   0.98165938     0.0023323615  -0.00030323047  20.603231      19.145467      1.4577642     -1.3629178      18006.614    
    190000   1.0202253      0.0023323615   0.0038944357   20.661994      19.146959      1.5150346     -1.3331984      18355.807    
    191000   1.0304279      0.0023323615  -0.0021302561   20.86436       19.334174      1.5301855     -1.283235       18346.684    
    192000   0.9829626      0.0023323615   0.00016837039  20.456192      18.996492      1.4596995     -1.487729       18328.532    
    193000   0.91639003     0.0023323615  -0.0013153452   20.514577      19.153737      1.3608392     -1.4308686      18308.746    
    194000   0.9284915      0.0023323615  -0.00015838098  20.348762      18.969952      1.3788099     -1.4258478      18301.878    
    195000   0.99167634     0.0023323615  -0.0016481907   20.65115       19.178511      1.4726394     -1.3387026      18618.877    
    196000   1.0421311      0.0023323615   0.0046141907   20.980802      19.433237      1.5475647     -1.2633433      18966.172    
    197000   0.98397408     0.0023323615  -0.00010569256  20.89083       19.429628      1.4612015     -1.0966296      18742.724    
    198000   1.0418997      0.0023323615   0.0041941218   20.782443      19.235222      1.547221      -1.2874083      18347.686    
    199000   0.96313767     0.0023323615  -0.0036659204   20.780046      19.349787      1.4302594     -1.2358348      18365.899    
    200000   1.0603678      0.0023323615   0.0017215287   20.971544      19.396898      1.5746461     -1.2253596      18574.427    
    201000   0.93771374     0.0023323615   0.0002620986   20.745817      19.353312      1.3925049     -1.162831       18847.978    
    202000   0.94270056     0.0023323615  -0.0011653896   20.647344      19.247434      1.3999103     -1.1477467      18738.544    
    203000   0.94257749     0.0023323615   0.00099240168  20.599536      19.199809      1.3997276     -1.37407        18677.378    
    204000   0.94983023     0.0023323615   0.00022866331  20.633683      19.223186      1.4104979     -1.2616873      18421.826    
    205000   0.86738631     0.0023323615  -0.0033841674   20.501677      19.213609      1.2880687     -1.2677032      18524.933    
    206000   0.97809302     0.0023323615  -0.00046761891  20.857119      19.404651      1.4524681     -1.0857977      19116.172    
    207000   1.0572256      0.0023323615  -2.639676e-05   20.876159      19.306179      1.56998       -1.2040973      19291.594    
    208000   1.1571516      0.0023323615   0.0014164586   20.933727      19.215357      1.7183701     -1.5056288      18580.599    
    209000   1.0322524      0.0023323615   0.0052626244   20.469057      18.936162      1.5328948     -1.5518394      18266.549    
    210000   0.93877222     0.0023323615  -0.0032643881   20.637332      19.243255      1.3940768     -1.3314739      18223.726    
    211000   1.1010797      0.0023323615  -0.001329447    20.789161      19.154058      1.6351034     -1.4357355      18214.235    
    212000   1.2178527      0.0023323615   0.0010517812   20.98256       19.174049      1.8085112     -1.4029816      18361.805    
    213000   1.0080967      0.0023323615  -0.00084206874  20.439038      18.942014      1.4970236     -1.6145501      18254.308    
    214000   0.93879586     0.0023323615   0.00013869905  20.032798      18.638687      1.3941119     -1.7618483      18214.587    
    215000   1.0589381      0.0023323615   0.00017944448  20.621303      19.04878       1.5725231     -1.4442662      18118.276    
    216000   0.99956736     0.0023323615  -0.0038837903   20.601881      19.117523      1.4843575     -1.466344       18193.913    
    217000   1.0191517      0.0023323615  -0.0027239385   20.406675      18.893235      1.5134403     -1.5163274      18206.723    
    218000   1.021729       0.0023323615  -0.00081164175  20.615039      19.097772      1.5172676     -1.3170221      18303.361    
    219000   0.97255378     0.0023323615  -0.00097740864  20.355219      18.910976      1.4442424     -1.4683579      18213.135    
    220000   1.0459805      0.0023323615  -0.0012723635   20.797188      19.243907      1.5532811     -1.1874445      18340.555    
    221000   1.0413042      0.0023323615   0.0017858402   20.603283      19.056946      1.5463367     -1.3741377      18307.994    
    222000   1.0963019      0.0023323615   0.0022700368   20.651328      19.02332       1.6280083     -1.4788234      18130.948    
    223000   1.1849655      0.0023323615  -0.0019132348   20.948395      19.188722      1.7596737     -1.4644585      18234.513    
    224000   0.95475661     0.0023323615  -0.0040640585   20.630459      19.212646      1.4178136     -1.252419       18273.123    
    225000   0.91529065     0.0023323615  -0.00030319712  20.606507      19.2473        1.3592066     -1.2936605      18371.822    
    226000   0.95746045     0.0023323615   0.0014155008   20.3018        18.879971      1.4218288     -1.568988       18281.704    
    227000   0.93076825     0.0023323615  -0.00089412651  20.440425      19.058234      1.3821909     -1.4350281      18226.631    
    228000   0.96876504     0.0023323615   0.0013317248   20.498254      19.059638      1.4386161     -1.4522357      18274.224    
    229000   1.0039607      0.0023323615  -6.4214601e-05  20.666728      19.175846      1.4908816     -1.3184438      18358.751    
    230000   0.94384988     0.0023323615   0.0012178643   20.458826      19.057209      1.4016171     -1.4309805      18404.984    
    231000   1.1350083      0.0023323615   0.0019585419   20.609965      18.924477      1.6854873     -1.6799597      18220.759    
    232000   0.95622906     0.0023323615  -0.0053233676   20.491163      19.071163      1.4200002     -1.4434909      18359.285    
    233000   0.9030314      0.0023323615  -0.0032299436   20.373859      19.032857      1.3410016     -1.4576212      18415.551    
    234000   0.99642926     0.0023323615   0.004878223    20.418811      18.939113      1.4796975     -1.5534591      18383.889    
    235000   1.0345787      0.0023323615  -0.002582863    20.885135      19.348786      1.5363494     -1.1242236      18304.455    
    236000   1.1155435      0.0023323615   0.0014799093   20.855333      19.198751      1.6565821     -1.4101207      18425.927    
    237000   0.87372047     0.0023323615  -0.0024503293   20.487228      19.189753      1.2974749     -1.3881328      18182.575    
    238000   1.0661905      0.0023323615  -0.0021961814   20.378006      18.794713      1.583293      -1.6410498      18195.289    
    239000   1.0821754      0.0023323615  -0.0051517588   20.490784      18.883754      1.6070305     -1.7304016      18154.12     
    240000   1.0008736      0.0023323615   0.0021109992   20.364275      18.877977      1.4862973     -1.6645238      18160.039    
    241000   1.1393643      0.0023323615  -0.0017550241   20.513723      18.821767      1.691956      -1.5821795      18355.882    
    242000   1.013498       0.0023323615  -0.0016583063   20.429505      18.92446       1.5050445     -1.5963098      18324.656    
    243000   0.91930738     0.0023323615   0.0012932895   20.604299      19.239128      1.3651715     -1.3115456      18385.642    
    244000   1.000744       0.0023323615   0.001616427    20.697461      19.211356      1.4861048     -1.2320957      18402.507    
    245000   0.89183445     0.0023323615  -0.0011612085   20.242924      18.91855       1.3243742     -1.5160391      18436.253    
    246000   0.88200768     0.0023323615  -0.00065367429  20.271748      18.961967      1.3097814     -1.5178625      18143.838    
    247000   1.1207881      0.0023323615   0.0011917076   20.573976      18.909606      1.6643703     -1.5584835      18251.214    
    248000   1.0492523      0.0023323615  -0.00021611445  20.461543      18.903403      1.5581397     -1.576332       18230.47     
    249000   0.80364706     0.0023323615   0.00012782857  20.264577      19.071161      1.1934159     -1.5576867      18127.865    
    250000   0.92239663     0.0023323615  -0.002128264    20.629073      19.259314      1.369759      -1.3387871      18205.039    
    251000   1.2623754      0.0023323615  -0.0017793613   21.15157       19.276943      1.8746275     -1.293756       18666.839    
    252000   0.9910527      0.0023323615   0.00038012805  20.382769      18.911056      1.4717133     -1.5404293      18293.905    
    253000   0.98471698     0.0023323615  -0.0013226567   20.526342      19.064037      1.4623047     -1.4919387      18263.393    
    254000   1.135824       0.0023323615   0.0046855333   21.029253      19.342555      1.6866987     -1.1561068      18416.21     
    255000   0.99091609     0.0023323615   3.9594817e-05  20.349292      18.877781      1.4715104     -1.6126282      18379.775    
    256000   0.94663905     0.0023323615  -0.0023452144   20.364594      18.958835      1.405759      -1.5190702      18180.279    
    257000   0.88577117     0.0023323615  -0.0054227583   20.301411      18.986041      1.3153702     -1.4756147      18202.148    
    258000   1.0117098      0.0023323615  -0.0042097029   20.754429      19.25204       1.502389      -1.219389       18321.087    
    259000   1.055252       0.0023323615  -0.00019002086  20.83012       19.263071      1.5670492     -1.4052787      18474.372    
    260000   0.99121827     0.0023323615   0.0017399952   20.547317      19.075358      1.4719591     -1.4839781      18279.82     
    261000   0.99904181     0.0023323615   0.0014771271   20.540174      19.056597      1.4835771     -1.5169162      18364.811    
    262000   0.98502491     0.0023323615   0.0003442186   20.634464      19.171702      1.462762      -1.3795859      18437.339    
    263000   1.0529796      0.0023323615   0.00078838238  21.016304      19.45263       1.5636747     -1.1630496      18482.98     
    264000   1.1293668      0.0023323615   5.5593328e-05  20.806189      19.129079      1.6771097     -1.2963506      18433.849    
    265000   1.1086161      0.0023323615  -0.0031821935   20.930072      19.283777      1.646295      -1.2226032      18554.984    
    266000   1.1592662      0.0023323615   0.0015424489   20.688401      18.966891      1.7215103     -1.554968       18293.15     
    267000   1.016463       0.0023323615   0.0038999028   20.853017      19.343569      1.5094476     -1.2345311      18352.547    
    268000   1.0541213      0.0023323615   0.0037548955   20.73426       19.16889       1.5653702     -1.3062296      18338.368    
    269000   0.9063325      0.0023323615  -0.0021281086   20.329251      18.983347      1.3459038     -1.474089       18201.839    
    270000   0.96886367     0.0023323615   0.0046323202   20.586955      19.148193      1.4387625     -1.3473271      18081.414    
    271000   0.94050893     0.0023323615  -0.0060776259   20.370237      18.973581      1.3966558     -1.5467939      18325.315    
    272000   1.0208547      0.0023323615   0.0018797218   20.358162      18.842193      1.5159692     -1.6096355      18243.855    
    273000   0.870882       0.0023323615   0.0017289789   20.2237        18.93044       1.2932598     -1.4817449      18347.368    
    274000   0.86982963     0.0023323615   0.0053764872   20.216399      18.924702      1.291697      -1.5767691      18341.664    
    275000   0.92559093     0.0023323615  -0.00086201434  20.153738      18.779236      1.3745025     -1.7275302      18128.942    
    276000   1.2053924      0.0023323615   0.0032268828   20.696227      18.90622       1.7900076     -1.5682405      18251.094    
    277000   1.1665319      0.0023323615  -6.9250263e-05  20.822245      19.089945      1.7322999     -1.4427635      18130.019    
    278000   1.0185653      0.0023323615  -0.0017859596   20.677501      19.164931      1.5125695     -1.2368534      18536.018    
    279000   1.1636185      0.0023323615   1.5751708e-05  20.863515      19.135542      1.7279734     -1.2624265      18449.434    
    280000   0.91018773     0.0023323615   0.003940135    20.560645      19.209016      1.3516288     -1.3986782      18239.011    
    281000   0.97859669     0.0023323615   0.0021748468   20.635011      19.181795      1.4532161     -1.482447       18320.616    
    282000   1.0253862      0.0023323615   0.00060090474  20.787376      19.264677      1.5226985     -1.3505216      18325.951    
    283000   0.92648809     0.0023323615  -0.00075000647  20.415652      19.039818      1.3758348     -1.3811924      18111.659    
    284000   1.0196727      0.0023323615  -0.0021847523   20.500639      18.986426      1.5142139     -1.4992633      18610.549    
    285000   0.91786753     0.0023323615  -8.0747592e-05  20.317326      18.954293      1.3630333     -1.4565526      18562.92     
    286000   1.1124668      0.0023323615  -0.0034956766   20.954711      19.302698      1.6520132     -1.4281217      18431.099    
    287000   1.0761999      0.0023323615  -0.00025773988  20.651404      19.053247      1.5981568     -1.6639948      18292.298    
    288000   1.0945679      0.0023323615   0.0067333603   20.585883      18.960449      1.6254334     -1.5217316      18214.598    
    289000   1.1051382      0.0023323615   0.00069552654  20.677587      19.036457      1.6411303     -1.3639369      18231.558    
    290000   1.0407065      0.0023323615   0.0020337317   20.580794      19.035345      1.5454492     -1.5186259      18387.929    
    291000   0.90021523     0.0023323615   0.0013962345   20.022649      18.685829      1.3368196     -1.7764952      18301.25     
    292000   1.1153622      0.0023323615   0.0013769208   20.34918       18.692867      1.6563128     -1.7277588      18326.365    
    293000   1.1003322      0.0023323615  -0.00024202838  20.731756      19.097762      1.6339934     -1.4485758      18167.708    
    294000   1.0089793      0.0023323615  -0.0026631908   20.735079      19.236744      1.4983342     -1.2865396      18358.262    
    295000   0.904028       0.0023323615   0.0019961884   20.622218      19.279736      1.3424816     -1.2148945      18578.434    
    296000   1.0100435      0.0023323615  -0.0017988555   20.592962      19.093047      1.4999147     -1.3002769      18500.081    
    297000   0.92463702     0.0023323615   0.0021960341   20.453394      19.080308      1.373086      -1.397767       18731.444    
    298000   0.93667087     0.0023323615  -0.0026365983   20.957076      19.56612       1.3909562     -1.1275354      19597.127    
    299000   0.91956816     0.0023323615   0.0051225808   20.301976      18.936417      1.3655587     -1.5573476      18833.62     
    300000   1.0062644      0.0023323615  -0.0036954525   20.479058      18.984755      1.4943026     -1.469784       18274.859    
    301000   0.99227584     0.0023323615  -0.00043320482  20.464095      18.990565      1.4735296     -1.5074023      18342.931    
    302000   1.0741356      0.0023323615  -0.0035578727   20.627356      19.032265      1.5950913     -1.5467443      18424.61     
    303000   1.1073149      0.0023323615  -6.9508177e-05  20.515715      18.871353      1.6443626     -1.5083974      18211.467    
    304000   0.92387316     0.0023323615  -0.00069687653  20.308126      18.936174      1.3719516     -1.6212389      18141.183    
    305000   0.99713494     0.0023323615  -0.00011473817  20.753437      19.272692      1.4807454     -1.3551691      18115.567    
    306000   0.98578636     0.0023323615   0.001744823    20.24742       18.783527      1.4638927     -1.6062984      18314.501    
    307000   1.0832512      0.0023323615   0.0013241393   20.769184      19.160556      1.6086281     -1.3123566      18244.148    
    308000   0.92315657     0.0023323615   0.0020837323   20.438486      19.067598      1.3708875     -1.4218663      18219.199    
    309000   1.0227394      0.0023323615  -0.0021218933   20.67403       19.155262      1.5187679     -1.3898807      18092.945    
    310000   1.0309424      0.0023323615   0.0014279551   20.509265      18.978315      1.5309495     -1.50924        18184.88     
    311000   1.037201       0.0023323615  -0.00082595672  20.73192       19.191677      1.5402434     -1.3661625      18252.94     
    312000   1.0059696      0.0023323615   0.00047750588  20.127637      18.633773      1.4938648     -1.7154999      18205.61     
    313000   0.97989622     0.0023323615  -0.0017345646   20.467594      19.012448      1.4551459     -1.5850211      18311.467    
    314000   0.91843728     0.0023323615  -0.00068391129  20.394147      19.030268      1.3638794     -1.4531558      18168.184    
    315000   1.1400799      0.0023323615   0.00056195041  20.758287      19.065268      1.6930186     -1.4346054      18348.755    
    316000   1.0273975      0.0023323615   0.00047777957  20.768467      19.242782      1.5256853     -1.296811       18654.74     
    317000   1.1059234      0.0023323615  -0.00071359439  20.828745      19.186448      1.6422962     -1.2773637      18780.441    
    318000   0.89920325     0.0023323615   0.0019750921   20.215011      18.879695      1.3353168     -1.6477734      18541.716    
    319000   0.98523022     0.0023323615   0.0031035881   20.536524      19.073457      1.4630669     -1.478033       18274.826    
    320000   0.96068898     0.0023323615  -0.0055654193   20.702856      19.276232      1.4266231     -1.2390647      18578.894    
    321000   0.98029143     0.0023323615  -0.0013758953   20.390561      18.934828      1.4557328     -1.6047166      18361.96     
    322000   0.98271052     0.0023323615  -0.002599032    20.634556      19.175231      1.4593251     -1.4672774      18323.142    
    323000   1.1320267      0.0023323615   0.0024030648   20.865907      19.184848      1.6810596     -1.4187872      18320.092    
    324000   0.94544627     0.0023323615  -0.0021569488   20.49018       19.086193      1.4039877     -1.4039357      18446.212    
    325000   0.99535496     0.0023323615  -0.0017540218   20.554735      19.076633      1.4781021     -1.3577893      18261.987    
    326000   0.86261745     0.0023323615   0.0011521871   20.243306      18.962319      1.2809869     -1.5986565      18160.482    
    327000   1.0220793      0.0023323615  -0.0013398943   20.583939      19.066152      1.5177877     -1.6742523      18134.634    
    328000   0.96252436     0.0023323615   0.00024714209  20.747387      19.318038      1.4293487     -1.254143       18404.21     
    329000   1.0118722      0.0023323615   0.0012524966   20.717749      19.215119      1.5026302     -1.3635796      18785.64     
    330000   1.005566       0.0023323615  -0.00089069651  20.583528      19.090263      1.4932654     -1.4448725      18542.333    
    331000   0.88539999     0.0023323615   0.0018524853   20.391365      19.076546      1.314819      -1.4005322      18439.263    
    332000   0.88683308     0.0023323615  -0.0043843844   20.56714       19.250193      1.3169471     -1.2950389      18338.328    
    333000   0.94229969     0.0023323615  -0.0021985158   20.502173      19.102858      1.399315      -1.5067674      18365.342    
    334000   0.94236639     0.0023323615  -0.0022628562   20.243646      18.844232      1.3994141     -1.6791005      18187.829    
    335000   1.0194768      0.0023323615   0.0038234354   20.543949      19.030026      1.513923      -1.4225966      18262.915    
    336000   1.0139592      0.0023323615  -0.00030121965  20.507041      19.001311      1.5057294     -1.4803287      18186.845    
    337000   0.98342925     0.0023323615  -0.00074820504  20.409857      18.949465      1.4603924     -1.5706634      18283.744    
    338000   1.0181999      0.0023323615   0.0008333956   20.537866      19.025839      1.5120268     -1.5453944      18300.653    
    339000   0.89855647     0.0023323615  -0.0013430757   20.393868      19.059511      1.3343564     -1.5281706      18378.618    
    340000   1.0296362      0.0023323615  -0.00043752702  20.508841      18.979831      1.5290097     -1.4921401      18225.923    
    341000   0.93329429     0.0023323615   0.00034574566  20.473023      19.087081      1.385942      -1.4122364      18273.053    
    342000   0.92109381     0.0023323615   0.0019160274   20.620391      19.252566      1.3678243     -1.3471758      18284.46     
    343000   0.96335679     0.0023323615  -0.0023709974   20.575285      19.1447        1.4305848     -1.5490995      18214.401    
    344000   1.1815605      0.0023323615   0.0011284118   20.843404      19.088787      1.7546173     -1.3699057      18239.151    
    345000   1.0179663      0.0023323615  -0.00013024331  20.496159      18.984479      1.5116799     -1.4677452      18317.113    
    346000   0.97800163     0.0023323615   0.00061270177  20.583111      19.130778      1.4523324     -1.4063142      18318.639    
    347000   1.042995       0.0023323615  -0.0017332562   20.638216      19.089369      1.5488475     -1.3939037      18363.919    
    348000   0.96305236     0.0023323615  -0.0032427732   20.57243       19.142297      1.4301328     -1.413485       18512.643    
    349000   0.90414487     0.0023323615  -0.0028899193   20.38438       19.041725      1.3426551     -1.388108       18260.77     
    350000   0.95181914     0.0023323615  -0.003974709    20.446819      19.033368      1.4134514     -1.5380677      18372.495    
    351000   0.94772266     0.0023323615   0.0041201894   20.599418      19.192049      1.4073682     -1.4374326      18299.227    
    352000   1.1082178      0.0023323615  -0.0046645507   20.673009      19.027306      1.6457034     -1.5612021      18383.306    
    353000   1.0316007      0.0023323615  -0.0015632909   20.683418      19.15149       1.5319271     -1.4400401      18361.987    
    354000   1.0320069      0.0023323615  -0.0037327435   20.918513      19.385982      1.5325302     -1.1783495      18244.062    
    355000   1.1311554      0.0023323615   0.0022941313   20.989686      19.30992       1.6797658     -1.212609       18719.306    
    356000   0.97768742     0.0023323615   0.00052713475  20.747849      19.295983      1.4518658     -1.2510542      18327.801    
    357000   0.93305597     0.0023323615  -0.0004936596   20.360441      18.974853      1.3855881     -1.5295361      18437.258    
    358000   0.95777252     0.0023323615   0.0037873146   20.835336      19.413044      1.4222922     -1.1661833      18268.621    
    359000   1.0497273      0.0023323615  -0.0027210666   20.595115      19.03627       1.5588451     -1.3999528      18618.321    
    360000   0.94462543     0.0023323615  -0.0029781989   20.604651      19.201882      1.4027688     -1.3413773      18485.568    
    361000   1.0416273      0.0023323615  -0.0039240193   20.561456      19.014639      1.5468166     -1.5289016      18343.386    
    362000   1.1499983      0.0023323615   0.00016634402  20.770616      19.062868      1.7077475     -1.4048109      18217.506    
    363000   0.97587967     0.0023323615  -0.0025796667   20.276335      18.827153      1.4491813     -1.6049989      18203.306    
    364000   0.97932539     0.0023323615   0.00056222817  20.572026      19.117728      1.4542982     -1.3342516      18119.497    
    365000   1.1069169      0.0023323615   0.00056169053  20.721156      19.077384      1.6437716     -1.4593481      18229.667    
    366000   0.81768365     0.0023323615  -0.0013329917   20.306832      19.092572      1.2142602     -1.4740758      18214.484    
    367000   0.94956825     0.0023323615   0.0014558966   20.328625      18.918516      1.4101089     -1.6424599      18174.397    
    368000   0.96626131     0.0023323615   0.0011608746   20.57073       19.135832      1.434898      -1.5822231      18235.099    
    369000   1.1908949      0.0023323615  -0.0011697852   20.80466       19.036181      1.768479      -1.5561603      18207.191    
    370000   1.0095887      0.0023323615   0.0011474007   20.684238      19.184999      1.4992392     -1.3571415      18125.209    
    371000   1.0815724      0.0023323615   0.0039189567   20.655764      19.049629      1.606135      -1.4317873      18380.172    
    372000   0.9205534      0.0023323615  -0.0033000371   20.283788      18.916767      1.3670218     -1.5351681      18392.815    
    373000   1.0726572      0.0023323615   0.0027866947   20.782675      19.189779      1.5928959     -1.3385323      18336.138    
    374000   1.0390985      0.0023323615  -2.1940379e-05  20.486826      18.943765      1.5430612     -1.4517602      18230.606    
    375000   1.0478797      0.0023323615  -0.00099480298  20.604248      19.048147      1.5561013     -1.4687247      18285.995    
    376000   1.049514       0.0023323615   0.0016484546   20.683983      19.125454      1.5585284     -1.4650147      18160.036    
    377000   1.0100161      0.0023323615   0.0044565043   20.3868        18.886926      1.4998739     -1.4360546      18296.094    
    378000   0.99332333     0.0023323615  -0.0011562741   20.440308      18.965223      1.4750851     -1.4233326      18121.26     
    379000   1.0064015      0.0023323615  -0.0012612446   20.639864      19.145358      1.4945062     -1.4036101      18410.426    
    380000   0.96284106     0.0023323615   0.0016326588   20.489357      19.059538      1.429819      -1.390976       18226.834    
    381000   0.78881728     0.0023323615   0.00025579908  20.00701       18.835616      1.1713937     -1.7356079      18301.455    
    382000   0.90929102     0.0023323615  -0.0021664842   20.557391      19.207094      1.3502972     -1.405858       18244.012    
    383000   1.1586198      0.0023323615  -0.0045189343   20.887786      19.167236      1.7205504     -1.3569063      18290.542    
    384000   1.0469998      0.0023323615   0.0019281363   20.534571      18.979777      1.5547947     -1.5542016      18205.461    
    385000   1.0846659      0.0023323615  -0.0022725606   20.54412       18.933391      1.6107288     -1.5667919      18245.923    
    386000   1.0655558      0.0023323615  -0.0016224159   20.466212      18.883862      1.5823504     -1.6103778      18130.552    
    387000   1.0553099      0.0023323615   0.0030961056   20.550892      18.983757      1.5671352     -1.5264316      18141.463    
    388000   0.98091058     0.0023323615  -0.0047631172   20.665637      19.208985      1.4566522     -1.4797531      18156.914    
    389000   0.98509609     0.0023323615  -0.00026955512  20.53941       19.076543      1.4628677     -1.5118949      18261.038    
    390000   1.0032289      0.0023323615  -0.00055553449  20.458769      18.968974      1.4897949     -1.4676789      18336.711    
    391000   1.0067006      0.0023323615  -0.0021728974   20.525047      19.030097      1.4949504     -1.4433925      18373.273    
    392000   1.0840821      0.0023323615   0.001810344    20.656349      19.046487      1.6098619     -1.5324707      18214.86     
    393000   1.1005328      0.0023323615  -0.0026436959   20.462006      18.827715      1.6342913     -1.6510115      18123.685    
    394000   1.0980838      0.0023323615   0.00090924179  20.725122      19.094468      1.6306544     -1.3990944      18386.906    
    395000   1.034449       0.0023323615  -0.0018553472   20.760316      19.22416       1.5361567     -1.2547456      18322.143    
    396000   0.97689875     0.0023323615  -0.0013477135   20.583107      19.132412      1.4506946     -1.3953942      18452.92     
    397000   0.95774402     0.0023323615  -0.0019921502   20.443438      19.021188      1.4222499     -1.533901       18165.939    
    398000   0.90398219     0.0023323615  -0.0020536363   20.179793      18.83738       1.3424135     -1.6688706      18379.122    
    399000   1.0184432      0.0023323615  -0.0029256533   20.496226      18.983838      1.5123882     -1.5923144      18178.7      
    400000   1.0240387      0.0023323615  -0.0051582169   20.799216      19.278518      1.5206975     -1.4514366      18322.802    
    401000   0.98420878     0.0023323615  -0.0016987633   20.610219      19.148669      1.46155       -1.3889618      18429.482    
    402000   1.0186947      0.0023323615   0.00072637387  20.572217      19.059455      1.5127617     -1.5418233      18393.259    
    403000   0.92347297     0.0023323615  -0.0024610251   20.508997      19.13764       1.3713574     -1.3553937      18386.564    
    404000   1.0180875      0.0023323615  -0.00044628689  20.446277      18.934417      1.51186       -1.621112       18338.971    
    405000   0.87614502     0.0023323615  -0.0043133106   20.348151      19.047075      1.3010754     -1.5534773      18360.886    
    406000   0.96778317     0.0023323615   2.0879851e-05  20.492157      19.054999      1.437158      -1.4801928      18216.984    
    407000   1.1095874      0.0023323615   0.0012819872   20.434846      18.787109      1.6477373     -1.631739       18251.187    
    408000   1.0711197      0.0023323615   0.0043760659   20.603076      19.012464      1.5906127     -1.4590134      18420.299    
    409000   1.0621337      0.0023323615   0.0017853348   20.615343      19.038075      1.5772686     -1.5092295      18403.124    
    410000   0.97669021     0.0023323615   0.0036781544   20.757816      19.307431      1.450385      -1.3171655      18338.964    
    411000   0.94845688     0.0023323615   0.0008418264   20.462223      19.053764      1.4084585     -1.3738097      18373.773    
    412000   0.89015228     0.0023323615  -0.0014293188   20.484981      19.163104      1.3218761     -1.3653984      18320.098    
    413000   1.1214004      0.0023323615   0.00042303129  20.701813      19.036533      1.6652796     -1.5144698      18348.91     
    414000   1.0130024      0.0023323615   0.0015043386   20.601193      19.096885      1.5043085     -1.5785684      18237.101    
    415000   0.97747131     0.0023323615   0.00042694395  20.550307      19.098762      1.4515449     -1.4420357      18324.134    
    416000   0.99675897     0.0023323615  -0.0011310313   20.724433      19.244246      1.4801871     -1.3590694      18541.107    
    417000   1.053991       0.0023323615   0.0046631542   20.675819      19.110642      1.5651766     -1.4284892      18329.084    
    418000   1.0271523      0.0023323615  -0.0018612582   20.888239      19.362917      1.5253212     -1.2595662      18359.791    
    419000   1.0848908      0.0023323615   0.0023571104   20.515269      18.904206      1.6110629     -1.5886581      18206.059    
    420000   1.071477       0.0023323615   0.0034544608   20.645361      19.054218      1.5911433     -1.4758855      18269.083    
    421000   0.93278683     0.0023323615  -0.007226591    20.584809      19.199621      1.3851884     -1.373748       18483.01     
    422000   0.9376879      0.0023323615  -0.0028991664   20.558924      19.166458      1.3924665     -1.4134993      18254.803    
    423000   1.1793028      0.0023323615   0.0028292939   20.90921       19.157945      1.7512646     -1.3992828      18380.368    
    424000   1.0222427      0.0023323615   0.0008052081   20.311686      18.793656      1.5180304     -1.6303632      18231.102    
    425000   0.98778474     0.0023323615  -0.0053415728   20.713444      19.246584      1.4668603     -1.3145164      18249.659    
    426000   0.9478707      0.0023323615   0.0011615714   20.427212      19.019624      1.407588      -1.4189731      18448.391    
    427000   0.95168847     0.0023323615   0.00099042275  20.453422      19.040164      1.4132574     -1.5314842      18275.314    
    428000   0.94698132     0.0023323615   0.00079721061  20.574163      19.167896      1.4062673     -1.3699607      18325.988    
    429000   0.92857423     0.0023323615  -0.004279077    20.304662      18.925729      1.3789327     -1.4706149      18349.652    
    430000   1.0311406      0.0023323615   0.0040973187   20.575118      19.043875      1.5312437     -1.4074612      18342.901    
    431000   0.90774474     0.0023323615   0.0015380514   20.593883      19.245882      1.3480009     -1.2423101      18387.888    
    432000   0.85678415     0.0023323615  -0.00038938703  20.277485      19.005161      1.2723245     -1.4359545      18414.369    
    433000   0.83302008     0.0023323615  -0.0032495703   20.565731      19.328697      1.2370348     -1.3026026      18259.578    
    434000   0.99201231     0.0023323615   0.0039388107   20.696847      19.223709      1.4731383     -1.4593487      18355.929    
    435000   1.1641587      0.0023323615  -0.00068877138  20.951716      19.22294       1.7287757     -1.356005       18221.989    
    436000   0.94873628     0.0023323615   0.00090080557  20.228423      18.81955       1.4088734     -1.5772472      18125.426    
    437000   0.93821794     0.0023323615   0.00049773796  20.450754      19.057501      1.3932536     -1.509312       18243.832    
    438000   0.95070294     0.0023323615  -0.0001810338   20.379208      18.967414      1.4117939     -1.5003332      18268.431    
    439000   1.0000312      0.0023323615   0.0018849917   20.706525      19.221479      1.4850463     -1.3344209      18300.274    
    440000   0.9675458      0.0023323615   0.00018190475  20.359271      18.922465      1.4368055     -1.6394351      18254.962    
    441000   1.0844424      0.0023323615   0.0024513438   20.691138      19.080741      1.6103969     -1.5049781      18376.781    
    442000   1.0831947      0.0023323615   0.0025207106   20.727225      19.118681      1.6085441     -1.340554       18426.934    
    443000   1.1004721      0.0023323615   0.0032499396   20.649842      19.015641      1.6342011     -1.3897569      18307.716    
    444000   1.1676598      0.0023323615  -0.0001040691   20.961845      19.22787       1.7339747     -1.2908768      18034.582    
    445000   1.1834332      0.0023323615  -0.0017608458   20.868384      19.110986      1.7573983     -1.5127121      18352.388    
    446000   1.0020917      0.0023323615   1.086883e-05   20.684281      19.196175      1.4881061     -1.2457557      18281.815    
    447000   1.0200469      0.0023323615   0.0020314837   20.392739      18.877969      1.5147697     -1.5783492      18319.167    
    448000   1.0152936      0.0023323615  -0.00088194416  20.299033      18.791322      1.5077109     -1.6193798      18234.856    
    449000   0.90811009     0.0023323615  -0.0019521093   20.47982       19.131276      1.3485435     -1.4286621      18250.647    
    450000   1.1381221      0.0023323615  -0.0034737901   20.966824      19.276713      1.6901114     -1.262058       18296.819    
    451000   1.0256257      0.0023323615   0.0018086189   20.826599      19.303545      1.5230542     -1.326394       18292.691    
    452000   0.97496896     0.0023323615   0.0029643375   20.44256       18.994731      1.4478289     -1.5111303      18306.325    
    453000   1.0600566      0.0023323615  -0.0019973226   20.768463      19.194279      1.574184      -1.4697039      18352.065    
    454000   1.0239679      0.0023323615   0.0018849429   20.877776      19.357184      1.5205923     -1.1478246      18597.459    
    455000   1.0176574      0.0023323615  -0.0024124584   20.483579      18.972357      1.5112213     -1.4826286      18374.237    
    456000   1.0054047      0.0023323615   0.0015605094   20.709339      19.216313      1.493026      -1.3232646      18406.868    
    457000   0.93781589     0.0023323615  -0.0010902193   20.507015      19.114358      1.3926566     -1.3568273      18440.528    
    458000   0.97136533     0.0023323615  -0.0042191903   20.697105      19.254627      1.4424775     -1.3479969      18277.028    
    459000   0.95983769     0.0023323615  -0.0018828343   20.691902      19.266543      1.425359      -1.3652471      18245.569    
    460000   1.0285808      0.0023323615   0.0010786171   20.702059      19.174616      1.5274425     -1.3985355      18291.028    
    461000   0.98101662     0.0023323615   0.0037868915   20.623242      19.166433      1.4568097     -1.425925       18206.627    
    462000   0.88137471     0.0023323615   0.0025915123   20.04012       18.731279      1.3088414     -1.647346       18182.869    
    463000   0.9204314      0.0023323615   0.0044243466   20.558193      19.191353      1.3668406     -1.4312291      18330.477    
    464000   1.0364858      0.0023323615   0.00051457254  20.875169      19.335988      1.5391814     -1.3339316      18335.771    
    465000   1.0106086      0.0023323615   0.0020877017   20.600993      19.100239      1.5007538     -1.3944842      18406.596    
    466000   0.89336422     0.0023323615  -0.0026566874   20.1545        18.827854      1.3266459     -1.5751486      18297.023    
    467000   0.96052214     0.0023323615  -0.0018910539   20.734531      19.308156      1.4263754     -1.2414676      18333.467    
    468000   0.94792203     0.0023323615   0.0027824876   20.462146      19.054481      1.4076642     -1.316606       18453.026    
    469000   1.0159079      0.0023323615   0.002915265    20.393439      18.884816      1.5086232     -1.5885942      18154.695    
    470000   0.82364617     0.0023323615   7.1426909e-05  20.233379      19.010264      1.2231146     -1.4569883      18275.305    
    471000   0.92743731     0.0023323615   9.2076906e-05  20.449528      19.072283      1.3772444     -1.3706707      18300.435    
    472000   1.0561073      0.0023323615   0.0025282739   20.66922       19.1009        1.5683194     -1.3365423      18335.835    
    473000   0.88333271     0.0023323615   0.0016395632   20.492         19.180251      1.3117491     -1.323677       18656.295    
    474000   1.041077       0.0023323615  -0.00012827492  20.703439      19.157439      1.5459994     -1.3845215      18429.387    
    475000   0.93273725     0.0023323615  -0.00075404254  20.482871      19.097756      1.3851148     -1.5223913      18373.35     
    476000   0.85842248     0.0023323615   0.0021159998   20.271672      18.996915      1.2747574     -1.465815       18448.95     
    477000   1.0438808      0.0023323615   0.003836913    20.430279      18.880116      1.550163      -1.5870179      18466.682    
    478000   1.0154376      0.0023323615  -0.0022760257   20.59959       19.091665      1.5079248     -1.3824659      18356.179    
    479000   1.0087634      0.0023323615   0.0024992948   20.515695      19.017681      1.4980137     -1.4802291      18333.228    
    480000   0.93467525     0.0023323615  -0.0014503857   20.30193       18.913938      1.3879927     -1.5554751      18252.756    
    481000   0.88793104     0.0023323615  -0.002620254    20.40499       19.086412      1.3185776     -1.4021842      18314.407    
    482000   1.0523091      0.0023323615  -0.0010496619   20.738311      19.175632      1.562679      -1.3479956      18377.718    
    483000   1.0088587      0.0023323615   0.0014741746   20.51038       19.012224      1.4981552     -1.4669798      18326.062    
    484000   1.0192082      0.0023323615   0.0021150246   20.795797      19.282273      1.5135242     -1.2388814      18370.371    
    485000   0.85439635     0.0023323615   0.00053443362  20.213581      18.944803      1.2687786     -1.4764829      18271.989    
    486000   0.90030747     0.0023323615  -0.00089187532  20.518089      19.181133      1.3369566     -1.371604       18403.878    
    487000   1.0508956      0.0023323615  -0.00063572939  20.656476      19.095896      1.56058       -1.4436477      18419.082    
    488000   1.0182361      0.0023323615  -0.0032930135   20.363482      18.851402      1.5120807     -1.6470908      18389.152    
    489000   0.92265182     0.0023323615  -0.00019812879  20.521773      19.151635      1.370138      -1.4905768      18449.601    
    490000   0.84989895     0.0023323615  -0.0069241983   20.500202      19.238102      1.2620999     -1.3736205      18289.996    
    491000   1.0566131      0.0023323615   0.0018689122   20.389332      18.820261      1.5690705     -1.7064195      18250.31     
    492000   0.99616539     0.0023323615  -0.00033619788  20.62158       19.142275      1.4793056     -1.4561343      18323.095    
    493000   0.99738768     0.0023323615   0.00018083209  20.593494      19.112373      1.4811207     -1.5181508      18267.615    
    494000   0.8668531      0.0023323615  -0.00053544732  20.245061      18.957784      1.2872769     -1.5466796      18123.297    
    495000   1.0006729      0.0023323615   0.0018766982   20.463971      18.977972      1.4859993     -1.6151429      18433.866    
    496000   1.0293773      0.0023323615   0.00037421089  20.453746      18.92512       1.5286253     -1.55777        18267.976    
    497000   1.1874787      0.0023323615   0.0026728163   20.675167      18.911761      1.7634058     -1.5988309      18146.523    
    498000   1.0955232      0.0023323615   0.0013234971   20.705108      19.078256      1.6268519     -1.3585376      18402.402    
    499000   0.9668021      0.0023323615   0.0018120728   20.494253      19.058552      1.4357011     -1.417177       18435.633    
    500000   0.97103113     0.0023323615  -0.00028246712  20.355152      18.913171      1.4419812     -1.5604614      18447.807    
    501000   0.96455357     0.0023323615   0.0029421115   20.444064      19.011702      1.432362      -1.4229811      18387.089    
    502000   1.075213       0.0023323615  -0.003202664    20.780486      19.183795      1.5966914     -1.2564242      18255.734    
    503000   1.0105059      0.0023323615  -0.001469185    20.668526      19.167925      1.5006013     -1.3578384      18372.711    
    504000   1.2180464      0.0023323615   0.0037486151   20.888408      19.079609      1.8087989     -1.5184175      18377.918    
    505000   0.89669319     0.0023323615   0.00077355134  20.510279      19.178689      1.3315894     -1.3746117      18378.74     
    506000   1.009489       0.0023323615  -0.0033109795   20.501749      19.002658      1.4990911     -1.3963483      18285.278    
    507000   0.93032788     0.0023323615  -0.0021494229   20.417676      19.036139      1.3815369     -1.4896732      18205.457    
    508000   1.1612246      0.0023323615  -0.0010113734   21.050866      19.326448      1.7244185     -1.372479       18337.819    
    509000   0.96181844     0.0023323615   0.0015560739   20.474826      19.046525      1.4283004     -1.4700437      18095.749    
    510000   1.0310149      0.0023323615   0.0012605992   20.609546      19.078489      1.5310571     -1.3920323      18377.461    
    511000   1.1249335      0.0023323615  -0.00099139548  21.073777      19.403251      1.6705262     -1.2722797      18373.279    
    512000   0.97553752     0.0023323615  -3.840177e-05   20.55483       19.106157      1.4486732     -1.5058273      18336.347    
    513000   0.9276457      0.0023323615   0.0025774965   20.728738      19.351185      1.3775539     -1.3285716      18120.026    
    514000   1.0559287      0.0023323615   0.00048334257  20.828544      19.26049       1.5680542     -1.2739081      18323.017    
    515000   1.0263816      0.0023323615   0.0020422627   20.544408      19.020232      1.5241767     -1.4402819      18390.345    
    516000   1.0174662      0.0023323615  -0.0024261592   20.431123      18.920186      1.5109373     -1.5527104      18385.534    
    517000   0.98106686     0.0023323615   8.4919807e-06  20.265981      18.809097      1.4568843     -1.7249655      18043.792    
    518000   0.9639006      0.0023323615  -0.00054755948  20.473067      19.041674      1.4313924     -1.4632966      18230.423    
    519000   0.87747731     0.0023323615   0.0030293913   20.521161      19.218107      1.3030538     -1.4122825      18143.283    
    520000   0.99451845     0.0023323615   0.0018129888   20.483988      19.007128      1.4768599     -1.4943617      18124.945    
    521000   0.88721886     0.0023323615   0.0031066304   20.523978      19.206458      1.31752       -1.3617349      18328.532    
    522000   1.0084395      0.0023323615  -0.0035109188   20.508142      19.01061       1.4975326     -1.4623999      18669.28     
    523000   0.95658234     0.0023323615   0.0035481985   20.531643      19.111118      1.4205248     -1.2960181      18485.417    
    524000   0.83226637     0.0023323615  -0.0024249429   20.626088      19.390172      1.2359156     -1.3042208      18331.437    
    525000   0.95710834     0.0023323615   0.00032500667  20.414921      18.993615      1.4213059     -1.5089491      18347.072    
    526000   1.177995       0.0023323615  -0.00020644305  20.905168      19.155846      1.7493226     -1.4021222      18275.8      
    527000   0.82661912     0.0023323615  -0.0020678358   20.216459      18.98893       1.2275294     -1.5990859      18387.163    
    528000   0.9992055      0.0023323615   0.0022765115   20.672151      19.188331      1.4838202     -1.2531235      18379.992    
    529000   0.968813       0.0023323615  -0.0060351241   20.819025      19.380337      1.4386873     -1.2695747      18682.783    
    530000   0.81394916     0.0023323615   0.0041785242   20.10905       18.900336      1.2087145     -1.5358658      18608.425    
    531000   1.0183835      0.0023323615   0.00026246102  20.727961      19.215662      1.5122995     -1.2474517      18588.087    
    532000   1.0114247      0.0023323615  -0.0014435863   20.6584        19.156434      1.5019657     -1.3750762      18337.341    
    533000   0.96500993     0.0023323615  -0.0011143485   20.535293      19.102254      1.4330397     -1.4435263      18273.514    
    534000   0.98307519     0.0023323615   0.0038791716   20.695963      19.236096      1.4598667     -1.2217363      18417.312    
    535000   0.9041685      0.0023323615  -0.0059793964   20.586001      19.243311      1.3426902     -1.2632613      18412.772    
    536000   1.0303382      0.0023323615  -0.001851036    20.869161      19.339109      1.5300522     -1.1384293      18662.71     
    537000   0.9812584      0.0023323615   0.00093452255  20.691446      19.234277      1.4571687     -1.1776313      18657.024    
    538000   0.95670915     0.0023323615  -0.0073092221   20.698745      19.278031      1.4207131     -1.2286213      18548.07     
    539000   1.0234137      0.0023323615   0.0031901698   20.595308      19.075538      1.5197694     -1.3603623      18599.181    
    540000   1.0815714      0.0023323615   0.0029728374   20.419487      18.813353      1.6061336     -1.6149976      18426.791    
    541000   0.89409043     0.0023323615   0.0019943541   20.619184      19.29146       1.3277243     -1.2917669      18454.06     
    542000   1.0482738      0.0023323615  -0.0031408708   20.657009      19.100322      1.5566865     -1.4022085      18295.021    
    543000   1.0710823      0.0023323615  -0.00016446581  20.783244      19.192687      1.5905572     -1.27276        18306.282    
    544000   0.98163729     0.0023323615   0.00045400903  20.421779      18.964047      1.4577314     -1.5194322      18360.041    
    545000   1.0865589      0.0023323615  -0.0041688164   20.704026      19.090486      1.61354       -1.4703736      18283.6      
    546000   0.87871788     0.0023323615   0.0026063988   20.633188      19.328292      1.3048961     -1.1976995      18414.253    
    547000   1.0747675      0.0023323615  -0.002146896    20.500865      18.904835      1.5960297     -1.6077787      18353.094    
    548000   1.002097       0.0023323615   0.00095592447  20.709614      19.2215        1.488114      -1.230285       18320.008    
    549000   1.0312992      0.0023323615  -0.0014812272   20.56949       19.038011      1.5314794     -1.4815468      18496.814    
    550000   1.0319633      0.0023323615   0.0034806097   20.251591      18.719126      1.5324655     -1.7743042      18163.635    
    551000   1.0139965      0.0023323615  -0.0021115883   20.52682       19.021036      1.5057848     -1.4378598      18200.07     
    552000   0.95572699     0.0023323615  -1.6253186e-05  20.22206       18.802805      1.4192546     -1.6470698      18255.681    
    553000   1.0556755      0.0023323615   0.0034321897   20.732045      19.164367      1.5676781     -1.3738112      18480.971    
    554000   1.0084028      0.0023323615   0.00078587676  20.800857      19.303378      1.4974782     -1.1155999      18578.6      
    555000   1.0969303      0.0023323615   0.00084429923  20.637936      19.008995      1.6289415     -1.5264249      18607.086    
    556000   1.0733542      0.0023323615  -0.0019308355   20.934035      19.340104      1.593931      -1.3874852      18719.391    
    557000   1.1125818      0.0023323615   0.001007599    21.110037      19.457854      1.6521839     -1.0174859      19050.575    
    558000   1.0111374      0.0023323615   0.0019890434   20.598643      19.097104      1.501539      -1.3581977      19130.293    
    559000   1.1447738      0.0023323615   0.0039977559   20.798111      19.098122      1.699989      -1.2587172      19014.008    
    560000   0.99436079     0.0023323615   0.002108379    20.726527      19.249901      1.4766258     -1.2074061      18609.321    
    561000   1.0816934      0.0023323615   0.0023236827   20.769254      19.16294       1.6063148     -1.3293759      18442.098    
    562000   1.2713809      0.0023323615  -0.00095693946  20.90957       19.021569      1.8880006     -1.4456018      18219.777    
    563000   1.0082559      0.0023323615   0.00035110429  20.376954      18.879694      1.49726       -1.5651415      18249.102    
    564000   0.99397896     0.0023323615   0.0051053837   20.758766      19.282707      1.4760588     -1.2866013      18423.148    
    565000   0.95319992     0.0023323615   0.00093287525  20.605759      19.190257      1.4155019     -1.3547487      18629.643    
    566000   0.99282317     0.0023323615  -0.0039117117   20.446809      18.972466      1.4743424     -1.5008494      18531.379    
    567000   1.0414596      0.0023323615   0.0029838899   20.824944      19.278376      1.5465675     -1.3588077      18419.347    
    568000   0.899484       0.0023323615  -0.0026311488   20.47305       19.137316      1.3357337     -1.4576265      18398.307    
    569000   1.0354417      0.0023323615  -0.00021481462  20.416843      18.879212      1.5376309     -1.5464245      18164.987    
    570000   0.89844853     0.0023323615  -0.0031010665   20.706985      19.372789      1.3341961     -1.2071835      18328.633    
    571000   1.0610531      0.0023323615   0.0031540627   20.60366       19.027996      1.5756639     -1.4524926      18526.546    
    572000   1.0378692      0.0023323615  -0.00054878571  20.7104        19.169165      1.5412357     -1.3898136      18430.887    
    573000   1.0616579      0.0023323615  -0.00040471753  20.850706      19.274144      1.576562      -1.320333       18413.931    
    574000   1.0753409      0.0023323615   0.0021610879   20.705231      19.10835       1.5968813     -1.4493231      18233.52     
    575000   1.0495054      0.0023323615   0.0015898618   20.517889      18.959373      1.5585156     -1.6038344      18338.422    
    576000   1.1068716      0.0023323615  -0.0040563083   20.674998      19.031294      1.6437043     -1.3898928      18339.756    
    577000   0.93830861     0.0023323615   0.0013975056   20.448943      19.055555      1.3933883     -1.3744889      18578.531    
    578000   0.97197547     0.0023323615   0.00092047726  20.752534      19.309151      1.4433836     -1.2871781      18681.649    
    579000   1.266156       0.0023323615  -0.0029296609   20.977876      19.097634      1.8802417     -1.524973       18633.584    
    580000   1.0399496      0.0023323615  -0.0036322473   20.704233      19.159908      1.5443252     -1.4659803      18376.845    
    581000   0.94857403     0.0023323615  -0.0031991975   20.667012      19.258379      1.4086324     -1.4200708      18346.934    
    582000   1.1268724      0.0023323615  -0.00029172194  20.826886      19.15348       1.6734056     -1.3469783      18375.323    
    583000   1.0009589      0.0023323615   0.00098003885  20.554015      19.067591      1.4864239     -1.4605095      18273.655    
    584000   1.0199084      0.0023323615   0.00012140662  20.455365      18.940801      1.514564      -1.528596       18231.202    
    585000   0.90017047     0.0023323615  -0.00039169449  20.397786      19.061033      1.3367532     -1.5748474      18250.583    
    586000   0.96851398     0.0023323615  -0.0015956592   20.382708      18.944465      1.4382433     -1.5466867      18218.613    
    587000   0.90195246     0.0023323615  -0.00081858561  20.323084      18.983684      1.3393994     -1.6131014      18283.566    
    588000   0.87558679     0.0023323615  -0.0043558464   20.462878      19.162632      1.3002464     -1.389986       18203.838    
    589000   0.98993019     0.0023323615  -0.0038462925   20.718271      19.248225      1.4700463     -1.3737723      18392.588    
    590000   1.1548071      0.0023323615  -0.0024791362   20.905273      19.190384      1.7148886     -1.2109643      18433.423    
    591000   1.0577146      0.0023323615  -0.0016731119   20.699426      19.12872       1.5707063     -1.4145622      18469.368    
    592000   0.98537744     0.0023323615   0.0012571039   20.696732      19.233446      1.4632855     -1.263833       18488.916    
    593000   0.88866044     0.0023323615  -0.0006440192   20.541792      19.222132      1.3196608     -1.2648714      18725.389    
    594000   0.86252916     0.0023323615   0.003419368    20.427327      19.146471      1.2808558     -1.35287        19323.684    
    595000   1.1504605      0.0023323615   0.00033097266  21.051796      19.343362      1.7084339     -1.1519618      20302.449    
    596000   1.0954421      0.0023323615   0.0018247917   21.028009      19.401278      1.6267315     -1.033133       20588.013    
    597000   0.98605214     0.0023323615  -0.003218156    20.646126      19.181838      1.4642874     -1.2547895      20015.592    
    598000   0.98043968     0.0023323615  -0.0027091033   20.764563      19.30861       1.4559529     -1.16102        19220.295    
    599000   1.0588856      0.0023323615  -0.00099153422  20.804313      19.231868      1.5724451     -1.3381265      18682.468    
    600000   0.99172042     0.0023323615  -0.0010914658   20.43708       18.964375      1.4727048     -1.4943269      18310.006    
    601000   1.0049768      0.0023323615   0.00062516651  20.198442      18.706052      1.4923905     -1.7042419      18407.082    
    602000   0.95878828     0.0023323615   0.0036044545   20.584088      19.160287      1.4238006     -1.438912       18193.289    
    603000   1.1146233      0.0023323615  -0.00017111008  20.852989      19.197773      1.6552155     -1.4437732      18141.934    
    604000   1.0532135      0.0023323615   0.0030557256   20.811136      19.247114      1.564022      -1.3739508      18326.671    
    605000   0.97912055     0.0023323615  -0.0048885144   20.679358      19.225364      1.453994      -1.289348       18466.695    
    606000   0.96156104     0.0023323615   0.00051420946  20.571042      19.143124      1.4279181     -1.4331147      18384.447    
    607000   1.0326098      0.0023323615  -0.0043364188   20.73269       19.199265      1.5334255     -1.4341986      18475.932    
    608000   1.1793317      0.0023323615   0.007161221    20.822         19.070693      1.7513076     -1.589187       18409.849    
    609000   0.87351717     0.0023323615   0.00025060931  20.442951      19.145778      1.297173      -1.4097805      18330.45     
    610000   0.85099947     0.0023323615  -0.0031797805   20.20764       18.943906      1.2637342     -1.4882648      18125.788    
    611000   1.0767972      0.0023323615  -0.0013861912   20.868127      19.269083      1.5990438     -1.3345025      18400.342    
    612000   1.1784048      0.0023323615   0.0011016031   20.934974      19.185043      1.7499312     -1.1869333      18528.382    
    613000   1.034904       0.0023323615  -0.0028548199   20.742746      19.205913      1.5368324     -1.3976438      18678.293    
    614000   1.0453224      0.0023323615  -0.00062913563  20.585499      19.033195      1.5523037     -1.455417       18566.539    
    615000   1.0896551      0.0023323615  -0.00023090652  20.554241      18.936103      1.6181378     -1.5756269      18475.74     
    616000   0.81435561     0.0023323615   0.0013989751   20.178096      18.968778      1.2093181     -1.4349429      18306.188    
    617000   1.0601278      0.0023323615   0.00091913234  20.629971      19.055682      1.5742898     -1.4390865      18154.024    
    618000   0.8492211      0.0023323615   0.0023185741   20.326394      19.0653        1.2610933     -1.3625756      18349.595    
    619000   0.92242079     0.0023323615   0.00065322985  20.739664      19.369869      1.3697949     -1.2259157      18830.22     
    620000   0.91344625     0.0023323615   0.00010587324  20.638379      19.281911      1.3564677     -1.1663005      18923.142    
    621000   1.0959719      0.0023323615   0.0013071567   20.649539      19.02202       1.6275182     -1.4479723      18454.425    
    622000   0.91950264     0.0023323615   0.0014463477   20.409564      19.044103      1.3654614     -1.5075822      18222.312    
    623000   1.0526111      0.0023323615   0.0016840151   20.431336      18.868208      1.5631275     -1.5302551      18188.833    
    624000   1.0376398      0.0023323615  -0.0047334168   20.741998      19.201103      1.540895      -1.2258118      18244.259    
    625000   0.92439214     0.0023323615   0.0024804447   20.248558      18.875835      1.3727223     -1.6137023      18308.501    
    626000   1.1028374      0.0023323615   0.0017157528   20.588098      18.950384      1.6377135     -1.5773227      18058.74     
    627000   0.96222445     0.0023323615   0.0013663631   20.305586      18.876683      1.4289033     -1.6365169      18222.867    
    628000   0.97040101     0.0023323615  -0.00027876277  20.659487      19.218441      1.4410455     -1.2780934      18251.908    
    629000   0.90742475     0.0023323615   0.0016139243   20.3975        19.049974      1.3475258     -1.4116176      18226.864    
    630000   0.85329242     0.0023323615  -0.0028600983   20.351373      19.084234      1.2671392     -1.422686       18211.44     
    631000   1.0175997      0.0023323615   0.00069610188  20.402525      18.891389      1.5111355     -1.5723602      18218.816    
    632000   0.94862296     0.0023323615  -0.00026968947  20.5058        19.097095      1.4087051     -1.4201394      18266.298    
    633000   1.0391903      0.0023323615  -0.00079577128  20.818425      19.275227      1.5431976     -1.3192806      18451.746    
    634000   0.9425454      0.0023323615  -0.0030116653   20.634269      19.234589      1.3996799     -1.2684193      18457.96     
    635000   0.97125511     0.0023323615   0.00015739664  20.653511      19.211197      1.4423138     -1.3659574      18343.558    
    636000   1.1234178      0.0023323615   6.8544238e-05  20.86497       19.196695      1.6682754     -1.4542398      18298.456    
    637000   0.94479609     0.0023323615   0.0067947988   20.111467      18.708445      1.4030222     -1.7543683      18248.448    
    638000   1.0492085      0.0023323615   0.0029784216   20.342098      18.784024      1.5580746     -1.6634877      18128.682    
    639000   0.963053       0.0023323615   0.0020809999   20.302505      18.872372      1.4301337     -1.5892854      18089.58     
    640000   0.92984644     0.0023323615   0.0019557683   20.198388      18.817566      1.380822      -1.5562753      18179.346    
    641000   0.906459       0.0023323615  -0.0010590871   20.118348      18.772257      1.3460916     -1.7007213      18292.577    
    642000   1.0642171      0.0023323615  -0.0026508109   20.785387      19.205025      1.5803623     -1.2710138      18194.639    
    643000   1.0340501      0.0023323615   0.002825812    20.645339      19.109774      1.5355644     -1.3015541      18374.917    
    644000   0.88102712     0.0023323615  -0.0017013923   20.350755      19.042429      1.3083253     -1.4876739      18248.982    
    645000   1.0587987      0.0023323615   0.0055427698   20.786213      19.213897      1.5723161     -1.3371254      18363.517    
    646000   0.99603113     0.0023323615   0.00098555279  20.561687      19.082581      1.4791062     -1.446788       18459.2      
    647000   0.89768048     0.0023323615  -0.0031163023   20.452539      19.119484      1.3330555     -1.5336864      18283.446    
    648000   0.99206036     0.0023323615  -0.00052237378  20.569409      19.096199      1.4732096     -1.4658449      18298.872    
    649000   0.85858264     0.0023323615   0.0016833863   20.50358       19.228584      1.2749952     -1.4290368      18098.758    
    650000   0.86645174     0.0023323615  -0.0022275331   20.013663      18.726983      1.2866808     -1.7074581      18160.591    
    651000   1.0287933      0.0023323615  -0.0032939236   20.520901      18.993143      1.527758      -1.5585063      18137.224    
    652000   1.041052       0.0023323615   0.00018390852  20.512347      18.966385      1.5459623     -1.5655802      18219.192    
    653000   0.85419191     0.0023323615   0.0012832917   20.064015      18.79554       1.268475      -1.679813       18245.082    
    654000   1.0027356      0.0023323615   4.4098388e-05  20.408852      18.91979       1.4890623     -1.5946867      18259.364    
    655000   0.9474028      0.0023323615  -0.00049006185  20.062088      18.655195      1.4068932     -1.7522937      18299.922    
    656000   0.9738036      0.0023323615  -0.00031646877  20.623013      19.176915      1.4460983     -1.3748321      18278.795    
    657000   1.1514679      0.0023323615  -0.0012834518   20.828765      19.118835      1.7099299     -1.3807822      18449.543    
    658000   0.94102163     0.0023323615  -0.0061113794   20.756087      19.358669      1.3974171     -1.2434255      18651.421    
    659000   0.84342412     0.0023323615   0.0016383458   20.750411      19.497926      1.2524848     -1.0162549      19195.426    
    660000   0.94180779     0.0023323615   0.00012451517  20.55629       19.157706      1.3985846     -1.3952938      19018.852    
    661000   0.97213716     0.0023323615  -0.0046024437   20.564895      19.121271      1.4436237     -1.3391426      18430.724    
    662000   1.1457291      0.0023323615   0.00068525221  20.910017      19.20861       1.7014077     -1.4144205      18500.325    
    663000   0.81573659     0.0023323615   0.00023569204  20.330324      19.118955      1.2113688     -1.3856592      18456.926    
    664000   1.0018999      0.0023323615  -0.0039880131   20.688436      19.200614      1.4878214     -1.316153       18596.475    
    665000   0.96055197     0.0023323615  -0.00092090764  20.396092      18.969673      1.4264197     -1.4549152      18485.701    
    666000   1.1372274      0.0023323615  -0.0010465828   21.092928      19.404145      1.6887826     -1.158064       18441.09     
    667000   1.0221522      0.0023323615  -0.001924996    20.673328      19.155432      1.517896      -1.3949607      18569.52     
    668000   0.85267959     0.0023323615  -0.0010673329   20.292963      19.026733      1.2662292     -1.4593149      18461.903    
    669000   0.88956035     0.0023323615  -0.0023582062   20.553293      19.232296      1.3209971     -1.2477288      18281.762    
    670000   0.9972743      0.0023323615  -0.00073349624  20.824185      19.343233      1.4809523     -1.1841373      18313.594    
    671000   0.97285617     0.0023323615  -0.00030112055  20.219137      18.774446      1.4446914     -1.6318083      18386.303    
    672000   1.1023984      0.0023323615  -0.0031546294   20.668328      19.031266      1.6370616     -1.504533       18261.913    
    673000   1.053534       0.0023323615   0.0018772893   20.801439      19.236941      1.5644979     -1.3440067      18471.784    
    674000   0.91549142     0.0023323615  -0.0030504647   20.60489       19.245385      1.3595048     -1.3571333      18513.927    
    675000   0.81291246     0.0023323615  -0.0014510983   20.0663        18.859125      1.207175      -1.5760209      18228.901    
    676000   0.90950629     0.0023323615  -0.0012040877   20.288392      18.937775      1.3506168     -1.5785712      18177.339    
    677000   1.0887493      0.0023323615  -0.003259327    20.688568      19.071776      1.6167927     -1.4729691      18289.305    
    678000   0.95559938     0.0023323615  -0.0015072716   20.404462      18.985397      1.4190651     -1.5657527      18247.204    
    679000   0.90647272     0.0023323615  -0.001928739    20.62496       19.278848      1.346112      -1.2432949      18657.24     
    680000   0.84870238     0.0023323615  -0.0036698238   20.072787      18.812464      1.260323      -1.6516137      18445.639    
    681000   0.89928805     0.0023323615  -0.0018387437   20.31921       18.983767      1.3354428     -1.5826796      18223.38     
    682000   1.0993647      0.0023323615   0.0012914891   20.643522      19.010965      1.6325565     -1.371226       18405.795    
    683000   1.0026115      0.0023323615  -0.00093058599  20.813691      19.324813      1.4888781     -1.2311782      18302.351    
    684000   1.0619886      0.0023323615  -0.0039766947   20.623218      19.046165      1.5770531     -1.4624289      18300.502    
    685000   1.023188       0.0023323615  -0.00038257885  20.263504      18.744069      1.5194342     -1.6966687      18253.14     
    686000   0.96927221     0.0023323615   6.5052252e-05  20.512798      19.073428      1.4393692     -1.5369367      18159.732    
    687000   0.95777525     0.0023323615   0.0024211975   20.614426      19.19213       1.4222962     -1.280381       18393.917    
    688000   1.0139617      0.0023323615  -0.00079965453  20.650968      19.145235      1.5057331     -1.2177946      18459.524    
    689000   0.9302299      0.0023323615   0.0026687428   20.63971       19.258318      1.3813914     -1.3111814      18419.276    
    690000   1.0126283      0.0023323615  -0.00010843574  20.809476      19.305723      1.5037531     -1.2909493      18393.168    
    691000   0.86369988     0.0023323615  -0.00044492853  20.415808      19.133214      1.2825943     -1.2923413      18281.159    
    692000   0.98215451     0.0023323615   0.0053363431   20.607415      19.148916      1.4584994     -1.4676027      18154.741    
    693000   0.99770905     0.0023323615  -0.0010203726   20.557584      19.075986      1.4815979     -1.4283479      18261.917    
    694000   0.89150227     0.0023323615  -0.0011362379   20.462446      19.138565      1.3238809     -1.3711707      18275.08     
    695000   1.04237        0.0023323615  -9.6284417e-05  20.625559      19.077639      1.5479195     -1.3954353      18185.148    
    696000   1.1251324      0.0023323615   0.00067460625  21.029318      19.358496      1.6708216     -1.1760232      18389.806    
    697000   0.96494565     0.0023323615  -0.0026904397   20.44302       19.010076      1.4329443     -1.3950008      18583.851    
    698000   0.82317172     0.0023323615   0.0042454958   20.376701      19.154291      1.22241       -1.3092132      18289.986    
    699000   0.93710649     0.0023323615   0.001336827    20.409976      19.018373      1.3916031     -1.444745       18333.434    
    700000   0.98640071     0.0023323615  -0.0015602971   20.536122      19.071317      1.4648051     -1.4443736      18319.419    
    701000   0.99496814     0.0023323615  -0.00055431825  20.41705       18.939522      1.4775277     -1.4662578      18244.999    
    702000   1.0694767      0.0023323615  -0.00029397375  20.639846      19.051673      1.5881729     -1.4108053      18089.656    
    703000   1.0598455      0.0023323615  -0.00081226045  20.612514      19.038644      1.5738705     -1.3988425      18261.689    
    704000   0.97680286     0.0023323615   0.00037104534  20.617354      19.166801      1.4505522     -1.3554096      18121.655    
    705000   1.1195095      0.0023323615   0.0034729141   20.752077      19.089605      1.6624717     -1.4097127      18300.935    
    706000   1.1184176      0.0023323615  -0.00046253427  20.597639      18.936789      1.6608501     -1.5263037      18249.452    
    707000   0.94854391     0.0023323615  -0.0036340853   20.577805      19.169217      1.4085877     -1.3384302      18283.754    
    708000   0.85216353     0.0023323615  -0.0017782854   20.418839      19.153376      1.2654628     -1.4081019      18302.885    
    709000   0.99828838     0.0023323615  -0.00037107538  20.625661      19.143202      1.4824582     -1.386284       18346.627    
    710000   1.0548931      0.0023323615   0.0032523883   20.473389      18.906872      1.5665162     -1.6050812      18223.051    
    711000   0.96808804     0.0023323615   0.0034237589   20.509136      19.071525      1.4376107     -1.4388723      18288.015    
    712000   1.0368999      0.0023323615   0.0027831658   20.704968      19.165171      1.5397964     -1.4008263      18399.484    
    713000   1.0110253      0.0023323615   0.0025610366   20.732908      19.231535      1.5013726     -1.322773       18307.098    
    714000   1.095979       0.0023323615  -0.00084282208  20.918041      19.290512      1.6275288     -1.2262371      18285.308    
    715000   0.9183022      0.0023323615   0.00050000076  20.623446      19.259767      1.3636788     -1.2378369      18488.725    
    716000   0.9732521      0.0023323615  -0.00064542116  20.75236       19.307081      1.4452794     -1.3312874      18275.161    
    717000   1.01259        0.0023323615   5.5235629e-05  20.666326      19.16263       1.5036961     -1.2299184      18349.47     
    718000   0.97536732     0.0023323615   0.001253728    20.776459      19.328039      1.4484205     -1.2767874      18361.828    
    719000   1.1456894      0.0023323615   0.0011592156   20.64113       18.939781      1.7013487     -1.6152855      18331.434    
    720000   1.0952922      0.0023323615  -7.1792939e-05  20.706568      19.080059      1.6265089     -1.6248135      18294.84     
    721000   1.0147255      0.0023323615  -0.00066117185  20.746096      19.239229      1.5068673     -1.3884827      18415.127    
    722000   1.0934012      0.0023323615   0.0037029952   20.540382      18.916681      1.6237007     -1.6933946      18378.087    
    723000   1.143175       0.0023323615   0.0014973686   20.737279      19.039664      1.6976148     -1.4485883      18334.195    
    724000   1.0889281      0.0023323615   0.0054375224   20.657861      19.040803      1.6170583     -1.4420047      18525.435    
    725000   1.0079141      0.0023323615  -0.0020900074   20.536822      19.04007       1.4967525     -1.5167515      18303.932    
    726000   1.0065929      0.0023323615  -0.0014608902   20.371663      18.876873      1.4947904     -1.6262873      18227.779    
    727000   0.997302       0.0023323615   0.00080267651  20.896453      19.41546       1.4809935     -1.1789405      18330.178    
    728000   1.0472098      0.0023323615  -0.00030791792  20.492965      18.937859      1.5551066     -1.5928809      18286.554    
    729000   0.967527       0.0023323615  -0.00086092657  20.309269      18.872491      1.4367776     -1.4856188      18271.136    
    730000   0.92952775     0.0023323615   0.0035993049   20.618322      19.237973      1.3803487     -1.2646862      18534.207    
    731000   0.85236087     0.0023323615   0.0024464072   20.514538      19.248782      1.2657559     -1.2558123      18762.383    
    732000   1.049633       0.0023323615   0.00039244652  20.752119      19.193414      1.558705      -1.3656961      18531.372    
    733000   0.95628125     0.0023323615   0.0018706361   20.607574      19.187497      1.4200777     -1.2182954      18453.52     
    734000   1.0209854      0.0023323615   0.0020745766   20.463773      18.94761       1.5161633     -1.4990908      18182.422    
    735000   0.88880619     0.0023323615  -0.0054972981   20.28376       18.963883      1.3198772     -1.5364022      18411.954    
    736000   1.0821885      0.0023323615   0.00056245386  20.896476      19.289427      1.6070498     -1.3654301      18370.165    
    737000   0.95327415     0.0023323615  -0.0012827089   20.501423      19.085811      1.4156121     -1.4167057      18299.512    
    738000   0.91660507     0.0023323615   0.0082025009   20.438585      19.077426      1.3611585     -1.5496717      18413.183    
    739000   1.1158618      0.0023323615  -0.0041385891   21.114042      19.456987      1.6570547     -1.2913455      18357.539    
    740000   0.99369717     0.0023323615  -0.00021515746  20.387691      18.912051      1.4756403     -1.6341998      18308.461    
    741000   0.96193919     0.0023323615  -0.0012169853   20.615193      19.186713      1.4284797     -1.5159278      18175.294    
    742000   1.0991171      0.0023323615  -0.0022121836   20.676892      19.044703      1.6321889     -1.4596824      18258.125    
    743000   0.9570983      0.0023323615   0.0011937894   20.479989      19.058698      1.421291      -1.4265815      18356.607    
    744000   1.0117798      0.0023323615   0.0035751083   20.723882      19.221389      1.502493      -1.3079757      18300.321    
    745000   0.98336632     0.0023323615  -0.0020988607   20.746383      19.286084      1.460299      -1.4235336      18225.057    
    746000   1.0344391      0.0023323615  -0.0037491419   20.565159      19.029017      1.5361421     -1.5847071      18270.293    
    747000   1.0726925      0.0023323615   0.0022725316   20.772879      19.179931      1.5929484     -1.2777759      18263.199    
    748000   0.91310531     0.0023323615   0.0055772224   20.231818      18.875857      1.3559614     -1.5616325      18356.797    
    749000   0.89433217     0.0023323615  -7.2623069e-06  20.171502      18.843419      1.3280833     -1.5805206      18282.451    
    750000   0.95614085     0.0023323615   0.00049075089  20.586858      19.166988      1.4198692     -1.4568891      18282.351    
    751000   0.99794981     0.0023323615   0.00074848946  20.440945      18.95899       1.4819555     -1.507992       18290.944    
    752000   0.99567717     0.0023323615   0.004705465    20.585582      19.107002      1.4785806     -1.4047952      18421.339    
    753000   0.93605786     0.0023323615  -0.002151958    20.511921      19.121875      1.3900459     -1.3621685      18366.504    
    754000   1.061857       0.0023323615  -0.00082236438  20.623277      19.046419      1.5768577     -1.3898014      18238.438    
    755000   0.82090865     0.0023323615  -0.0024217594   20.249384      19.030335      1.2190493     -1.5808902      18146.354    
    756000   0.85488173     0.0023323615  -0.0015958153   20.481125      19.211626      1.2694994     -1.3131931      18211.444    
    757000   0.97215658     0.0023323615  -0.0024167382   20.599002      19.155349      1.4436525     -1.3157427      18471.032    
    758000   0.9589436      0.0023323615  -0.0011331757   20.583837      19.159805      1.4240312     -1.3586289      18569.219    
    759000   1.1100329      0.0023323615  -0.00065986404  20.664111      19.015712      1.6483989     -1.4744582      18296.46     
    760000   0.91489526     0.0023323615  -0.003274121    20.312396      18.953776      1.3586195     -1.6083189      18234.576    
    761000   0.89402326     0.0023323615  -0.0024945123   20.261545      18.933921      1.3276245     -1.7651823      18172.087    
    762000   1.0867148      0.0023323615  -0.0015154648   20.357773      18.744002      1.6137715     -1.6559771      18196.254    
    763000   0.94349398     0.0023323615  -8.6458016e-05  20.61287       19.211781      1.4010886     -1.3652779      18158.906    
    764000   0.96951        0.0023323615   0.0023185363   20.790062      19.35034       1.4397223     -1.1553892      18301.801    
    765000   0.98517303     0.0023323615  -0.0018236405   20.349748      18.886766      1.462982      -1.5905368      18531.578    
    766000   1.1152608      0.0023323615   0.0033769834   20.88151       19.225348      1.6561623     -1.3802184      18244.115    
    767000   0.98905845     0.0023323615   0.0010311221   20.564376      19.095625      1.4687518     -1.4898801      18272.136    
    768000   0.97057879     0.0023323615  -0.0021708687   20.238553      18.797243      1.4413095     -1.6106005      18223.067    
    769000   0.94380447     0.0023323615   0.0033876261   20.293688      18.892138      1.4015496     -1.6603076      18067.383    
    770000   1.0129756      0.0023323615  -0.0016831834   20.681515      19.177246      1.5042688     -1.4259828      18242.848    
    771000   1.0815315      0.0023323615   0.0011999294   20.708959      19.102885      1.6060743     -1.3227767      18353.475    
    772000   0.9581329      0.0023323615  -0.00096809769  20.4367        19.013872      1.4228274     -1.4284071      18346.498    
    773000   0.88776166     0.0023323615   0.00067144394  20.333161      19.014835      1.3183261     -1.5694864      18274.535    
    774000   0.96595198     0.0023323615  -0.001027269    20.682507      19.248068      1.4344387     -1.2380402      18279.769    
    775000   1.050586       0.0023323615  -0.0011517643   20.629895      19.069775      1.5601202     -1.3525094      18560.207    
    776000   0.9026641      0.0023323615  -0.0016700355   20.442022      19.101566      1.3404562     -1.4500068      18540.638    
    777000   0.94899251     0.0023323615   0.00084389779  20.253691      18.844437      1.4092539     -1.5862138      18353.387    
    778000   1.0568022      0.0023323615   0.0010675924   20.394784      18.825433      1.5693512     -1.6143942      18305.261    
    779000   1.0999027      0.0023323615  -0.0017971397   20.865133      19.231778      1.6333555     -1.3409265      18359.724    
    780000   1.1221188      0.0023323615  -0.00029821826  20.383322      18.716976      1.6663464     -1.8262624      18218.786    
    781000   1.1429941      0.0023323615   0.0078795181   20.783409      19.086062      1.6973462     -1.5031931      18249.299    
    782000   1.0308408      0.0023323615   0.0016390522   20.47756       18.946761      1.5307985     -1.4896158      18163.595    
    783000   0.9523438      0.0023323615   0.001498816    20.279738      18.865507      1.4142305     -1.6569565      18110.531    
    784000   1.0340277      0.0023323615   0.0016897841   20.575626      19.040095      1.5355312     -1.4527174      18328.243    
    785000   0.97873658     0.0023323615   0.00097680409  20.597082      19.143658      1.4534238     -1.351176       18232.224    
    786000   0.91654138     0.0023323615  -0.0011076477   20.422529      19.061465      1.3610639     -1.4651419      18339.17     
    787000   0.90671461     0.0023323615  -0.002298257    20.508766      19.162295      1.3464712     -1.3195075      18306.124    
    788000   0.96376993     0.0023323615  -0.0015160083   20.266973      18.835775      1.4311983     -1.5757622      18292.731    
    789000   1.0331097      0.0023323615  -0.00029191961  20.478959      18.944791      1.5341679     -1.5270396      18253.357    
    790000   0.91397026     0.0023323615   0.0016229285   20.351307      18.994061      1.3572458     -1.4611744      18188.068    
    791000   1.0290667      0.0023323615   0.0015025267   20.593007      19.064843      1.528164      -1.3901208      18204.003    
    792000   1.0907061      0.0023323615   6.9415046e-05  20.588547      18.968848      1.6196986     -1.6213432      18159.494    
    793000   0.97026257     0.0023323615  -9.6952254e-05  20.553786      19.112946      1.4408399     -1.4682598      18175.585    
    794000   0.98732344     0.0023323615  -0.0017224876   20.753722      19.287547      1.4661753     -1.2298777      18299.405    
    795000   0.88519234     0.0023323615  -0.0052184437   20.349049      19.034538      1.3145106     -1.3823441      18266.572    
    796000   1.0053298      0.0023323615  -0.0011278958   20.57749       19.084575      1.4929147     -1.4070389      18317.304    
    797000   1.1045606      0.0023323615   0.0013650028   20.841318      19.201045      1.6402724     -1.3658365      18360.865    
    798000   0.89671493     0.0023323615   0.00028069909  20.570403      19.238782      1.3316217     -1.3603097      18491.14     
    799000   0.94025038     0.0023323615  -0.00059623222  20.565732      19.16946       1.3962718     -1.3628526      18445.104    
    800000   0.8634607      0.0023323615   0.0022865109   20.445879      19.16364       1.2822391     -1.3316318      18602.526    
    801000   0.92319554     0.0023323615  -0.0050743651   20.503202      19.132257      1.3709454     -1.4153081      18590.59     
    802000   1.0327275      0.0023323615  -0.0025314998   20.572709      19.039109      1.5336003     -1.4088927      18400.101    
    803000   0.97575293     0.0023323615  -0.0022506989   20.125354      18.676361      1.4489931     -1.7853762      18378.862    
    804000   1.1130132      0.0023323615   0.0029755703   20.71587       19.063046      1.6528245     -1.4966076      18292.785    
    805000   1.0821826      0.0023323615  -0.0053579983   20.464535      18.857494      1.6070412     -1.6057278      18203.339    
    806000   0.96474646     0.0023323615  -0.0007442693   20.304978      18.872329      1.4326485     -1.6205878      18313.181    
    807000   1.1348272      0.0023323615  -0.0013818114   20.345881      18.660662      1.6852184     -1.7649754      18254.121    
    808000   1.0631989      0.0023323615  -0.0028943756   20.81744       19.23859       1.5788504     -1.2849173      18299.75     
    809000   0.93493357     0.0023323615  -0.0016440937   20.335032      18.946656      1.3883763     -1.5208884      18293.12     
    810000   1.0499734      0.0023323615   0.0027474433   20.529042      18.969832      1.5592105     -1.5671536      18112.832    
    811000   0.93305629     0.0023323615  -0.001639185    20.398955      19.013367      1.3855886     -1.5025273      18146.886    
    812000   1.11029        0.0023323615  -0.0019049853   20.456942      18.808161      1.6487807     -1.6489583      18171.419    
    813000   0.92388103     0.0023323615   0.0020585873   20.163655      18.791691      1.3719633     -1.5604077      18271.236    
    814000   1.130254       0.0023323615   0.0060566574   20.648664      18.970237      1.6784272     -1.6396971      18146.496    
    815000   0.95180615     0.0023323615   0.0022314025   20.656111      19.242679      1.4134321     -1.388889       18206.348    
    816000   0.98393513     0.0023323615   0.00092519347  20.458582      18.997438      1.4611437     -1.530973       18248.801    
    817000   1.0320862      0.0023323615   0.003533153    20.538905      19.006257      1.532648      -1.5435305      18364.581    
    818000   1.1519876      0.0023323615  -0.0016281902   20.697013      18.986311      1.7107016     -1.4908687      18267.354    
    819000   1.0284438      0.0023323615   0.0029965444   20.677468      19.150229      1.5272391     -1.4553137      18272.501    
    820000   1.0134984      0.0023323615   0.0012173722   20.469881      18.964836      1.5050451     -1.6378135      18546.571    
    821000   0.97472625     0.0023323615   0.00094306843  20.511618      19.06415       1.4474685     -1.5527596      18499.783    
    822000   1.045736       0.0023323615  -0.00047740372  20.66511       19.112192      1.5529179     -1.357948       18559.427    
    823000   0.99870728     0.0023323615  -0.0045432487   20.748534      19.265454      1.4830803     -1.1991567      18730.994    
    824000   1.0784915      0.0023323615  -0.0031002447   20.794041      19.192481      1.6015599     -1.344716       18678.524    
    825000   0.97328322     0.0023323615   9.8464548e-05  20.756532      19.311206      1.4453256     -1.1836462      18565.168    
    826000   0.93087198     0.0023323615  -0.0011257105   20.357112      18.974767      1.3823449     -1.445496       18354.494    
    827000   1.014204       0.0023323615   9.2177133e-05  20.439929      18.933836      1.5060929     -1.4798226      18169.5      
    828000   0.9227449      0.0023323615   0.0031435845   20.401666      19.03139       1.3702762     -1.4949125      18579.589    
    829000   0.96735988     0.0023323615   0.0020555401   20.643798      19.207269      1.4365294     -1.2442434      18808.926    
    830000   0.95074964     0.0023323615  -0.00051117697  20.688883      19.27702       1.4118632     -1.2769926      18972.957    
    831000   0.81705659     0.0023323615  -0.00073569908  20.50986       19.296531      1.213329      -1.2153904      18750.667    
    832000   0.91685007     0.0023323615   0.0022141255   20.135691      18.774168      1.3615223     -1.7019207      18440.432    
    833000   0.96650398     0.0023323615  -0.0027066858   20.584212      19.148953      1.4352584     -1.4226056      18231.652    
    834000   1.126512       0.0023323615  -0.0045613327   20.68101       19.00814       1.6728704     -1.5816204      18303.637    
    835000   1.0008618      0.0023323615   0.00021792765  20.643725      19.157445      1.4862798     -1.3709262      18254.639    
    836000   1.1026014      0.0023323615   0.0022329591   20.753297      19.115933      1.6373631     -1.401638       18214.959    
    837000   1.1060478      0.0023323615   0.00082075816  20.799141      19.15666       1.642481      -1.3487693      18378.34     
    838000   0.98939078     0.0023323615   0.00012059268  20.530455      19.06121       1.4692453     -1.3680752      18440.48     
    839000   1.0575391      0.0023323615  -0.0026459432   20.928         19.357555      1.5704455     -1.2457099      18411.899    
    840000   1.0993268      0.0023323615   0.00033830207  20.529892      18.897391      1.6325003     -1.5675285      18445.343    
    841000   0.95617764     0.0023323615   0.0041257522   20.473939      19.054015      1.4199238     -1.5366339      18313.739    
    842000   0.89725827     0.0023323615   0.001936632    20.322012      18.989583      1.3324285     -1.5193088      18325.769    
    843000   0.98027987     0.0023323615  -0.00061671552  20.448025      18.992309      1.4557156     -1.4249243      18269.257    
    844000   1.0229221      0.0023323615  -0.0033103329   20.473217      18.954178      1.5190394     -1.5161799      18347.73     
    845000   0.90896855     0.0023323615   0.0041627302   20.561347      19.211529      1.3498183     -1.2966345      18215.378    
    846000   0.96354839     0.0023323615  -0.0011431882   20.455044      19.024175      1.4308694     -1.5019838      18369.587    
    847000   1.0290874      0.0023323615   0.00027782796  20.611826      19.083631      1.5281948     -1.5586341      18348.805    
    848000   1.0687737      0.0023323615  -0.0014996663   20.55561       18.968481      1.5871289     -1.542468       18399.579    
    849000   1.1663234      0.0023323615   2.0971134e-05  20.823388      19.091398      1.7319902     -1.3881366      18386.513    
    850000   1.0463492      0.0023323615   0.00010104863  20.618792      19.064963      1.5538285     -1.3637038      18376.632    
    851000   1.0445263      0.0023323615  -0.00048834416  20.502452      18.95133       1.5511216     -1.5545413      18347.969    
    852000   0.85964037     0.0023323615   0.0032152075   20.490186      19.21362       1.2765659     -1.3305045      18361.653    
    853000   1.0776299      0.0023323615   0.0039830417   20.796948      19.196667      1.6002804     -1.4423562      18390.839    
    854000   0.97864627     0.0023323615   0.0012562504   20.698081      19.244791      1.4532897     -1.3280627      18328.602    
    855000   1.0100077      0.0023323615   0.0011043619   20.451645      18.951783      1.4998615     -1.4901507      18211.65     
    856000   0.92806733     0.0023323615   0.0038975458   20.422703      19.044523      1.37818       -1.5966288      18095.982    
    857000   1.0134937      0.0023323615   0.0019331209   20.418013      18.912975      1.5050382     -1.5905183      18179.703    
    858000   1.0030166      0.0023323615  -0.0017899157   20.695857      19.206378      1.4894797     -1.3162405      18214.817    
    859000   1.0211         0.0023323615   0.00084268291  20.514897      18.998563      1.5163335     -1.5191392      18249.115    
    860000   0.93338421     0.0023323615   0.0031222008   20.620563      19.234488      1.3860756     -1.3576429      18169.537    
    861000   1.1328941      0.0023323615   0.0029262401   20.66829       18.985943      1.6823477     -1.4614868      18241.484    
    862000   1.0043935      0.0023323615  -0.0030285654   20.79122       19.299696      1.4915243     -1.210744       18285.945    
    863000   0.96361289     0.0023323615   0.00019922429  20.226303      18.795338      1.4309651     -1.5833858      18324.598    
    864000   0.96731296     0.0023323615  -0.0012175083   20.543637      19.107178      1.4364597     -1.5016448      18287.69     
    865000   0.9030405      0.0023323615   0.0011529477   20.531339      19.190324      1.3410151     -1.4285515      18250.203    
    866000   0.97402478     0.0023323615  -0.0034884773   20.280216      18.83379       1.4464268     -1.6016804      18213.969    
    867000   0.81882205     0.0023323615   0.0028303388   20.295304      19.079353      1.2159507     -1.359919       18206.809    
    868000   0.92697073     0.0023323615  -0.004093085    20.26915       18.892599      1.3765515     -1.6474674      18369.144    
    869000   0.92351009     0.0023323615   0.001570608    20.643876      19.272463      1.3714125     -1.2820518      18443.073    
    870000   1.1900428      0.0023323615   0.00092107989  20.670392      18.903178      1.7672136     -1.5400481      18389.548    
    871000   1.1177722      0.0023323615  -0.0082400003   20.667764      19.007872      1.6598917     -1.5536929      18365.359    
    872000   0.88701848     0.0023323615   0.0018424443   20.323936      19.006714      1.3172224     -1.612332       18190.003    
    873000   0.95454289     0.0023323615   0.00054615326  20.376193      18.958696      1.4174962     -1.4722575      18285.312    
    874000   1.0163505      0.0023323615   0.0034063598   20.761286      19.252006      1.5092804     -1.4016182      18264.269    
    875000   0.96663738     0.0023323615   0.00042202004  20.058763      18.623306      1.4354565     -1.7811089      18168.22     
    876000   0.93703897     0.0023323615  -0.0035001955   20.486186      19.094683      1.3915029     -1.3712553      18146.384    
    877000   0.89954471     0.0023323615   0.003649827    20.010122      18.674298      1.3358239     -1.7286346      18222.775    
    878000   0.85673863     0.0023323615   0.003206494    20.290198      19.017941      1.2722569     -1.5572157      18055.908    
    879000   1.0522585      0.0023323615  -0.0015497872   20.564921      19.002317      1.5626039     -1.4391211      18049.254    
    880000   0.9873716      0.0023323615  -0.0040194258   20.395597      18.92935       1.4662468     -1.548355       18115.215    
    881000   0.91488239     0.0023323615   0.001201724    20.29245       18.933849      1.3586003     -1.5918238      18149.7      
    882000   1.0161615      0.0023323615   0.0024085911   20.638532      19.129533      1.5089998     -1.4493407      18403.416    
    883000   1.1969362      0.0023323615   0.0015935808   20.790387      19.012937      1.7774502     -1.484743       18431.803    
    884000   1.0520154      0.0023323615   0.001377447    20.60184       19.039597      1.5622429     -1.453093       18255.193    
    885000   0.95318145     0.0023323615   0.00039757925  20.465033      19.049558      1.4154744     -1.4301461      18382.097    
    886000   0.85858429     0.0023323615  -0.0019351704   20.212065      18.937067      1.2749977     -1.4439282      18416.353    
    887000   1.0291671      0.0023323615   0.0011472253   20.727288      19.198974      1.5283131     -1.3593235      18508.438    
    888000   1.0724301      0.0023323615   0.0010518815   20.588878      18.99632       1.5925587     -1.4604257      18638.737    
    889000   1.0460439      0.0023323615   0.0037232662   20.375617      18.822242      1.5533752     -1.5255015      18326.913    
    890000   0.92749982     0.0023323615   0.0030419221   20.474183      19.096846      1.3773372     -1.5117468      18205.577    
    891000   0.9850097      0.0023323615  -0.0014680343   20.426763      18.964024      1.4627394     -1.533819       18332.43     
    892000   0.98364455     0.0023323615  -0.00205554     20.8035        19.342788      1.4607122     -1.2304325      18279.254    
    893000   1.0466658      0.0023323615   0.0016308408   20.81898       19.264681      1.5542987     -1.3487681      18333.248    
    894000   0.97150355     0.0023323615  -0.0011275482   20.582512      19.13983       1.4426828     -1.4492807      18280.157    
    895000   0.93314352     0.0023323615  -0.00059387514  20.472386      19.086667      1.3857181     -1.5413854      18415.861    
    896000   1.0052076      0.0023323615   0.0014645851   20.727461      19.234728      1.4927333     -1.1692936      18401.268    
    897000   0.91832973     0.0023323615  -0.0055644249   20.853136      19.489417      1.3637196     -1.1491344      18594.77     
    898000   0.95600701     0.0023323615  -0.0030825672   20.707504      19.287833      1.4196704     -1.2507518      18584.308    
    899000   0.96725325     0.0023323615  -0.0017114462   20.70666       19.270289      1.4363711     -1.3301757      18343.171    
    900000   0.96256978     0.0023323615   0.00012927089  20.694804      19.265388      1.4294161     -1.2673819      18443.826    
    901000   0.7785243      0.0023323615  -0.0018428493   19.846133      18.690024      1.1561086     -1.6527935      18222.502    
    902000   0.96912742     0.0023323615  -0.0013380131   20.28558       18.846426      1.4391542     -1.6875476      18075.609    
    903000   0.86536689     0.0023323615  -0.00018208509  20.439028      19.153959      1.2850698     -1.4200425      18313.389    
    904000   0.84589815     0.0023323615  -0.0014353836   20.401019      19.14486       1.2561588     -1.4112757      18522.496    
    905000   0.95843396     0.0023323615  -0.0014449074   20.649221      19.225947      1.4232744     -1.3702936      18397.144    
    906000   0.99245493     0.0023323615  -0.00085961994  20.524147      19.050352      1.4737956     -1.4855333      18601.944    
    907000   1.077439       0.0023323615   0.00032189508  20.946173      19.346177      1.5999969     -1.2806939      18440.684    
    908000   1.0296017      0.0023323615   0.0036786609   20.50777       18.978812      1.5289586     -1.5296138      18378.225    
    909000   0.93139163     0.0023323615  -0.0069400006   20.597604      19.214487      1.3831166     -1.4291645      18320.455    
    910000   1.0459025      0.0023323615  -0.000874539    20.704908      19.151743      1.5531652     -1.3604692      18238.488    
    911000   1.1082962      0.0023323615   0.0049514707   21.117291      19.471471      1.6458199     -1.2065368      18404.156    
    912000   1.0852829      0.0023323615   0.0025470628   20.65882       19.047175      1.6116451     -1.4712409      18472.974    
    913000   1.1030745      0.0023323615   0.0033906805   20.611493      18.973427      1.6380656     -1.4475688      18625.468    
    914000   0.95735442     0.0023323615   0.0012270215   20.511884      19.090212      1.4216713     -1.411606       18842.519    
    915000   1.1990678      0.0023323615  -0.00084370136  20.823121      19.042505      1.7806157     -1.482637       18774.672    
    916000   1.1162649      0.0023323615   0.0033182443   20.666675      19.009021      1.6576534     -1.4334121      18673.866    
    917000   0.96347893     0.0023323615  -0.00052795802  20.468263      19.037497      1.4307662     -1.3957298      18602.269    
    918000   0.94384341     0.0023323615   0.00076114771  20.430035      19.028428      1.4016075     -1.6250314      18461.593    
    919000   1.1244069      0.0023323615  -0.00088010306  20.526676      18.856931      1.6697443     -1.5811431      18501.895    
    920000   0.99031717     0.0023323615   0.00091852937  20.886846      19.416225      1.470621      -1.1682687      18566.618    
    921000   1.0223711      0.0023323615  -0.0010913902   20.297075      18.778854      1.518221      -1.6793743      18335.529    
    922000   1.0099404      0.0023323615  -0.002118688    20.536468      19.036706      1.4997615     -1.4915581      18507.621    
    923000   1.0349158      0.0023323615  -0.0024169013   20.473753      18.936903      1.53685       -1.4457613      18384.766    
    924000   0.88680138     0.0023323615   0.002229445    20.345318      19.028418      1.3169001     -1.5805977      18470.082    
    925000   1.196673       0.0023323615  -0.0022817442   20.756511      18.979451      1.7770594     -1.4701634      18503.59     
    926000   1.157797       0.0023323615  -0.0028333269   20.871655      19.152327      1.7193285     -1.4006063      18470.55     
    927000   1.0549142      0.0023323615  -0.0014660046   20.542442      18.975894      1.5665476     -1.4867509      18424.468    
    928000   0.99618314     0.0023323615   0.0023872978   20.519031      19.039699      1.479332      -1.5608833      18473.374    
    929000   1.0067675      0.0023323615   0.0061644928   20.551788      19.056738      1.4950497     -1.4079927      18097.55     
    930000   0.93299689     0.0023323615  -0.0014657118   20.319577      18.934076      1.3855004     -1.5637531      18459.541    
    931000   1.0772673      0.0023323615  -1.0049082e-05  20.563968      18.964226      1.5997419     -1.5859485      18532.62     
    932000   0.91843881     0.0023323615   0.0032380041   20.535375      19.171494      1.3638816     -1.3321368      18445.677    
    933000   0.97415126     0.0023323615   0.0023605991   20.647193      19.200579      1.4466146     -1.3211727      18580.488    
    934000   0.95004979     0.0023323615   0.0029148344   20.395024      18.9842        1.4108239     -1.4867253      18523.527    
    935000   1.1038231      0.0023323615  -0.00014062867  21.001459      19.362282      1.6391773     -1.3012849      18502.763    
    936000   0.96900476     0.0023323615   0.0020061271   20.45764       19.018667      1.4389721     -1.5301853      18606.75     
    937000   1.0017131      0.0023323615   0.0050176756   20.656758      19.169214      1.4875439     -1.219399       18465.175    
    938000   1.0350009      0.0023323615  -0.0017743989   20.415719      18.878743      1.5369763     -1.5579736      18482.877    
    939000   0.96612969     0.0023323615   0.00026212384  20.249681      18.814979      1.4347026     -1.6517032      18243.701    
    940000   1.1075196      0.0023323615  -0.0004958248   20.70696       19.062293      1.6446666     -1.5005006      18434.534    
    941000   1.0384452      0.0023323615  -0.00084600486  20.806416      19.264325      1.5420912     -1.2556768      18803.391    
    942000   1.010441       0.0023323615  -0.0010881467   20.574461      19.073956      1.5005048     -1.401855       18909.433    
    943000   0.93554706     0.0023323615   0.0026630492   20.477978      19.08869       1.3892874     -1.5332839      18686.511    
    944000   0.89049477     0.0023323615   0.0025147645   20.621997      19.299612      1.3223847     -1.2453379      18784.159    
    945000   0.95161402     0.0023323615   0.00089606767  20.560582      19.147435      1.4131468     -1.3013624      18682.349    
    946000   0.94971296     0.0023323615  -0.0018247107   20.414119      19.003796      1.4103238     -1.5229402      18597.944    
    947000   1.0442244      0.0023323615   0.0011907207   20.527536      18.976862      1.5506732     -1.5336725      18488.046    
    948000   1.1522153      0.0023323615  -0.005671505    20.687542      18.976502      1.7110397     -1.4388695      18511.774    
    949000   0.97646923     0.0023323615   0.0041705735   20.276172      18.826115      1.4500568     -1.6074782      18374.954    
    950000   1.104457       0.0023323615  -0.0035120481   20.824648      19.184529      1.6401187     -1.3829072      18418.895    
    951000   1.0598175      0.0023323615   0.00017178575  20.564049      18.99022       1.573829      -1.5325691      18468.503    
    952000   1.0694442      0.0023323615   0.00045509689  20.386671      18.798546      1.5881247     -1.5983378      18338.816    
    953000   1.008297       0.0023323615  -0.0029896966   20.579595      19.082274      1.4973211     -1.4795838      18327.98     
    954000   1.083254       0.0023323615   0.0039031087   20.66481       19.056178      1.6086322     -1.4789922      18506.814    
    955000   1.0354986      0.0023323615   0.00082327963  20.656867      19.119151      1.5377153     -1.4400552      18553.614    
    956000   1.0391447      0.0023323615  -0.002501368    20.685581      19.142451      1.5431299     -1.4481958      18475.498    
    957000   1.105969       0.0023323615  -0.0019997196   20.489899      18.847535      1.642364      -1.6091347      18359.558    
    958000   0.99173484     0.0023323615   0.0033753981   20.563019      19.090293      1.4727262     -1.4357937      18319.039    
    959000   1.0322679      0.0023323615   0.0020030955   20.509375      18.976457      1.5329179     -1.4874173      18430.694    
    960000   0.95869746     0.0023323615  -0.00025711114  20.76539       19.341724      1.4236657     -1.2362674      18519.022    
    961000   0.95029201     0.0023323615  -0.00029302067  20.471461      19.060277      1.4111836     -1.5093814      18561.677    
    962000   1.0853713      0.0023323615   0.00026790734  20.635794      19.024017      1.6117763     -1.6031763      18449.557    
    963000   0.9402376      0.0023323615   0.0048474335   20.161391      18.765138      1.3962528     -1.6748714      18271.22     
    964000   1.0210802      0.0023323615  -0.00041256084  20.529587      19.013283      1.5163041     -1.4943547      18347.217    
    965000   1.1113509      0.0023323615  -0.00018551678  20.633209      18.982853      1.650356      -1.5388263      18325.658    
    966000   0.92939524     0.0023323615   0.00033756865  20.577569      19.197417      1.3801519     -1.2987332      18479.924    
    967000   1.0358254      0.0023323615  -0.00096092296  20.697513      19.159313      1.5382007     -1.3125956      18404.01     
    968000   0.9343535      0.0023323615  -0.0025063195   20.367749      18.980235      1.3875149     -1.5854676      18380.825    
    969000   1.0370212      0.0023323615  -0.0021781587   20.711605      19.171628      1.5399765     -1.3445089      18318.518    
    970000   0.95042451     0.0023323615   0.0048517297   20.597127      19.185747      1.4113804     -1.3468191      18539.822    
    971000   1.0960959      0.0023323615  -0.0044916799   20.697932      19.07023       1.6277024     -1.4086518      18382.69     
    972000   0.96015982     0.0023323615  -0.0008301554   20.363329      18.937491      1.4258373     -1.5776307      18482.894    
    973000   0.99002842     0.0023323615   0.0010468873   20.48765       19.017458      1.4701922     -1.5500165      18421.751    
    974000   1.0831164      0.0023323615  -0.0034124957   20.741854      19.133427      1.6084279     -1.4142799      18433.264    
    975000   0.9898592      0.0023323615  -0.0012537221   20.751017      19.281076      1.4699409     -1.366425       18402.703    
    976000   1.1333944      0.0023323615   0.0008865599   20.79454       19.111449      1.6830906     -1.4666924      18376.067    
    977000   1.0526284      0.0023323615  -0.0033489108   20.46325       18.900096      1.5631532     -1.6057388      18488.31     
    978000   1.029879       0.0023323615  -0.0044931908   20.742847      19.213477      1.5293703     -1.353675       18292.47     
    979000   0.94668098     0.0023323615  -9.3773023e-05  20.748705      19.342884      1.4058213     -1.2325958      18476.311    
    980000   0.92251316     0.0023323615   0.0038588112   20.498681      19.128748      1.369932      -1.4748022      18505.487    
    981000   0.92271809     0.0023323615  -0.00095780368  20.416542      19.046306      1.3702364     -1.4329654      18220.902    
    982000   1.041932       0.0023323615  -0.00071606445  20.544479      18.99721       1.5472691     -1.5321056      18462.088    
    983000   1.025546       0.0023323615  -0.00082582301  20.60041       19.077474      1.5229358     -1.4707724      18358.461    
    984000   0.94882309     0.0023323615  -0.0028529283   20.399484      18.990481      1.4090023     -1.5881134      18424.73     
    985000   1.0171769      0.0023323615   0.0027051963   20.334704      18.824196      1.5105077     -1.6708958      18487.824    
    986000   1.034011       0.0023323615   0.00088117066  20.389142      18.853636      1.5355063     -1.5941548      18400.722    
    987000   1.0525         0.0023323615   0.0033874842   20.737214      19.174251      1.5629625     -1.4956396      18328.754    
    988000   0.86724964     0.0023323615  -0.0013016566   19.975968      18.688102      1.2878657     -1.7215909      18341.354    
    989000   1.1791324      0.0023323615   0.002478922    20.81788       19.066868      1.7510116     -1.4062092      18302.408    
    990000   1.0575691      0.0023323615   0.0018491715   20.685823      19.115333      1.5704901     -1.46511        18334.72     
    991000   1.1669184      0.0023323615   0.00018693083  20.794331      19.061457      1.7328738     -1.4809446      18276.737    
    992000   0.97705964     0.0023323615  -0.0023666172   20.763583      19.312649      1.4509336     -1.4124054      18300.727    
    993000   1.0786906      0.0023323615   0.0026994089   20.691396      19.089541      1.6018555     -1.499824       18348.566    
    994000   1.0670032      0.0023323615   0.0044853801   20.670106      19.085606      1.5844997     -1.4318916      18370.621    
    995000   0.9622668      0.0023323615  -0.0012791247   20.383628      18.954662      1.4289662     -1.5597597      18256.035    
    996000   0.98071139     0.0023323615  -0.0061021128   20.53023       19.073874      1.4563564     -1.5306064      18425.978    
    997000   1.1075347      0.0023323615   0.0027691751   20.980118      19.335429      1.6446891     -1.3378939      18303.298    
    998000   0.98200516     0.0023323615  -0.0023017605   20.409536      18.951259      1.4582777     -1.509996       18387.634    
    999000   0.974406       0.0023323615   0.00019194685  20.626929      19.179936      1.4469929     -1.3067697      18399.969    
   1000000   1.130234       0.0023323615  -2.7245576e-05  20.906459      19.228062      1.6783976     -1.3478983      18529.345    
Loop time of 54.3629 on 1 procs for 1000000 steps with 100 atoms

Performance: 7946593.195 tau/day, 18394.892 timesteps/s
99.3% CPU use with 1 MPI tasks x 1 OpenMP threads

MPI task timing breakdown:
Section |  min time  |  avg time  |  max time  |%varavg| %total
---------------------------------------------------------------
Pair    | 45.374     | 45.374     | 45.374     |   0.0 | 83.46
Bond    | 1.2599     | 1.2599     | 1.2599     |   0.0 |  2.32
Neigh   | 3.8107     | 3.8107     | 3.8107     |   0.0 |  7.01
Comm    | 1.3863     | 1.3863     | 1.3863     |   0.0 |  2.55
Output  | 0.21118    | 0.21118    | 0.21118    |   0.0 |  0.39
Modify  | 1.9688     | 1.9688     | 1.9688     |   0.0 |  3.62
Other   |            | 0.3523     |            |       |  0.65

Nlocal:            100 ave         100 max         100 min
Histogram: 1 0 0 0 0 0 0 0 0 0
Nghost:            340 ave         340 max         340 min
Histogram: 1 0 0 0 0 0 0 0 0 0
Neighs:           4850 ave        4850 max        4850 min
Histogram: 1 0 0 0 0 0 0 0 0 0

Total # of neighbors = 4850
Ave neighs/atom = 48.5
Ave special neighs/atom = 1.98
Neighbor list builds = 97878
Dangerous builds = 79952

write_data      ${outputfile_assembled} nofix nocoeff
write_data      7_assembled.data nofix nocoeff
System init for write_data ...
Generated 0 of 6 mixed pair_coeff terms from geometric mixing rule

Total wall time: 0:00:55
