LAMMPS (23 Jun 2022 - Update 1)
OMP_NUM_THREADS environment is not set. Defaulting to 1 thread. (src/comm.cpp:98)
  using 1 OpenMP thread(s) per MPI task


variable        runtime equal 1000000
variable		subsample_rate equal 1000

variable		outputfile_created string '3_created.data'
variable		outputfile_relaxed string '5_relaxed.data'
variable		outputfile_selfasb string '6_a_self_assemble.lammpstrj'
variable		outputfile_trajlin string '6_b_trajlin.data'
variable		outputfile_assembled string '7_assembled.data'

units           lj
atom_style      full
dimension       3
boundary        p p p
timestep        0.005

read_data       ${outputfile_created}
read_data       3_created.data
Reading data file ...
  orthogonal box = (0 0 0) to (35 35 35)
  1 by 1 by 1 MPI processor grid
  reading atoms ...
  100 atoms
  reading velocities ...
  100 velocities
  scanning bonds ...
  1 = max bonds/atom
  reading bonds ...
  99 bonds
Finding 1-2 1-3 1-4 neighbors ...
  special bond factors lj:    0        0        0       
  special bond factors coul:  0        0        0       
     2 = max # of 1-2 neighbors
     2 = max # of 1-3 neighbors
     4 = max # of 1-4 neighbors
     6 = max # of special neighbors
  special bonds CPU = 0.000 seconds
  read_data CPU = 0.006 seconds

bond_style      fene
bond_coeff      * 30.0 1.5 1.0 1.0
special_bonds   fene
Finding 1-2 1-3 1-4 neighbors ...
  special bond factors lj:    0        1        1       
  special bond factors coul:  0        1        1       
     2 = max # of 1-2 neighbors
     6 = max # of special neighbors
  special bonds CPU = 0.000 seconds

variable        Temp equal 1.0
variable        velSeed equal 926458

velocity        all create ${Temp} ${velSeed}
velocity        all create 1 ${velSeed}
velocity        all create 1 926458

### Output
thermo_style    custom step temp density press etotal pe ke epair spcpu
thermo          1000

###########################################################################
# Soft relaxation (to remove overlaps of particles)
######################################################################

pair_style      soft 1.0
pair_coeff      * * 0.0
variable        prefactor equal ramp(0,300)
fix             rampSoft all adapt 1 pair soft a * * v_prefactor

minimize        0.0 1.0e-8 1000 100000
WARNING: Using 'neigh_modify every 1 delay 0 check yes' setting during minimization (src/min.cpp:187)
Generated 0 of 6 mixed pair_coeff terms from geometric mixing rule
Neighbor list info ...
  update every 1 steps, delay 0 steps, check yes
  max neighbors/atom: 2000, page size: 100000
  master list distance cutoff = 1.3
  ghost atom cutoff = 1.3
  binsize = 0.65, bins = 54 54 54
  1 neighbor lists, perpetual/occasional/extra = 1 0 0
  (1) pair soft, perpetual
      attributes: half, newton on
      pair build: half/bin/newton
      stencil: half/bin/3d
      bin: standard
WARNING: Communication cutoff 1.3 is shorter than a bond length based estimate of 1.7550000000000001. This may lead to errors. (src/comm.cpp:727)
Per MPI rank memory allocation (min/avg/max) = 8.346 | 8.346 | 8.346 Mbytes
   Step          Temp         Density         Press          TotEng         PotEng         KinEng         E_pair         S/CPU     
         0   1              0.0023323615  -0.0039617958   21.524174      20.039174      1.485          0              0            
       362   1              0.0023323615   0.0023090379   21.485548      20.000548      1.485          0              66862.97     
Loop time of 0.00541648 on 1 procs for 362 steps with 100 atoms

99.4% CPU use with 1 MPI tasks x 1 OpenMP threads

Minimization stats:
  Stopping criterion = force tolerance
  Energy initial, next-to-last, final = 
      20.0391741078675   20.0005480767337   20.0005480767337
  Force two-norm initial, final = 11.878422 7.9509778e-09
  Force max component initial, final = 6.6117807 1.3572772e-09
  Final line search alpha, max atom move = 1 1.3572772e-09
  Iterations, force evaluations = 362 738

MPI task timing breakdown:
Section |  min time  |  avg time  |  max time  |%varavg| %total
---------------------------------------------------------------
Pair    | 0.00021289 | 0.00021289 | 0.00021289 |   0.0 |  3.93
Bond    | 0.002341   | 0.002341   | 0.002341   |   0.0 | 43.22
Neigh   | 0.0016866  | 0.0016866  | 0.0016866  |   0.0 | 31.14
Comm    | 0.00018511 | 0.00018511 | 0.00018511 |   0.0 |  3.42
Output  | 0          | 0          | 0          |   0.0 |  0.00
Modify  | 0          | 0          | 0          |   0.0 |  0.00
Other   |            | 0.0009909  |            |       | 18.29

Nlocal:            100 ave         100 max         100 min
Histogram: 1 0 0 0 0 0 0 0 0 0
Nghost:             20 ave          20 max          20 min
Histogram: 1 0 0 0 0 0 0 0 0 0
Neighs:              0 ave           0 max           0 min
Histogram: 1 0 0 0 0 0 0 0 0 0

Total # of neighbors = 0
Ave neighs/atom = 0
Ave special neighs/atom = 1.98
Neighbor list builds = 17
Dangerous builds = 0

fix             nvtSoft all nvt temp ${Temp} ${Temp} 0.5
fix             nvtSoft all nvt temp 1 ${Temp} 0.5
fix             nvtSoft all nvt temp 1 1 0.5
run             100000
Generated 0 of 6 mixed pair_coeff terms from geometric mixing rule
WARNING: Communication cutoff 1.3 is shorter than a bond length based estimate of 1.7550000000000001. This may lead to errors. (src/comm.cpp:727)
Per MPI rank memory allocation (min/avg/max) = 7.221 | 7.221 | 7.221 Mbytes
   Step          Temp         Density         Press          TotEng         PotEng         KinEng         E_pair         S/CPU     
       362   1              0.0023323615   0.0023090379   21.485548      20.000548      1.485          0              0            
      1000   0.90989032     0.0023323615  -0.0021940042   21.776974      20.425787      1.3511871      0.00036425437  77847.105    
      2000   0.86546688     0.0023323615   0.0034714157   21.677128      20.39191       1.2852183      0.0025814786   77594.46     
      3000   0.98199538     0.0023323615   0.0028144228   21.866132      20.407869      1.4582631      0.0011756043   72212.985    
      4000   1.004495       0.0023323615  -0.0014058211   21.945624      20.453949      1.4916751      0.011986179    74299.962    
      5000   1.1222705      0.0023323615   0.0044495116   21.986385      20.319813      1.6665718      0.0050317639   74605.241    
      6000   1.0538243      0.0023323615   0.0023957538   21.985713      20.420784      1.564929       0.012100514    75336.087    
      7000   1.0210598      0.0023323615  -0.00038820026  21.904665      20.388391      1.5162738      0              77082.466    
      8000   0.94819751     0.0023323615   0.0024943091   21.747889      20.339816      1.4080733      0              76707.311    
      9000   0.92364502     0.0023323615   0.0020053029   21.724166      20.352554      1.3716129      1.7780894e-05  75989.418    
     10000   0.86685188     0.0023323615   0.00078277366  21.644879      20.357604      1.287275       0.0098636418   76349.737    
     11000   1.0057103      0.0023323615   0.00010113276  21.8558        20.362321      1.4934798      0.020705341    73804.682    
     12000   0.97901664     0.0023323615  -0.0026996968   21.871206      20.417366      1.4538397      0.0052928539   75858.548    
     13000   0.97718436     0.0023323615  -6.1641422e-06  21.963706      20.512587      1.4511188      0.025022446    75739.565    
     14000   1.0530014      0.0023323615  -0.0009993112   21.947994      20.384287      1.5637071      0.0020860456   74996.964    
     15000   0.99094527     0.0023323615   0.0011068478   21.895146      20.423592      1.4715537      0.0015091113   75891.542    
     16000   0.91285091     0.0023323615  -0.00025424173  21.87524       20.519657      1.3555836      0.0047853639   75524.828    
     17000   0.82806978     0.0023323615  -0.00054698156  21.701984      20.472301      1.2296836      0              75473.999    
     18000   1.043278       0.0023323615  -6.6143919e-05  22.003299      20.454031      1.5492679      0.0034319132   75575.725    
     19000   1.0879249      0.0023323615  -0.0017804642   21.998985      20.383416      1.6155685      0.015376175    73931.561    
     20000   1.1144506      0.0023323615   0.0025198298   22.190904      20.535944      1.6549592      0              76177.498    
     21000   1.0427751      0.0023323615   0.0011345349   22.099492      20.550971      1.548521       0.00040047813  76106.513    
     22000   1.0586695      0.0023323615   0.0017882747   22.05673       20.484606      1.5721242      0              75693.5      
     23000   1.0058426      0.0023323615  -0.0055245362   21.954628      20.460951      1.4936763      0.0027619031   74875.777    
     24000   0.98273442     0.0023323615   0.0015147357   21.862067      20.402707      1.4593606      0              75361.403    
     25000   0.95835343     0.0023323615   0.0017808774   21.937761      20.514606      1.4231548      0.00020839942  75489.582    
     26000   0.93993778     0.0023323615  -0.0021777292   21.884849      20.489042      1.3958076      0.0088889834   73772.117    
     27000   0.9308188      0.0023323615  -0.00011239942  21.842252      20.459986      1.3822659      0.021612409    75040.828    
     28000   1.0149581      0.0023323615   0.0041996387   21.906846      20.399633      1.5072129      0.0064059022   75557.474    
     29000   0.92841138     0.0023323615  -2.5398808e-05  21.987185      20.608494      1.3786909      0.0046112484   75363.045    
     30000   1.021043       0.0023323615   0.001589158    22.097958      20.581709      1.5162489      0.016799508    72402.929    
     31000   1.0465985      0.0023323615  -0.0021744286   22.037917      20.483718      1.5541987      0.0057879149   75768.137    
     32000   0.98907108     0.0023323615  -0.0015558606   22.044089      20.575318      1.4687705      0.009448173    75319.604    
     33000   1.0918536      0.0023323615  -0.0025643847   22.039275      20.417873      1.6214025      0              74569.008    
     34000   0.99801543     0.0023323615   0.0016279766   21.932339      20.450286      1.4820529      0.017384617    74830.427    
     35000   1.0352271      0.0023323615  -0.0052971711   22.076004      20.538692      1.5373122      0.00010473809  75443.764    
     36000   1.1141579      0.0023323615  -0.00093279925  22.222491      20.567966      1.6545245      0.00033678641  76583.183    
     37000   1.0369415      0.0023323615   0.00013065175  22.217841      20.677983      1.5398581      0.013788831    75540.488    
     38000   1.0515596      0.0023323615   0.0021717558   22.070766      20.5092        1.561566       0.0067894678   75902.682    
     39000   1.0238495      0.0023323615   0.00026414509  22.040141      20.519725      1.5204165      0.00044464649  75232.006    
     40000   1.0749111      0.0023323615  -0.0026849368   22.039327      20.443084      1.596243       0.012651334    73629.64     
     41000   0.99070886     0.0023323615  -0.0030385564   22.03241       20.561207      1.4712027      0.00092855646  76794.594    
     42000   0.95315224     0.0023323615   0.0019788197   21.965263      20.549832      1.4154311      0.020233689    73191.075    
     43000   1.0644183      0.0023323615  -0.0011168725   22.287172      20.706511      1.5806611      0.039694129    75241.589    
     44000   1.0253747      0.0023323615  -0.006676522    22.066233      20.543552      1.5226814      0              74460.702    
     45000   0.94179556     0.0023323615  -0.0047206018   21.970644      20.572077      1.3985664      0.019869988    74977.694    
     46000   1.0083495      0.0023323615  -0.0017646918   21.972114      20.474715      1.497399       0.00026040605  75450.156    
     47000   0.98767959     0.0023323615  -0.00080218158  22.091674      20.62497       1.4667042      0.024266258    75060.238    
     48000   1.1473449      0.0023323615  -0.0025885687   22.080512      20.376705      1.7038072      0.00065962995  75467.666    
     49000   1.0679312      0.0023323615   0.0017688272   21.970482      20.384604      1.5858779      0.014142422    76501.483    
     50000   0.9581935      0.0023323615   0.0014398836   21.955202      20.532284      1.4229173      0.0055011948   74866.287    
     51000   1.0215759      0.0023323615  -0.00093292688  21.934681      20.41764       1.5170402      0              75617.346    
     52000   0.98079591     0.0023323615   0.0040701936   21.977374      20.520892      1.4564819      0.0020862422   76523.77     
     53000   1.0090927      0.0023323615   0.0013324753   22.095438      20.596935      1.4985027      0              75649.844    
     54000   0.97519627     0.0023323615   0.0013260734   22.070151      20.621984      1.4481665      0.026885444    76429.717    
     55000   1.1805087      0.0023323615  -0.001586238    22.424088      20.671033      1.7530554      0.024690954    76114.176    
     56000   0.98387121     0.0023323615   0.0037155145   22.104425      20.643376      1.4610487      0.01435493     75743.873    
     57000   1.0723812      0.0023323615  -0.0037916262   22.122726      20.53024       1.592486       0.013635549    76065.051    
     58000   1.0152349      0.0023323615   0.00021908047  22.082827      20.575203      1.5076238      0.00077375639  75720.542    
     59000   1.1424502      0.0023323615  -0.0052108657   22.30072       20.604182      1.6965385      0.013308184    76715.803    
     60000   1.0359703      0.0023323615  -0.00097887545  22.188218      20.649802      1.538416       0.00011346294  75149.988    
     61000   1.1646839      0.0023323615  -0.002085017    22.239945      20.51039       1.7295556      0.012918477    76506.282    
     62000   1.101836       0.0023323615   0.0010338878   22.171386      20.53516       1.6362265      0.001396566    75869.103    
     63000   0.96616435     0.0023323615   0.00097550571  21.903821      20.469067      1.4347541      0.013027663    77499.566    
     64000   1.0068907      0.0023323615  -0.0020278726   22.061652      20.566419      1.4952327      0.013750276    76092.764    
     65000   0.98723233     0.0023323615   0.0022441476   22.031073      20.565033      1.46604        0.0066686189   76201.687    
     66000   1.0273881      0.0023323615  -0.0003515278   22.183579      20.657908      1.5256713      0              74699.765    
     67000   0.96528212     0.0023323615  -0.00014822656  21.9396        20.506156      1.4334439      0.010365557    75516.204    
     68000   1.069702       0.0023323615   9.4754668e-05  22.081119      20.492611      1.5885075      0.00049153926  74018.735    
     69000   1.1229502      0.0023323615   0.0011504079   22.200329      20.532748      1.6675811      0.0068454249   74875.553    
     70000   1.0062775      0.0023323615  -0.00085311964  22.094021      20.599699      1.4943221      0.013222355    75207.117    
     71000   1.0906935      0.0023323615   0.00015260357  22.145362      20.525682      1.6196798      0.018338513    75929.643    
     72000   1.010401       0.0023323615  -6.0487182e-06  22.154105      20.653659      1.5004455      0.0013793953   74673.559    
     73000   1.1177599      0.0023323615  -0.0034084797   22.254435      20.594562      1.6598735      0.00011231735  74912.927    
     74000   0.9768019      0.0023323615   0.00016143893  22.07312       20.622569      1.4505508      0.0084515956   75469.836    
     75000   1.1360996      0.0023323615   0.002159116    22.161595      20.474487      1.6871079      0.0089909162   76321.19     
     76000   0.97379329     0.0023323615  -0.00068458621  21.988928      20.542845      1.446083       0              75496.039    
     77000   0.94876793     0.0023323615  -0.0016073976   21.923496      20.514575      1.4089204      0.017745108    75591.806    
     78000   0.83947996     0.0023323615  -0.00062768559  21.726727      20.480099      1.2466277      0.0054510099   75985.711    
     79000   1.0090614      0.0023323615  -0.00080262643  22.068192      20.569736      1.4984562      0.00023011166  76686.329    
     80000   1.1217643      0.0023323615  -0.0038177864   22.367902      20.702082      1.66582        0.032902439    75937.79     
     81000   1.0240158      0.0023323615   0.00023547123  22.031597      20.510933      1.5206635      0.0068767308   74392.773    
     82000   1.003236       0.0023323615  -0.0022802982   21.894199      20.404393      1.4898055      0.019136282    73602.711    
     83000   1.0554159      0.0023323615   0.004011718    22.104562      20.537269      1.5672927      0.0080869707   74379.415    
     84000   0.83527346     0.0023323615  -0.0034122221   21.874648      20.634267      1.2403811      0.0030083664   75583.448    
     85000   1.036002       0.0023323615   0.0013573923   21.962923      20.42446       1.5384629      0.015709144    76337.072    
     86000   0.9432002      0.0023323615  -0.0032183248   21.913588      20.512936      1.4006523      0.013730309    76189.472    
     87000   0.95566008     0.0023323615  -0.00049614223  21.91653       20.497375      1.4191552      0.0035862035   75218.849    
     88000   0.93373351     0.0023323615  -0.00097093893  21.870485      20.483891      1.3865943      0.0018212145   74987.725    
     89000   0.9684944      0.0023323615  -0.00047342045  21.973429      20.535215      1.4382142      0.00087524744  75400.509    
     90000   0.98293324     0.0023323615  -0.0032204602   22.050919      20.591263      1.4596559      0.015353933    76727.475    
     91000   1.0832827      0.0023323615   0.0048517083   22.11977       20.511095      1.6086749      0.0052867789   77518.106    
     92000   0.85899662     0.0023323615  -0.0013049519   21.765697      20.490087      1.27561        0.0024124001   74902.361    
     93000   0.96176266     0.0023323615  -4.4223672e-05  21.874222      20.446004      1.4282176      0.0045653365   77176.936    
     94000   0.96019503     0.0023323615   0.00024459347  21.944954      20.519064      1.4258896      3.8053462e-05  76612.807    
     95000   0.94702149     0.0023323615  -0.0033658915   21.86315       20.456823      1.4063269      0              77180.76     
     96000   0.91119348     0.0023323615  -0.0013197298   21.825018      20.471896      1.3531223      0.00043282989  75861.431    
     97000   1.0016687      0.0023323615  -0.0019514304   22.013024      20.525546      1.487478       0.0048369955   75303.178    
     98000   1.02143        0.0023323615  -0.0057874974   22.177965      20.661142      1.5168235      0              74297.473    
     99000   1.032786       0.0023323615   0.0018228259   21.975336      20.441649      1.5336871      7.1595851e-05  77216.762    
    100000   1.0594928      0.0023323615   0.0036169719   22.011024      20.437677      1.5733468      0.00032948157  75641.93     
    100362   1.1904942      0.0023323615  -0.00089755607  22.316856      20.548972      1.7678839      0.00063845255  74898.447    
Loop time of 1.32437 on 1 procs for 100000 steps with 100 atoms

Performance: 32619285.077 tau/day, 75507.604 timesteps/s
98.8% CPU use with 1 MPI tasks x 1 OpenMP threads

MPI task timing breakdown:
Section |  min time  |  avg time  |  max time  |%varavg| %total
---------------------------------------------------------------
Pair    | 0.049326   | 0.049326   | 0.049326   |   0.0 |  3.72
Bond    | 0.12688    | 0.12688    | 0.12688    |   0.0 |  9.58
Neigh   | 0.80602    | 0.80602    | 0.80602    |   0.0 | 60.86
Comm    | 0.055646   | 0.055646   | 0.055646   |   0.0 |  4.20
Output  | 0.0013346  | 0.0013346  | 0.0013346  |   0.0 |  0.10
Modify  | 0.25026    | 0.25026    | 0.25026    |   0.0 | 18.90
Other   |            | 0.0349     |            |       |  2.64

Nlocal:            100 ave         100 max         100 min
Histogram: 1 0 0 0 0 0 0 0 0 0
Nghost:             60 ave          60 max          60 min
Histogram: 1 0 0 0 0 0 0 0 0 0
Neighs:             36 ave          36 max          36 min
Histogram: 1 0 0 0 0 0 0 0 0 0

Total # of neighbors = 36
Ave neighs/atom = 0.36
Ave special neighs/atom = 1.98
Neighbor list builds = 9821
Dangerous builds = 8265
unfix           nvtSoft
unfix           rampSoft
reset_timestep  0

write_data      ${outputfile_relaxed}
write_data      5_relaxed.data
System init for write_data ...
Generated 0 of 6 mixed pair_coeff terms from geometric mixing rule
WARNING: Communication cutoff 1.3 is shorter than a bond length based estimate of 1.7550000000000001. This may lead to errors. (src/comm.cpp:727)
WARNING: Not all mixed pair coeffs generated from mixing. Use write_data with 'pair ij' option to store all pair coeffs. (src/write_data.cpp:309)

###########################################################################
# Full LJ with Coulomb
######################################################################

# Cutoffs and parameters:
# - Values: Marcel Verkade's Bachelor Thesis
# - Mapping to atom groups: Patrick Onck's paper
# - 1: aliphatic, 2: aromatic, 3: anion, 4: cation
# pair_style	lj/cut/coul/cut <lj_cut_global> <coul_cut_global>
# pair_coeff	<type_1>  <type_2>  <eps>  <sigma>  <r_cut_lj>  <r_cut_coul>

# Problem: Onck's model is much more complex, and Marcel has no sigma reported
# Using sigma=1 randomly

variable		glob_ljeps equal 1.0
variable		glob_ljsig 	equal 1.0
variable		glob_coulcut equal 10.0
variable		att_ljcut equal 2.50
variable		rep_ljcut equal 1.12

pair_style		lj/cut/coul/cut 						${att_ljcut} 	${glob_coulcut}
pair_style		lj/cut/coul/cut 						2.5 	${glob_coulcut}
pair_style		lj/cut/coul/cut 						2.5 	10
pair_coeff		1 1 	${glob_ljeps} 	${glob_ljsig}	${att_ljcut} 	${glob_coulcut}
pair_coeff		1 1 	1 	${glob_ljsig}	${att_ljcut} 	${glob_coulcut}
pair_coeff		1 1 	1 	1	${att_ljcut} 	${glob_coulcut}
pair_coeff		1 1 	1 	1	2.5 	${glob_coulcut}
pair_coeff		1 1 	1 	1	2.5 	10
pair_coeff		1 2 	${glob_ljeps} 	${glob_ljsig}	${att_ljcut} 	${glob_coulcut}
pair_coeff		1 2 	1 	${glob_ljsig}	${att_ljcut} 	${glob_coulcut}
pair_coeff		1 2 	1 	1	${att_ljcut} 	${glob_coulcut}
pair_coeff		1 2 	1 	1	2.5 	${glob_coulcut}
pair_coeff		1 2 	1 	1	2.5 	10
pair_coeff		1 3 	${glob_ljeps} 	${glob_ljsig}	${rep_ljcut} 	${glob_coulcut}
pair_coeff		1 3 	1 	${glob_ljsig}	${rep_ljcut} 	${glob_coulcut}
pair_coeff		1 3 	1 	1	${rep_ljcut} 	${glob_coulcut}
pair_coeff		1 3 	1 	1	1.12 	${glob_coulcut}
pair_coeff		1 3 	1 	1	1.12 	10
pair_coeff		1 4 	${glob_ljeps} 	${glob_ljsig}	${rep_ljcut} 	${glob_coulcut}
pair_coeff		1 4 	1 	${glob_ljsig}	${rep_ljcut} 	${glob_coulcut}
pair_coeff		1 4 	1 	1	${rep_ljcut} 	${glob_coulcut}
pair_coeff		1 4 	1 	1	1.12 	${glob_coulcut}
pair_coeff		1 4 	1 	1	1.12 	10
pair_coeff		2 2 	${glob_ljeps} 	${glob_ljsig}	${att_ljcut} 	${glob_coulcut}
pair_coeff		2 2 	1 	${glob_ljsig}	${att_ljcut} 	${glob_coulcut}
pair_coeff		2 2 	1 	1	${att_ljcut} 	${glob_coulcut}
pair_coeff		2 2 	1 	1	2.5 	${glob_coulcut}
pair_coeff		2 2 	1 	1	2.5 	10
pair_coeff		2 3 	${glob_ljeps} 	${glob_ljsig}	${rep_ljcut} 	${glob_coulcut}
pair_coeff		2 3 	1 	${glob_ljsig}	${rep_ljcut} 	${glob_coulcut}
pair_coeff		2 3 	1 	1	${rep_ljcut} 	${glob_coulcut}
pair_coeff		2 3 	1 	1	1.12 	${glob_coulcut}
pair_coeff		2 3 	1 	1	1.12 	10
pair_coeff		2 4 	${glob_ljeps} 	${glob_ljsig}	${att_ljcut} 	${glob_coulcut}
pair_coeff		2 4 	1 	${glob_ljsig}	${att_ljcut} 	${glob_coulcut}
pair_coeff		2 4 	1 	1	${att_ljcut} 	${glob_coulcut}
pair_coeff		2 4 	1 	1	2.5 	${glob_coulcut}
pair_coeff		2 4 	1 	1	2.5 	10
pair_coeff		3 3 	${glob_ljeps} 	${glob_ljsig}	${rep_ljcut} 	${glob_coulcut}
pair_coeff		3 3 	1 	${glob_ljsig}	${rep_ljcut} 	${glob_coulcut}
pair_coeff		3 3 	1 	1	${rep_ljcut} 	${glob_coulcut}
pair_coeff		3 3 	1 	1	1.12 	${glob_coulcut}
pair_coeff		3 3 	1 	1	1.12 	10
pair_coeff		3 4 	${glob_ljeps} 	${glob_ljsig}	${att_ljcut} 	${glob_coulcut}
pair_coeff		3 4 	1 	${glob_ljsig}	${att_ljcut} 	${glob_coulcut}
pair_coeff		3 4 	1 	1	${att_ljcut} 	${glob_coulcut}
pair_coeff		3 4 	1 	1	2.5 	${glob_coulcut}
pair_coeff		3 4 	1 	1	2.5 	10
pair_coeff		4 4 	${glob_ljeps} 	${glob_ljsig}	${rep_ljcut} 	${glob_coulcut}
pair_coeff		4 4 	1 	${glob_ljsig}	${rep_ljcut} 	${glob_coulcut}
pair_coeff		4 4 	1 	1	${rep_ljcut} 	${glob_coulcut}
pair_coeff		4 4 	1 	1	1.12 	${glob_coulcut}
pair_coeff		4 4 	1 	1	1.12 	10


fix             noDriftRot 	all momentum 10 linear 1 1 1 angular
fix             nvt1 		all nvt temp ${Temp} ${Temp} 0.5
fix             nvt1 		all nvt temp 1 ${Temp} 0.5
fix             nvt1 		all nvt temp 1 1 0.5

# dump          assemble 	all custom 1000 				${outputfile_selfasb} id type xu yu zu vx vy vz
dump            lindump 	all custom ${subsample_rate} 	${outputfile_trajlin} id type xu yu zu vx vy vz
dump            lindump 	all custom 1000 	${outputfile_trajlin} id type xu yu zu vx vy vz
dump            lindump 	all custom 1000 	6_b_trajlin.data id type xu yu zu vx vy vz

run             ${runtime}
run             1000000
Generated 0 of 6 mixed pair_coeff terms from geometric mixing rule
Neighbor list info ...
  update every 1 steps, delay 10 steps, check yes
  max neighbors/atom: 2000, page size: 100000
  master list distance cutoff = 10.3
  ghost atom cutoff = 10.3
  binsize = 5.15, bins = 7 7 7
  1 neighbor lists, perpetual/occasional/extra = 1 0 0
  (1) pair lj/cut/coul/cut, perpetual
      attributes: half, newton on
      pair build: half/bin/newton
      stencil: half/bin/3d
      bin: standard
Per MPI rank memory allocation (min/avg/max) = 7.712 | 7.712 | 7.712 Mbytes
   Step          Temp         Density         Press          TotEng         PotEng         KinEng         E_pair         S/CPU     
         0   1.1904942      0.0023323615  -0.0015488047   21.889086      20.121202      1.7678839     -0.42713187     0            
      1000   0.95823244     0.0023323615   0.00201547     21.162955      19.73998       1.4229752     -0.72863428     32964.19     
      2000   0.85488533     0.0023323615  -0.0028544496   21.068887      19.799382      1.2695047     -0.6740479      29557.922    
      3000   0.83818861     0.0023323615   0.0010227889   20.747558      19.502848      1.2447101     -1.0159717      24112.869    
      4000   0.95071826     0.0023323615  -0.0023378508   20.26481       18.852994      1.4118166     -1.5032001      19594.581    
      5000   1.0609244      0.0023323615   0.0035407976   20.226901      18.651428      1.5754727     -1.7683755      18140.335    
      6000   0.98365967     0.0023323615  -0.0039809837   20.536757      19.076022      1.4607346     -1.422956       18416.081    
      7000   1.0350759      0.0023323615  -0.0032494474   20.446091      18.909003      1.5370878     -1.6410721      18499.111    
      8000   1.0071417      0.0023323615  -0.0039937985   20.048779      18.553173      1.4956054     -2.0196634      18412.12     
      9000   1.0834011      0.0023323615  -0.0029011421   20.393713      18.784863      1.6088507     -1.7710625      18370.581    
     10000   1.1862393      0.0023323615   0.0037686575   20.301391      18.539825      1.7615654     -1.876268       18326.977    
     11000   1.0387275      0.0023323615  -0.0012494359   20.465095      18.922584      1.5425103     -1.569424       18299.798    
     12000   1.1843741      0.0023323615   0.0030882628   20.674494      18.915699      1.7587955     -1.5045837      18320.518    
     13000   1.2271481      0.0023323615   0.0021323892   20.674012      18.851697      1.8223149     -1.6935448      18125.755    
     14000   0.92846997     0.0023323615  -0.0020902263   20.231262      18.852484      1.3787779     -1.6266489      18277.704    
     15000   1.0034679      0.0023323615   0.00069658787  19.923265      18.433115      1.4901498     -1.9715225      18252.796    
     16000   1.0253127      0.0023323615   0.003210826    20.148409      18.625819      1.5225894     -1.8585848      18240.428    
     17000   1.038161       0.0023323615   0.0033026999   20.287219      18.74555       1.541669      -1.8323883      18175.36     
     18000   1.158812       0.0023323615   0.0048223119   20.749205      19.02837       1.7208358     -1.4810425      18211.56     
     19000   1.0933169      0.0023323615  -0.0023986554   20.504761      18.881185      1.6235756     -1.6747189      18372.61     
     20000   0.9442257      0.0023323615  -0.003349536    20.348643      18.946468      1.4021752     -1.5708528      18406.976    
     21000   0.95065435     0.0023323615  -0.0018376735   20.219649      18.807927      1.4117217     -1.6938515      17690.403    
     22000   0.84186301     0.0023323615   0.0013328306   20.190607      18.940441      1.2501666     -1.5169673      18403.922    
     23000   0.95334886     0.0023323615  -0.0019772987   20.30088       18.885157      1.4157231     -1.5396742      18412.062    
     24000   1.0064702      0.0023323615  -0.0010917228   20.282853      18.788244      1.4946083     -1.7919837      18333.623    
     25000   1.0692019      0.0023323615  -0.00059387913  20.255863      18.668098      1.5877649     -1.8686371      18344.229    
     26000   0.98364898     0.0023323615  -0.0021364685   20.404652      18.943933      1.4607187     -1.6417282      18336.519    
     27000   0.97567209     0.0023323615  -0.0028297135   20.338043      18.88917       1.4488731     -1.6988087      18296.577    
     28000   1.0528173      0.0023323615   0.00067273762  20.582265      19.018831      1.5634338     -1.5324525      18458.871    
     29000   0.91485244     0.0023323615  -0.0035823169   20.34777       18.989215      1.3585559     -1.590237       18240.381    
     30000   0.91972568     0.0023323615  -0.0025584693   20.145471      18.779678      1.3657926     -1.5818203      18279.689    
     31000   0.85768497     0.0023323615   0.00036302068  20.061811      18.788149      1.2736622     -1.6837599      18154.302    
     32000   1.0867891      0.0023323615  -0.0010662684   20.582971      18.96909       1.6138819     -1.4793717      18200.754    
     33000   1.0524394      0.0023323615  -0.0033405408   20.726659      19.163786      1.5628724     -1.3798326      18496.269    
     34000   1.0875008      0.0023323615  -0.0026671062   20.813526      19.198588      1.6149387     -1.4578717      18553.745    
     35000   0.89017502     0.0023323615  -0.0033268164   20.348124      19.026214      1.3219099     -1.6326989      18464.96     
     36000   1.0392299      0.0023323615   0.002941347    20.689146      19.145889      1.5432564     -1.4515815      18275.964    
     37000   0.85157448     0.0023323615  -0.0030566196   20.352919      19.088331      1.2645881     -1.42648        18313.14     
     38000   1.0830722      0.0023323615  -0.00081804853  20.685014      19.076652      1.6083623     -1.4127592      18379.654    
     39000   1.0087601      0.0023323615  -0.0026046284   20.565356      19.067347      1.4980088     -1.4617536      18461.149    
     40000   1.0464142      0.0023323615  -0.0024416266   20.590416      19.036491      1.5539251     -1.5218697      18275.545    
     41000   1.056331       0.0023323615  -0.0013487246   20.716602      19.14795       1.5686516     -1.4343377      18324.269    
     42000   0.98158352     0.0023323615   0.00043810067  20.436862      18.97921       1.4576515     -1.4992681      18236.309    
     43000   0.96922709     0.0023323615   0.002264226    20.25908       18.819778      1.4393022     -1.7796747      18166.395    
     44000   1.1467571      0.0023323615  -0.0021282312   20.54354       18.840606      1.7029343     -1.7739538      18088.381    
     45000   0.98134167     0.0023323615   0.002663257    20.2591        18.801808      1.4572924     -1.7491063      18139.228    
     46000   1.1286068      0.0023323615  -0.00077702877  20.637568      18.961587      1.6759811     -1.6225481      18229.797    
     47000   0.91385174     0.0023323615   0.00048651823  20.129541      18.772471      1.3570698     -1.6573568      18298.717    
     48000   1.0833285      0.0023323615   0.0029378909   20.497917      18.889175      1.6087428     -1.649567       18388.373    
     49000   0.95467742     0.0023323615  -0.0020952656   20.198623      18.780927      1.417696      -1.7454699      18424.219    
     50000   1.0590667      0.0023323615  -0.0019793939   20.149088      18.576374      1.572714      -2.009109       18184.618    
     51000   0.97262608     0.0023323615  -0.00098726087  20.336628      18.892278      1.4443497     -1.6970931      18074.46     
     52000   0.95146332     0.0023323615  -0.00069693439  20.005628      18.592704      1.412923      -1.9601931      18154.127    
     53000   0.96756734     0.0023323615   0.0013570173   20.0158        18.578963      1.4368375     -1.8765369      18176.237    
     54000   0.89454536     0.0023323615  -0.0020755742   19.987671      18.659271      1.3283999     -1.9379547      18094.188    
     55000   0.85948987     0.0023323615  -0.0042846679   20.096539      18.820196      1.2763425     -1.7816152      18204.319    
     56000   1.0044558      0.0023323615  -0.0020198342   20.179302      18.687685      1.4916168     -1.8402691      18259.852    
     57000   0.90243437     0.0023323615  -0.0032034758   20.501448      19.161333      1.340115      -1.6058937      18176.194    
     58000   1.0102238      0.0023323615  -0.00066879475  20.260656      18.760473      1.5001824     -1.8279368      18251.995    
     59000   0.98335847     0.0023323615  -0.0035485649   20.501338      19.041051      1.4602873     -1.6263075      18287.262    
     60000   1.0418723      0.0023323615  -0.00092690046  20.373473      18.826292      1.5471803     -1.7691667      18305.063    
     61000   0.86275956     0.0023323615   0.002416776    20.024095      18.742897      1.281198      -1.7194679      18234.519    
     62000   0.92873045     0.0023323615  -0.0035027623   20.077366      18.698201      1.3791647     -1.927805       18250.45     
     63000   1.1189194      0.0023323615   0.00010319319  20.511075      18.84948       1.6615954     -1.6377561      18224.644    
     64000   1.0812993      0.0023323615   0.002499281    20.586427      18.980698      1.6057294     -1.6144286      18298.976    
     65000   0.89481292     0.0023323615   0.0037924786   20.52009       19.191293      1.3287972     -1.4287933      18344.3      
     66000   1.0495946      0.0023323615   0.00013197541  20.476581      18.917933      1.558648      -1.5567985      18360.403    
     67000   1.0991972      0.0023323615   0.0030643385   20.256747      18.624439      1.6323078     -1.7915472      18353.87     
     68000   0.96678457     0.0023323615  -0.0036749655   20.395561      18.959886      1.4356751     -1.6670625      18356.567    
     69000   1.0527974      0.0023323615  -0.00067728915  20.35229       18.788886      1.5634041     -1.6442163      18383.441    
     70000   0.97455357     0.0023323615   0.0010075233   20.377301      18.930089      1.4472121     -1.6011156      18293.264    
     71000   0.96172728     0.0023323615   0.0015804009   20.026668      18.598503      1.428165      -1.9212617      18133.22     
     72000   0.99898608     0.0023323615  -0.00078867205  20.009121      18.525626      1.4834943     -1.9784482      18206.49     
     73000   1.005897       0.0023323615  -0.003517789    20.419385      18.925628      1.4937571     -1.5933995      18294.917    
     74000   1.0735129      0.0023323615   0.0047299094   20.511761      18.917594      1.5941667     -1.7230397      18399.504    
     75000   0.98686267     0.0023323615  -0.0036657144   20.509         19.043509      1.4654911     -1.4644469      18382.141    
     76000   1.0336606      0.0023323615  -0.00028091058  20.177429      18.642443      1.534986      -1.8759754      18340.636    
     77000   0.92369287     0.0023323615   0.00056977633  20.173238      18.801554      1.3716839     -1.7079707      18359.133    
     78000   1.1583655      0.0023323615   0.0031444802   20.548973      18.8288        1.7201728     -1.6373278      18209.211    
     79000   1.0021429      0.0023323615  -0.00019701698  20.421173      18.932991      1.4881823     -1.5828016      18163.016    
     80000   0.94835235     0.0023323615   0.0027800503   20.302021      18.893717      1.4083032     -1.4888577      18248.938    
     81000   0.86153559     0.0023323615   0.0025483808   20.170861      18.891481      1.2793804     -1.5273499      18530.515    
     82000   1.0170313      0.0023323615   0.0029345376   20.429082      18.91879       1.5102914     -1.7643617      18348.364    
     83000   0.98908355     0.0023323615  -0.0010080831   20.211311      18.742522      1.4687891     -1.955152       18085.667    
     84000   1.0128223      0.0023323615   0.0032181314   20.528333      19.024292      1.5040411     -1.5912383      18120.385    
     85000   1.0385473      0.0023323615  -0.00061021615  20.625282      19.083039      1.5422428     -1.4896453      18317.802    
     86000   1.0640973      0.0023323615  -2.2658475e-07  20.241164      18.66098       1.5801844     -1.8705719      18008.856    
     87000   0.88464134     0.0023323615   0.0035769919   19.995899      18.682207      1.3136924     -1.8001861      18353.738    
     88000   1.0252815      0.0023323615  -0.00054062176  20.312529      18.789985      1.5225431     -1.7393073      18369.986    
     89000   0.91197072     0.0023323615  -5.520067e-05   20.130927      18.776651      1.3542765     -1.6812453      18278.012    
     90000   0.97617609     0.0023323615   0.0028599898   20.373789      18.924167      1.4496215     -1.6791552      18336.66     
     91000   1.1551842      0.0023323615  -0.0033037548   20.73794       19.022491      1.7154485     -1.5661951      18141.964    
     92000   0.97504957     0.0023323615   0.00035912538  20.400194      18.952245      1.4479486     -1.5980931      18442.357    
     93000   1.0653072      0.0023323615  -2.477327e-06   20.09108       18.509098      1.5819811     -1.8874957      18326.271    
     94000   0.94605615     0.0023323615  -0.0037076063   19.857777      18.452883      1.4048934     -2.0400547      18189.539    
     95000   0.93395621     0.0023323615   0.0030691975   20.122198      18.735273      1.386925      -1.8245142      18228.642    
     96000   1.0188897      0.0023323615   0.0011419608   20.35984       18.846788      1.5130512     -1.7201146      18129.35     
     97000   0.97921072     0.0023323615  -0.00042523712  20.189019      18.734891      1.4541279     -1.8356679      18205.451    
     98000   0.84368136     0.0023323615  -0.00084797856  19.888574      18.635707      1.2528668     -1.8449842      18117.126    
     99000   1.0253273      0.0023323615   0.0062523516   20.252247      18.729636      1.5226111     -1.8443832      18165.628    
    100000   1.0137391      0.0023323615   0.0028464723   20.277831      18.772429      1.5054026     -1.7459053      18027.1      
    101000   1.1014134      0.0023323615   0.00022819098  20.279729      18.64413       1.635599      -1.8546485      18077.085    
    102000   1.0981615      0.0023323615  -0.005072894    20.342287      18.711517      1.6307699     -1.8203459      18135.731    
    103000   0.87401358     0.0023323615   0.0015652575   20.109142      18.811231      1.2979102     -1.7885273      18230.286    
    104000   0.97267898     0.0023323615   0.00025111454  20.258554      18.814126      1.4444283     -1.6946421      18339.517    
    105000   0.87910578     0.0023323615   0.000352653    19.971866      18.666394      1.3054721     -1.8933106      18241.158    
    106000   0.97409229     0.0023323615   0.0011892166   20.46229       19.015763      1.446527      -1.6660807      18290.592    
    107000   0.94439862     0.0023323615  -0.0014713236   20.217531      18.815099      1.402432      -1.7183465      18204.239    
    108000   1.0943424      0.0023323615  -0.0008182452   20.090969      18.465871      1.6250985     -1.9456095      18165.344    
    109000   0.95575701     0.0023323615  -0.0014184971   20.092803      18.673504      1.4192992     -1.823157       18093.936    
    110000   1.0166386      0.0023323615   0.00061076969  20.384461      18.874752      1.5097083     -1.792012       18199.161    
    111000   0.95529946     0.0023323615   0.0014108238   20.291275      18.872655      1.4186197     -1.772361       18228.518    
    112000   1.0442923      0.0023323615   0.00046509305  20.169828      18.619054      1.5507741     -1.9543318      18390.165    
    113000   0.98313674     0.0023323615   0.0049039482   20.276156      18.816198      1.4599581     -1.7186482      18302.724    
    114000   0.9305042      0.0023323615  -0.0014941746   19.836585      18.454786      1.3817987     -2.0122115      18351.343    
    115000   0.99645195     0.0023323615  -0.00063300859  20.322626      18.842895      1.4797311     -1.6856918      18188.787    
    116000   0.94207889     0.0023323615   0.0020908007   20.049388      18.650401      1.3989871     -1.8247634      18230.666    
    117000   0.89052633     0.0023323615  -0.0014247382   19.801691      18.479259      1.3224316     -1.9903703      18217.19     
    118000   0.97946281     0.0023323615  -0.0023703214   20.298873      18.844371      1.4545023     -1.7290311      18161.929    
    119000   1.0096789      0.0023323615   0.00085334841  20.484983      18.98561       1.4993731     -1.537663       18382.985    
    120000   1.1195727      0.0023323615  -0.0027281691   20.463893      18.801327      1.6625654     -1.6999977      18334.538    
    121000   0.95609956     0.0023323615  -0.001007349    20.339924      18.920116      1.4198078     -1.661047       18288.424    
    122000   0.89163765     0.0023323615  -0.00057368615  20.15156       18.827478      1.3240819     -1.5671555      18224.425    
    123000   1.0744045      0.0023323615  -0.0034723872   20.41283       18.817339      1.5954908     -1.7050028      18258.976    
    124000   1.1601842      0.0023323615   0.00346599     20.454328      18.731454      1.7228735     -1.7028379      18321.931    
    125000   0.85968111     0.0023323615  -9.8231644e-05  19.919164      18.642537      1.2766265     -1.921433       18001.974    
    126000   0.99206289     0.0023323615   0.0014165816   19.972257      18.499044      1.4732134     -1.9711243      18161.424    
    127000   1.0183289      0.0023323615  -0.00066590015  20.180741      18.668523      1.5122184     -1.9241223      18049.995    
    128000   1.089913       0.0023323615   0.00063060117  20.379855      18.761334      1.6185208     -1.6659347      18230.726    
    129000   1.1226628      0.0023323615  -0.0013332265   20.256583      18.589429      1.6671542     -1.8835301      18155.795    
    130000   0.97328015     0.0023323615  -0.0034885093   20.043364      18.598043      1.445321      -2.0260068      18147.638    
    131000   0.93668583     0.0023323615  -0.0012356774   20.299627      18.908649      1.3909785     -1.6294828      18215.455    
    132000   1.1559832      0.0023323615  -0.0027291391   20.500899      18.784264      1.716635      -1.876316       18163.169    
    133000   1.03963        0.0023323615   0.0013426132   20.140389      18.596539      1.5438505     -1.9506203      18199.26     
    134000   1.0742237      0.0023323615   0.00058952013  20.078734      18.483512      1.5952221     -2.0494219      18421.19     
    135000   1.0107194      0.0023323615  -0.0014742937   19.99799       18.497071      1.5009184     -1.895661       18303.898    
    136000   1.1625675      0.0023323615   0.001638427    20.307947      18.581535      1.7264127     -1.8689802      18319.759    
    137000   1.1123899      0.0023323615   0.0028033212   20.425735      18.773836      1.6518991     -1.8319061      18119.586    
    138000   0.98207995     0.0023323615   0.00040446727  20.289131      18.830742      1.4583887     -1.8229886      18288.209    
    139000   0.97910368     0.0023323615   0.0016006102   20.27742       18.823451      1.453969      -1.828495       18316.952    
    140000   0.98686586     0.0023323615  -0.0018811776   20.181152      18.715657      1.4654958     -1.722909       18150.192    
    141000   1.1037237      0.0023323615   0.0009740652   20.264558      18.625528      1.6390298     -1.8866373      18188.071    
    142000   1.1026075      0.0023323615  -0.0012582843   20.182137      18.544765      1.6373721     -1.9884541      18117.135    
    143000   1.0396678      0.0023323615  -0.0043558944   20.330895      18.786988      1.5439067     -1.8667511      18291.658    
    144000   1.0994946      0.0023323615   0.00037288469  20.404215      18.771466      1.6327495     -1.7612634      17984.857    
    145000   1.0313054      0.0023323615   0.00019242738  20.491381      18.959892      1.5314885     -1.5256083      18319.789    
    146000   1.1485448      0.0023323615   0.002681129    20.376783      18.671194      1.705589      -1.7210063      18369.844    
    147000   1.0243503      0.0023323615   0.00079445403  20.324795      18.803635      1.5211602     -1.6770735      18343.164    
    148000   0.96474108     0.0023323615   0.0032431261   19.975381      18.54274       1.4326405     -1.8839287      18370.02     
    149000   0.92536678     0.0023323615  -0.0025956134   20.288731      18.914561      1.3741697     -1.5421956      18333.373    
    150000   1.0982159      0.0023323615  -0.0054653123   20.658352      19.027501      1.6308506     -1.5408038      18296.346    
    151000   1.040214       0.0023323615   0.0013008219   20.359365      18.814647      1.5447178     -1.7815193      18322.301    
    152000   0.95072099     0.0023323615   0.001967411    20.225287      18.813467      1.4118207     -1.6672769      18241.781    
    153000   1.0520503      0.0023323615  -0.000717284    20.33871       18.776415      1.5622947     -1.7295034      18319.923    
    154000   0.94831232     0.0023323615  -0.0042525908   20.206109      18.797865      1.4082438     -1.6787747      18356.671    
    155000   1.1065118      0.0023323615   0.0024680104   20.410707      18.767537      1.64317       -1.7500505      18326.462    
    156000   0.9677108      0.0023323615  -0.0015996351   19.886433      18.449382      1.4370505     -1.9743275      18404.563    
    157000   1.1373112      0.0023323615   0.00080948527  20.276833      18.587926      1.6889072     -1.8029124      18498.535    
    158000   1.0574092      0.0023323615  -0.0017020591   20.336611      18.766358      1.5702526     -1.7669054      18407.811    
    159000   0.9013406      0.0023323615   0.0041687649   20.327059      18.988569      1.3384908     -1.6244151      18306.957    
    160000   1.0475666      0.0023323615   0.0026074881   20.234331      18.678695      1.5556364     -1.8993987      18330.282    
    161000   0.93493642     0.0023323615  -0.0013954064   20.422793      19.034413      1.3883806     -1.5764389      18242.238    
    162000   1.1024194      0.0023323615  -0.00053262712  20.488251      18.851158      1.6370929     -1.7421217      18106.661    
    163000   1.1354113      0.0023323615   0.0017751843   20.518707      18.832621      1.6860858     -1.6677304      18349.787    
    164000   1.15963        0.0023323615   0.00017849088  20.58716       18.86511       1.7220505     -1.7309077      18273.524    
    165000   0.96680225     0.0023323615   0.00058770366  20.592544      19.156843      1.4357013     -1.5309282      18241.888    
    166000   0.97511994     0.0023323615   0.0021131935   20.263695      18.815642      1.4480531     -1.7179606      18222.149    
    167000   1.0282916      0.0023323615   0.0062092514   20.237397      18.710384      1.527013      -1.7852035      18132.472    
    168000   0.9665792      0.0023323615   0.002014312    20.303714      18.868343      1.4353701     -1.6522935      18264.797    
    169000   0.90364638     0.0023323615   0.00013242749  19.993257      18.651342      1.3419149     -1.7293371      18314.323    
    170000   0.96455405     0.0023323615  -0.003579707    20.210741      18.778379      1.4323628     -1.7349568      18303.919    
    171000   0.95706144     0.0023323615   0.0042616776   20.313861      18.892625      1.4212362     -1.6540482      18301.643    
    172000   1.0728418      0.0023323615   0.00072308742  20.710577      19.117407      1.59317       -1.5782655      18216.944    
    173000   1.0964715      0.0023323615  -0.00085225392  20.500635      18.872374      1.6282602     -1.5333315      18158.784    
    174000   1.0110688      0.0023323615   0.0011336154   20.269975      18.768538      1.5014372     -1.7277155      18157.38     
    175000   1.082397       0.0023323615   0.0030633395   20.255804      18.648445      1.6073596     -1.737256       18242.898    
    176000   1.0620065      0.0023323615   0.0051708444   20.266025      18.688946      1.5770797     -1.8792531      18119.924    
    177000   0.90245916     0.0023323615   0.00090537786  20.053502      18.713351      1.3401519     -1.8030812      18105.012    
    178000   0.98561955     0.0023323615  -0.00090697649  20.449827      18.986182      1.463645      -1.5522558      18137.243    
    179000   0.96163719     0.0023323615  -0.0012650743   20.397533      18.969502      1.4280312     -1.6374876      18099.802    
    180000   1.0806366      0.0023323615   0.0025405099   20.304265      18.699519      1.6047454     -1.7882048      18064.96     
    181000   0.99901225     0.0023323615  -0.0024695216   20.622384      19.138851      1.4835332     -1.4392517      18186.831    
    182000   0.89060127     0.0023323615   0.0010353948   20.039937      18.717394      1.3225429     -1.8541065      18366.447    
    183000   0.90996806     0.0023323615   0.00012892522  20.284382      18.93308       1.3513026     -1.5523825      18312.028    
    184000   0.97753755     0.0023323615   0.00030547372  20.183739      18.732096      1.4516433     -1.7908601      18277.152    
    185000   1.1123823      0.0023323615  -0.0040974004   20.66006       19.008173      1.6518878     -1.5058108      18481.272    
    186000   1.0104257      0.0023323615  -0.0011004917   20.212136      18.711654      1.5004822     -1.7551743      18270.357    
    187000   1.0522557      0.0023323615  -0.00092082418  20.297297      18.734697      1.5625997     -1.7707483      18193.926    
    188000   0.96279065     0.0023323615  -0.0012541912   20.236214      18.80647       1.4297441     -1.8295949      18075.753    
    189000   1.0475365      0.0023323615   0.00089891215  19.979208      18.423617      1.5555917     -2.0432845      18092.328    
    190000   1.0397865      0.0023323615   0.0019198937   20.481138      18.937055      1.544083      -1.6651716      18186.281    
    191000   0.85898907     0.0023323615   0.0019971506   19.916579      18.64098       1.2755988     -1.8092669      18138.948    
    192000   1.0246349      0.0023323615  -0.0024488616   20.315742      18.794159      1.5215829     -1.7619209      18223.586    
    193000   1.0928814      0.0023323615  -0.0015193805   20.565727      18.942798      1.6229289     -1.5777596      18222.242    
    194000   0.98144769     0.0023323615  -0.0048761936   20.300168      18.842718      1.4574498     -1.7107135      18466.309    
    195000   0.95454339     0.0023323615  -0.0051491464   20.210148      18.792651      1.4174969     -1.7703272      18560.663    
    196000   1.0496667      0.0023323615   0.0019968975   20.425546      18.866791      1.5587551     -1.6881556      18462.16     
    197000   0.91922177     0.0023323615  -0.0026920892   20.141104      18.77606       1.3650443     -1.6684756      18334.885    
    198000   1.0828165      0.0023323615   0.0018564538   20.546608      18.938625      1.6079826     -1.4940579      18353.34     
    199000   0.9874462      0.0023323615   0.0020857332   20.095937      18.629579      1.4663576     -1.7713239      18341.492    
    200000   1.0563399      0.0023323615   0.00059184897  20.441523      18.872858      1.5686647     -1.7301326      18368.208    
    201000   1.1274354      0.0023323615   0.0017035257   20.639245      18.965003      1.6742416     -1.5887614      18460.886    
    202000   0.86760629     0.0023323615   0.0040243968   20.237438      18.949042      1.2883953     -1.6370096      18416.384    
    203000   0.99558148     0.0023323615   0.0015054287   19.979924      18.501486      1.4784385     -1.9181956      18377.572    
    204000   1.0884979      0.0023323615   0.00073865434  20.495353      18.878934      1.6164194     -1.5575678      18437.591    
    205000   0.96163188     0.0023323615  -0.0032377686   20.307741      18.879718      1.4280233     -1.6365365      18554.052    
    206000   1.0121544      0.0023323615   0.0040115381   20.037935      18.534886      1.5030494     -2.0495581      18452.48     
    207000   1.0012711      0.0023323615   0.003307521    19.863024      18.376136      1.4868876     -2.0990726      18362.014    
    208000   1.091208       0.0023323615  -0.0011934964   20.462782      18.842338      1.6204439     -1.726395       18301.19     
    209000   1.143997       0.0023323615   0.0017950753   20.188349      18.489513      1.6988355     -1.9868667      18272.267    
    210000   1.0501333      0.0023323615  -0.0031714363   20.47756       18.918113      1.5594479     -1.6660275      18428.281    
    211000   0.98556234     0.0023323615   0.0024781807   20.206307      18.742747      1.4635601     -1.7844305      18377.214    
    212000   0.82357083     0.0023323615  -0.001376703    20.016129      18.793127      1.2230027     -1.7754339      18300.979    
    213000   0.90206079     0.0023323615   0.00031326897  20.026066      18.686506      1.3395603     -1.776487       18063.083    
    214000   0.89942478     0.0023323615   0.007828286    20.135686      18.80004       1.3356458     -1.6769483      18396.083    
    215000   0.99493685     0.0023323615   0.001277352    20.356078      18.878597      1.4774812     -1.6275131      18410.286    
    216000   1.092611       0.0023323615   0.0026433626   20.191572      18.569045      1.6225273     -1.7690893      18360.784    
    217000   0.89030254     0.0023323615   0.0025277245   20.178821      18.856721      1.3220993     -1.7370144      18232.308    
    218000   1.089352       0.0023323615   0.0021857075   20.60221       18.984523      1.6176877     -1.677665       18274.244    
    219000   1.0604438      0.0023323615   0.00066453839  20.102059      18.5273        1.574759      -1.9655487      18244.035    
    220000   0.92027297     0.0023323615  -0.00026808434  20.334349      18.967743      1.3666054     -1.5592831      18378.036    
    221000   0.95987668     0.0023323615   0.0037336459   19.951387      18.52597       1.4254169     -1.9695939      18334.192    
    222000   0.98007493     0.0023323615  -0.003809604    20.591033      19.135622      1.4554113     -1.5444739      18287.827    
    223000   1.0133763      0.0023323615  -0.0038766286   20.501762      18.996898      1.5048638     -1.624519       18425.372    
    224000   1.0218374      0.0023323615   0.00046480715  20.378281      18.860853      1.5174285     -1.7962613      18334.656    
    225000   1.0238799      0.0023323615  -0.0016719342   20.435986      18.915524      1.5204616     -1.6323643      18393.249    
    226000   0.91708026     0.0023323615  -0.001191764    20.166304      18.804439      1.3618642     -1.8049424      18307.826    
    227000   1.113754       0.0023323615  -0.00020642405  20.336264      18.68234       1.6539248     -1.8470713      18108.58     
    228000   0.99842092     0.0023323615   0.0013428043   20.329534      18.846879      1.4826551     -1.74085        18119.73     
    229000   0.98551708     0.0023323615   0.004146939    20.109751      18.646258      1.4634929     -1.7109176      18166.841    
    230000   1.0555078      0.0023323615  -0.00064750871  20.581003      19.013574      1.5674291     -1.4850019      18479.051    
    231000   0.98623201     0.0023323615   0.0033572677   20.144471      18.679917      1.4645545     -1.810648       18262.05     
    232000   1.0771165      0.0023323615   0.0019861465   20.400667      18.801149      1.599518      -1.7082394      18329.158    
    233000   0.91637647     0.0023323615   0.0027125021   19.87433       18.51351       1.3608191     -1.8711236      18270.026    
    234000   0.97624878     0.0023323615   0.00090595674  20.201763      18.752033      1.4497294     -1.7477445      18235.648    
    235000   0.94529963     0.0023323615   0.00042629716  20.173483      18.769713      1.40377       -1.7324347      18225.849    
    236000   1.0655152      0.0023323615   0.0027904943   20.204181      18.621891      1.5822901     -1.7845469      18111.652    
    237000   0.98360791     0.0023323615   0.0018297995   20.375086      18.914429      1.4606577     -1.6861495      18254.218    
    238000   1.1195898      0.0023323615   0.00081200978  20.279184      18.616593      1.6625909     -1.8036263      18223.483    
    239000   1.1886537      0.0023323615  -0.00064763018  20.548981      18.78383       1.7651507     -1.7552827      18319.621    
    240000   1.1154297      0.0023323615  -0.0010556015   20.334871      18.678458      1.6564132     -1.8352488      18395.998    
    241000   1.0574704      0.0023323615  -0.00039037164  20.517077      18.946734      1.5703435     -1.5353601      18545.234    
    242000   1.0414211      0.0023323615   0.0011301392   20.308951      18.76244       1.5465103     -1.8963341      18342.524    
    243000   1.03001        0.0023323615  -0.0042890786   20.37763       18.848065      1.5295648     -1.694671       18169.328    
    244000   0.90755904     0.0023323615  -0.0018268269   20.366611      19.018886      1.3477252     -1.4582098      18314.71     
    245000   0.92734422     0.0023323615   0.00018989927  20.530809      19.153703      1.3771062     -1.3360535      18382.937    
    246000   1.0188886      0.0023323615   0.00025160433  20.447806      18.934756      1.5130495     -1.5494908      18404.505    
    247000   0.96220773     0.0023323615   0.0020268677   20.257793      18.828914      1.4288785     -1.660611       18187.136    
    248000   0.92686023     0.0023323615   0.0015387256   19.88765       18.511262      1.3763874     -1.9286887      18093.076    
    249000   1.0419227      0.0023323615   0.00010653395  20.233296      18.686041      1.5472552     -1.7718534      18168.369    
    250000   1.0337634      0.0023323615   0.0055165995   20.195155      18.660016      1.5351386     -1.8037795      18297        
    251000   1.0438309      0.0023323615   0.0035373074   20.462093      18.912004      1.5500888     -1.6306507      18253.003    
    252000   1.0306635      0.0023323615  -0.00025206909  20.443948      18.913413      1.5305353     -1.6755484      18377.522    
    253000   1.0467702      0.0023323615  -0.004560579    20.483429      18.928975      1.5544538     -1.7240726      18412.12     
    254000   0.74430306     0.0023323615  -0.0022987944   19.865598      18.760308      1.10529       -1.7927361      18388.122    
    255000   1.0708685      0.0023323615  -0.0021715851   20.254571      18.664331      1.5902398     -1.8091455      18335.148    
    256000   0.96928998     0.0023323615  -0.0046125893   20.321537      18.882142      1.4393956     -1.6635902      18383.76     
    257000   0.85419511     0.0023323615   0.002115795    20.069992      18.801512      1.2684797     -1.6604689      18338.008    
    258000   0.93939916     0.0023323615   0.0014562657   20.191984      18.796976      1.3950078     -1.6523301      18377.332    
    259000   0.93974892     0.0023323615  -0.002730928    20.168015      18.772488      1.3955271     -1.7641624      18192.928    
    260000   0.90683025     0.0023323615  -0.00052662129  20.568743      19.2221        1.3466429     -1.3813405      18414.868    
    261000   0.88198813     0.0023323615  -0.00030641526  20.114517      18.804765      1.3097524     -1.5017154      18446.233    
    262000   1.0690044      0.0023323615   0.00069470724  20.423979      18.836508      1.5874716     -1.6780388      18402.432    
    263000   1.0536284      0.0023323615   1.9906911e-05  20.452255      18.887616      1.5646381     -1.7118812      18451.528    
    264000   0.86445991     0.0023323615   0.00043519464  19.850242      18.566519      1.283723      -1.9378037      18525.528    
    265000   0.94358824     0.0023323615  -0.0041492651   20.634865      19.233636      1.4012285     -1.4130524      18615.922    
    266000   1.088746       0.0023323615  -0.00084724124  20.487887      18.871099      1.6167879     -1.6420462      18638.886    
    267000   1.0725389      0.0023323615   0.0014924607   20.619416      19.026695      1.5927203     -1.4654172      18664.019    
    268000   0.99967096     0.0023323615  -0.00029825544  20.433733      18.949222      1.4845114     -1.5889143      18597.947    
    269000   1.1436541      0.0023323615  -6.6431744e-06  20.605074      18.906748      1.6983263     -1.5719215      18655.504    
    270000   1.1292129      0.0023323615   0.0043465288   20.657774      18.980893      1.6768812     -1.4512887      18514.034    
    271000   0.95758654     0.0023323615  -0.0013834134   20.258682      18.836666      1.422016      -1.6303882      18582.152    
    272000   1.0082725      0.0023323615   0.001138114    20.163518      18.666234      1.4972847     -1.7506649      18636.492    
    273000   0.94242188     0.0023323615  -0.0019070102   20.263822      18.864325      1.3994965     -1.7072735      18543.966    
    274000   1.0502431      0.0023323615   0.0017402392   20.121907      18.562296      1.5596111     -1.7088412      18523.634    
    275000   0.95172396     0.0023323615  -0.0022296899   20.296825      18.883515      1.4133101     -1.6905681      18367.866    
    276000   1.1127953      0.0023323615  -0.0015362824   20.508274      18.855773      1.652501      -1.6453571      18349.261    
    277000   1.035503       0.0023323615   3.6800222e-05  20.192248      18.654526      1.5377219     -1.8503007      18388.034    
    278000   0.89767734     0.0023323615   5.6799124e-05  20.073307      18.740256      1.3330509     -1.8324146      18281.377    
    279000   0.99655444     0.0023323615   0.004724478    20.459377      18.979493      1.4798833     -1.647185       18291.883    
    280000   0.88785166     0.0023323615  -0.001078622    20.103825      18.785365      1.3184597     -1.807147       18331.329    
    281000   1.1012257      0.0023323615   0.0007682764   20.874606      19.239285      1.6353202     -1.384686       18376.865    
    282000   0.97145984     0.0023323615   0.00092408931  20.321917      18.879299      1.4426179     -1.6545363      18387.19     
    283000   1.0265013      0.0023323615   0.0017079355   20.160583      18.636229      1.5243544     -1.7674712      18430.241    
    284000   1.0672484      0.0023323615  -0.0027715126   20.535803      18.950939      1.5848638     -1.6037709      18223.783    
    285000   0.9558924      0.0023323615  -0.0029152803   20.375285      18.955785      1.4195002     -1.6178203      18234.636    
    286000   1.1025321      0.0023323615   0.0012979501   20.390321      18.753061      1.6372601     -1.7152769      18234.273    
    287000   0.90342068     0.0023323615  -0.00074924769  19.810595      18.469015      1.3415797     -1.9514238      18314.202    
    288000   0.91989595     0.0023323615   0.0015880681   19.917584      18.551538      1.3660455     -1.8684061      18322.543    
    289000   1.080889       0.0023323615   0.0025222467   20.353835      18.748715      1.6051202     -1.7451588      18331.844    
    290000   1.0399817      0.0023323615   0.0016876264   19.954006      18.409634      1.5443728     -1.9836558      18274.763    
    291000   0.93955028     0.0023323615  -0.0005618699   20.171105      18.775873      1.3952322     -1.8288414      18203.904    
    292000   1.0421002      0.0023323615  -7.4913085e-05  20.143353      18.595834      1.5475188     -1.7945082      18171.293    
    293000   0.92380398     0.0023323615  -0.00063202628  20.070741      18.698892      1.3718489     -1.7499126      18288.679    
    294000   1.0413703      0.0023323615   0.00053725083  20.084969      18.538534      1.5464348     -1.9106198      18315.429    
    295000   0.9719956      0.0023323615   0.0049768443   20.211426      18.768013      1.4434135     -1.7357848      18240.441    
    296000   1.0181918      0.0023323615  -0.0034619806   20.415361      18.903346      1.5120147     -1.581235       18324.403    
    297000   1.110502       0.0023323615   0.0016806138   20.414487      18.765391      1.6490955     -1.6344564      18338.682    
    298000   0.93733761     0.0023323615  -0.00058080554  20.212247      18.820301      1.3919463     -1.6454141      18369.08     
    299000   1.0643726      0.0023323615   0.0016481505   20.328973      18.74838       1.5805934     -1.708251       18198.477    
    300000   0.92754094     0.0023323615  -0.0017304472   20.347868      18.97047       1.3773983     -1.7274523      18156.485    
    301000   1.0692613      0.0023323615   0.0012562443   20.422118      18.834265      1.587853      -1.7422402      18144.718    
    302000   1.0561087      0.0023323615   0.0015527982   20.339117      18.770796      1.5683215     -1.7866562      18259.247    
    303000   1.0649507      0.0023323615   0.0012786459   20.53553       18.954078      1.5814518     -1.6612575      18253.564    
    304000   0.95519856     0.0023323615  -0.0041331118   19.917279      18.498809      1.4184699     -1.9984819      18314.061    
    305000   1.0294924      0.0023323615  -0.0028706514   20.153576      18.62478       1.5287962     -1.9357364      18267.929    
    306000   0.82712452     0.0023323615  -0.003006601    20.050112      18.821832      1.2282799     -1.7857332      18273.012    
    307000   0.98269046     0.0023323615   0.0065555182   20.046556      18.58726       1.4592953     -1.944835       18366.15     
    308000   0.93953962     0.0023323615  -0.0039996871   20.169271      18.774054      1.3952163     -1.8066666      18113.479    
    309000   1.0834533      0.0023323615   0.0017763738   20.334481      18.725553      1.6089282     -1.6639824      18101.266    
    310000   0.91280909     0.0023323615   0.0011174187   20.157282      18.801761      1.3555215     -1.7083899      18293.06     
    311000   0.99817052     0.0023323615  -0.00030944037  20.055367      18.573084      1.4822832     -1.9930105      18215.049    
    312000   1.1702872      0.0023323615  -9.4207323e-06  20.567969      18.830092      1.7378766     -1.6855157      18425.957    
    313000   1.0055357      0.0023323615  -0.0054098345   20.425436      18.932216      1.4932205     -1.5350553      18611.743    
    314000   0.80002124     0.0023323615  -0.0016749678   20.011343      18.823311      1.1880315     -1.7642923      18501.95     
    315000   0.9396652      0.0023323615   0.00047980944  20.069699      18.674296      1.3954028     -1.8600656      18313.49     
    316000   0.98590988     0.0023323615  -0.0013296812   20.312675      18.848599      1.4640762     -1.6508878      18256.903    
    317000   1.0694273      0.0023323615   0.004504848    20.445236      18.857137      1.5880996     -1.6355288      18256.682    
    318000   0.85421503     0.0023323615  -0.0019433612   20.088264      18.819755      1.2685093     -1.6169712      18291.095    
    319000   1.0913168      0.0023323615   0.0013657859   20.530035      18.909429      1.6206055     -1.4735999      18326.954    
    320000   1.0320261      0.0023323615   0.0021046399   20.47406       18.941501      1.5325587     -1.6061104      18545.957    
    321000   0.98990196     0.0023323615   0.0020798839   20.520665      19.05066       1.4700044     -1.4920462      18453.005    
    322000   1.0678425      0.0023323615  -0.00058797095  20.413488      18.827742      1.5857462     -1.7177585      18595.903    
    323000   0.97268862     0.0023323615  -0.00058917815  20.055317      18.610875      1.4444426     -1.8527094      18577.075    
    324000   0.9549708      0.0023323615  -0.0062308248   20.146451      18.72832       1.4181316     -1.7527198      18432.44     
    325000   0.89191184     0.0023323615  -0.0013140568   20.132291      18.807802      1.3244891     -1.7556372      18203.293    
    326000   1.0465481      0.0023323615   0.00072797385  20.412251      18.858127      1.554124      -1.6938471      18083.842    
    327000   0.90364516     0.0023323615   0.0023811556   20.12974       18.787827      1.3419131     -1.6687353      18127.589    
    328000   1.0676046      0.0023323615  -0.0033942884   20.125222      18.539829      1.5853928     -1.9672446      18236.961    
    329000   1.0457897      0.0023323615  -0.00036494248  19.953178      18.400181      1.5529978     -2.0361358      18321.736    
    330000   1.0580552      0.0023323615   0.0019965031   20.485154      18.913942      1.5712119     -1.6363807      18202.838    
    331000   1.0029463      0.0023323615   0.0012852462   20.251413      18.762038      1.4893753     -1.846146       18293.076    
    332000   0.87058456     0.0023323615  -0.00093170922  19.968827      18.676009      1.2928181     -1.8218559      18283.446    
    333000   1.0324058      0.0023323615   0.00062017276  20.22954       18.696417      1.5331227     -1.912323       18314.69     
    334000   0.81679977     0.0023323615   0.0012154119   19.782259      18.569312      1.2129477     -1.8620491      18234.486    
    335000   0.92644229     0.0023323615  -0.0014296952   20.350241      18.974474      1.3757668     -1.6677895      18266.455    
    336000   1.0272853      0.0023323615  -1.3264159e-05  20.319896      18.794377      1.5255187     -1.6521931      18177.889    
    337000   1.0547206      0.0023323615  -0.0027604907   20.472473      18.906213      1.56626       -1.7242975      18275.525    
    338000   0.97514691     0.0023323615  -0.0010800044   20.225044      18.776951      1.4480932     -1.6744391      18259.711    
    339000   1.0419536      0.0023323615   0.00043996197  20.571329      19.024028      1.5473011     -1.552064       18123.774    
    340000   1.0079813      0.0023323615  -0.0022895273   20.232349      18.735497      1.4968522     -1.7923449      18298.912    
    341000   0.966206       0.0023323615   0.00061105432  20.233486      18.79867       1.4348159     -1.7170051      18190.232    
    342000   1.0227009      0.0023323615  -0.0031379941   20.369319      18.850609      1.5187108     -1.7192955      18239.831    
    343000   1.0680067      0.0023323615  -8.3126919e-05  20.653613      19.067623      1.5859899     -1.5541897      18173.477    
    344000   0.90688593     0.0023323615   0.00023531793  20.070255      18.72353       1.3467256     -1.8409532      18377.309    
    345000   1.0600065      0.0023323615   0.0033864587   20.5071        18.93299       1.5741096     -1.6328686      18307.376    
    346000   0.9708257      0.0023323615  -0.0020488675   20.298233      18.856557      1.4416762     -1.6245819      18465.206    
    347000   1.1420967      0.0023323615  -3.6423117e-05  20.648198      18.952184      1.6960136     -1.5848826      18393.893    
    348000   1.0106794      0.0023323615  -0.0070268899   20.334314      18.833455      1.5008589     -1.6855742      18407.108    
    349000   1.1048204      0.0023323615   0.00058021666  20.138039      18.497381      1.6406582     -1.9323633      18360.859    
    350000   1.0032007      0.0023323615  -0.0034888091   20.475041      18.985288      1.489753      -1.5342523      18407.56     
    351000   0.94810633     0.0023323615  -0.00061998725  20.191487      18.783549      1.4079379     -1.6262167      18405.802    
    352000   0.87833679     0.0023323615   0.00069643037  19.991892      18.687561      1.3043301     -1.7590529      18420.666    
    353000   0.94360172     0.0023323615   0.003292327    20.123491      18.722242      1.4012486     -1.7198836      18260.657    
    354000   1.0212284      0.0023323615  -0.0026619009   20.352814      18.83629       1.5165242     -1.7082002      18257.103    
    355000   1.0469977      0.0023323615   0.0014003173   20.346134      18.791343      1.5547916     -1.7340944      18314.417    
    356000   0.86745553     0.0023323615   0.0023819506   20.082894      18.794723      1.2881715     -1.6679776      18439.461    
    357000   0.92251719     0.0023323615   0.0011839074   19.947504      18.577566      1.369938      -1.7043861      18448.953    
    358000   0.7977823      0.0023323615  -0.0039839951   20.056225      18.871518      1.1847067     -1.6851238      18492.222    
    359000   0.97343663     0.0023323615  -0.0011288822   20.229949      18.784395      1.4455534     -1.6663236      18469.603    
    360000   1.0596779      0.0023323615   0.0013742333   20.480435      18.906813      1.5736217     -1.7972343      18205.677    
    361000   1.0208183      0.0023323615  -0.0014133425   20.318063      18.802147      1.5159152     -1.7276816      18235.942    
    362000   1.1531128      0.0023323615  -0.00079906126  20.468456      18.756084      1.7123726     -1.6790902      18243.892    
    363000   1.1276874      0.0023323615   0.0014285154   20.471224      18.796608      1.6746158     -1.7287865      18208.792    
    364000   0.93990874     0.0023323615  -0.0016157284   20.00755       18.611786      1.3957645     -1.9578798      18011.996    
    365000   0.93851028     0.0023323615  -4.0894028e-05  20.155581      18.761893      1.3936878     -1.7558863      18236.748    
    366000   1.0561768      0.0023323615   0.0014588982   20.400047      18.831625      1.5684225     -1.7369017      18271.106    
    367000   0.99706876     0.0023323615   0.0034771713   20.091053      18.610406      1.4806471     -1.8805215      18205.325    
    368000   1.0103683      0.0023323615   0.00086883165  19.986162      18.485765      1.500397      -1.9715683      18161.381    
    369000   0.99682783     0.0023323615   8.9361929e-05  20.363495      18.883206      1.4802893     -1.6505819      18189.957    
    370000   1.1908327      0.0023323615   0.0041528806   20.783118      19.014731      1.7683866     -1.4865852      18135.593    
    371000   0.93563482     0.0023323615  -0.0003366597   20.387238      18.99782       1.3894177     -1.6616799      18018.596    
    372000   0.91098456     0.0023323615  -0.0013546193   20.048611      18.695799      1.3528121     -1.8242767      18261.352    
    373000   1.1459634      0.0023323615  -8.7433719e-05  20.442347      18.740591      1.7017556     -1.7533919      18164.927    
    374000   1.0157976      0.0023323615   0.0012438327   20.339994      18.831534      1.5084594     -1.6369443      18356.53     
    375000   1.0619721      0.0023323615  -0.0012827492   20.365554      18.788525      1.5770286     -1.7561328      18094.972    
    376000   1.04705        0.0023323615   0.0018125191   20.495281      18.940412      1.5548693     -1.565664       18179.349    
    377000   0.99274307     0.0023323615  -0.0033677685   20.247586      18.773362      1.4742235     -1.80072        18261.672    
    378000   0.88906084     0.0023323615   0.0057680495   20.068794      18.748539      1.3202554     -1.7790888      18205.209    
    379000   1.0274438      0.0023323615  -0.00041769473  19.952043      18.426289      1.525754      -2.0576084      18237.155    
    380000   0.88202477     0.0023323615  -0.00051471122  20.242611      18.932804      1.3098068     -1.7589491      18124.024    
    381000   1.0039486      0.0023323615  -0.0010839599   20.235966      18.745102      1.4908636     -1.7773097      18264.125    
    382000   1.0078668      0.0023323615  -0.0017297296   20.075991      18.579308      1.4966822     -1.8346241      18172.405    
    383000   0.90659946     0.0023323615   0.0033115631   20.128951      18.782651      1.3463002     -1.6785673      18210.982    
    384000   0.87174483     0.0023323615  -0.0019950891   20.274619      18.980078      1.2945411     -1.5055999      18230.15     
    385000   1.0175508      0.0023323615   0.001871141    20.18175       18.670687      1.511063      -1.7541282      18439.339    
    386000   0.99274195     0.0023323615   0.0033259758   20.468279      18.994057      1.4742218     -1.483841       18439.816    
    387000   0.81402886     0.0023323615  -0.0061396792   20.321359      19.112526      1.2088329     -1.5458411      18383.459    
    388000   1.1402037      0.0023323615  -0.00079857571  20.383073      18.68987       1.6932025     -1.8839479      18210.111    
    389000   0.85977255     0.0023323615  -0.0036750873   19.983973      18.707211      1.2767622     -1.9365454      18177.042    
    390000   1.0546089      0.0023323615  -0.00021373495  20.270814      18.70472       1.5660942     -1.8020517      18101.975    
    391000   1.0136953      0.0023323615  -0.0025023248   20.197021      18.691684      1.5053375     -1.8475565      18085.418    
    392000   1.0367769      0.0023323615   0.0018270135   19.948601      18.408988      1.5396136     -2.1031841      18089.876    
    393000   0.90289947     0.0023323615   0.00063900516  19.990402      18.649596      1.3408057     -1.7917145      18231.172    
    394000   0.8855809      0.0023323615   0.00082368188  19.911707      18.596619      1.3150876     -1.8207758      18231.882    
    395000   1.1428518      0.0023323615   1.4858359e-06  20.565628      18.868493      1.697135      -1.6456515      18321.709    
    396000   1.0959192      0.0023323615   0.00313313     20.445746      18.818306      1.62744       -1.7558563      18285.151    
    397000   0.97505958     0.0023323615   0.0031162235   19.898584      18.45062       1.4479635     -2.0695888      18109.778    
    398000   0.91477255     0.0023323615   0.0013739577   20.191438      18.833001      1.3584372     -1.6025536      18157.529    
    399000   1.0015392      0.0023323615   0.0021765196   20.285197      18.797911      1.4872858     -1.6806776      18212.504    
    400000   0.99739829     0.0023323615  -0.00035316807  20.513095      19.031959      1.4811365     -1.4934632      18400.895    
    401000   1.010124       0.0023323615  -0.0016121549   20.569452      19.069418      1.5000341     -1.4582203      18668.906    
    402000   1.0586118      0.0023323615   0.0039659548   20.085553      18.513515      1.5720385     -1.9300092      18397.582    
    403000   0.90494169     0.0023323615  -0.0014002071   20.19472       18.850882      1.3438384     -1.668855       18280.335    
    404000   1.0050988      0.0023323615  -0.0013222223   20.135583      18.643012      1.4925716     -1.8747836      18311.178    
    405000   1.0843894      0.0023323615  -0.00168136     20.447487      18.837169      1.6103182     -1.6848275      18308.622    
    406000   0.90615156     0.0023323615  -0.0025837739   20.193098      18.847463      1.3456351     -1.6726622      18357.857    
    407000   0.85840093     0.0023323615  -0.0013509411   19.823793      18.549068      1.2747254     -1.8795929      18126.634    
    408000   1.0403558      0.0023323615   0.0028658866   20.54438       18.999452      1.5449284     -1.4808893      18302.912    
    409000   1.0257381      0.0023323615   0.0050007013   20.420382      18.897161      1.5232211     -1.4874009      18359.761    
    410000   1.0482216      0.0023323615   0.0034157211   20.324115      18.767506      1.5566091     -1.579648       18342.675    
    411000   0.8962856      0.0023323615   0.00041444814  20.572324      19.24134       1.3309841     -1.303755       18475.012    
    412000   0.88599943     0.0023323615   0.0012851748   20.401409      19.0857        1.3157092     -1.4686425      18864.748    
    413000   1.1488087      0.0023323615  -0.0024523899   20.91818       19.212199      1.7059809     -1.3488503      19259.812    
    414000   1.1805804      0.0023323615   0.00014655935  20.657064      18.903902      1.7531619     -1.5177152      18935.783    
    415000   0.94207291     0.0023323615   0.0026457738   20.028923      18.629945      1.3989783     -1.7695361      18509.258    
    416000   1.0696043      0.0023323615  -0.0013117584   20.417091      18.828729      1.5883623     -1.6469744      18277.764    
    417000   0.99748714     0.0023323615  -0.0021135452   20.165327      18.684058      1.4812684     -1.8043386      18392.344    
    418000   1.013904       0.0023323615  -0.0014719186   20.401028      18.89538       1.5056475     -1.6831938      18427.056    
    419000   1.0765432      0.0023323615  -0.00096022768  20.580492      18.981825      1.5986667     -1.5812135      18241.565    
    420000   0.99572617     0.0023323615  -0.0050222711   20.222022      18.743368      1.4786534     -1.7548805      18145.265    
    421000   1.0275399      0.0023323615   0.002347853    20.495904      18.970007      1.5258968     -1.6388176      18070.89     
    422000   1.1454273      0.0023323615   0.0053700917   20.077952      18.376992      1.7009595     -2.0883714      18028.943    
    423000   1.0762134      0.0023323615   0.0013687664   20.398599      18.800422      1.5981769     -1.7660493      18174.109    
    424000   0.98727188     0.0023323615   0.0032539334   20.431072      18.964973      1.4660987     -1.4496048      18558.105    
    425000   0.84427804     0.0023323615  -0.00070081682  20.099773      18.846021      1.2537529     -1.5917691      18556.812    
    426000   0.99792194     0.0023323615  -0.0012358717   20.304276      18.822362      1.4819141     -1.6976073      18567.896    
    427000   0.95166064     0.0023323615  -0.0033107871   20.339593      18.926377      1.4132161     -1.5930512      18726.696    
    428000   1.0434352      0.0023323615  -0.00048391727  20.555756      19.006255      1.5495013     -1.5234259      18715.39     
    429000   0.87811356     0.0023323615   0.0029403661   20.190925      18.886926      1.3039986     -1.6495586      18608.422    
    430000   0.93954765     0.0023323615   0.0053215581   20.235783      18.840555      1.3952283     -1.6388975      18553.583    
    431000   1.0056476      0.0023323615   0.0056444237   20.00012       18.506733      1.4933867     -1.9636311      18507.858    
    432000   0.92563539     0.0023323615   0.00078961047  20.097281      18.722712      1.3745686     -1.7417969      18583.66     
    433000   1.0496027      0.0023323615  -0.0023488973   20.380846      18.822186      1.55866       -1.6371774      18590.891    
    434000   1.0253234      0.0023323615  -0.0012823328   20.330438      18.807832      1.5226053     -1.5751841      18680.817    
    435000   0.89464994     0.0023323615   0.0014821442   19.943774      18.615219      1.3285552     -2.0460782      18282.826    
    436000   1.0482314      0.0023323615   0.0037162214   20.420997      18.864374      1.5566236     -1.8097367      18244.458    
    437000   1.0031655      0.0023323615   0.00065472025  20.169649      18.679949      1.4897007     -1.9390957      18191.383    
    438000   0.95266887     0.0023323615   0.0031645647   20.199718      18.785005      1.4147133     -1.7168378      18130.687    
    439000   0.88302868     0.0023323615   0.00094628218  20.155715      18.844417      1.3112976     -1.5310736      18310.204    
    440000   1.037828       0.0023323615  -0.00028493414  20.166181      18.625007      1.5411746     -1.8397577      18292.771    
    441000   1.0389993      0.0023323615  -0.0027899363   20.266645      18.723731      1.542914      -1.8622021      18298.898    
    442000   1.0452147      0.0023323615  -0.00089966486  20.41669       18.864546      1.5521438     -1.7082447      18326.274    
    443000   1.059837       0.0023323615  -0.0010600419   20.713631      19.139773      1.5738579     -1.3617992      18421.751    
    444000   0.99518763     0.0023323615   0.0013891316   20.565111      19.087257      1.4778536     -1.4332954      18411.132    
    445000   1.0914988      0.0023323615   0.00042758542  20.303685      18.682809      1.6208757     -1.8538925      18208.626    
    446000   1.0868599      0.0023323615   0.0013780626   20.345843      18.731856      1.613987      -1.849143       18318.41     
    447000   0.89560731     0.0023323615  -0.0020496232   20.306389      18.976412      1.3299769     -1.5627123      18380.08     
    448000   1.1500078      0.0023323615  -0.0004236839   20.621771      18.91401       1.7077615     -1.5894166      18311.172    
    449000   1.2465951      0.0023323615   0.0015896547   20.598947      18.747753      1.8511938     -1.6810432      18255.57     
    450000   0.96248836     0.0023323615  -0.0054591979   20.193364      18.764069      1.4292952     -1.6567752      18267.775    
    451000   0.97555108     0.0023323615   0.001083248    20.287094      18.838401      1.4486933     -1.6233355      18339.302    
    452000   1.0966131      0.0023323615   0.00073726755  20.559454      18.930984      1.6284705     -1.6580024      18315.899    
    453000   0.99295026     0.0023323615   0.0025978727   20.015479      18.540948      1.4745311     -1.9896713      18235.449    
    454000   1.0277438      0.0023323615   0.0014240501   19.946163      18.419964      1.5261996     -1.9450827      18341.189    
    455000   1.0830202      0.0023323615  -0.0048118137   20.483552      18.875267      1.608285      -1.6225796      18188.008    
    456000   1.1406056      0.0023323615   0.0037303077   20.395155      18.701356      1.6937993     -1.8718251      18188.426    
    457000   0.92961733     0.0023323615   0.0013865114   20.18058       18.800098      1.3804817     -1.7475024      18161.622    
    458000   1.0338813      0.0023323615  -0.0022947259   20.114786      18.579472      1.5353137     -1.9421765      18209.34     
    459000   1.1601444      0.0023323615  -0.00064733113  20.43855       18.715735      1.7228145     -1.8056263      18207.141    
    460000   0.97138919     0.0023323615   0.0033116175   19.94635       18.503837      1.4425129     -1.9130078      18120.303    
    461000   0.9264016      0.0023323615  -0.0018279181   19.985911      18.610205      1.3757064     -1.9103101      18173.212    
    462000   1.140553       0.0023323615   8.2831504e-05  20.422063      18.728342      1.6937212     -1.7720401      18103.909    
    463000   1.0279704      0.0023323615   0.00042871198  20.655105      19.128569      1.526536      -1.5844576      18214.498    
    464000   0.94842769     0.0023323615   0.0032935455   20.269478      18.861063      1.4084151     -1.6524603      18305.6      
    465000   1.0456455      0.0023323615   0.0004264872   20.506066      18.953283      1.5527836     -1.5747651      18285.78     
    466000   1.0768489      0.0023323615   0.002514706    20.676509      19.077388      1.5991206     -1.4119653      18272.441    
    467000   0.98337947     0.0023323615  -0.0016345586   20.137076      18.676758      1.4603185     -1.8143925      18238.404    
    468000   1.0491153      0.0023323615   0.0054855142   20.393368      18.835432      1.5579362     -1.7979082      18128.195    
    469000   1.0049591      0.0023323615   0.00082124564  20.37246       18.880096      1.4923643     -1.7200076      18031.105    
    470000   0.8780278      0.0023323615  -0.0036544059   19.955351      18.651479      1.3038713     -1.7992739      18176.836    
    471000   1.0065436      0.0023323615   0.00031647742  20.083016      18.588299      1.4947173     -1.9047022      18213.138    
    472000   1.1951423      0.0023323615   0.0027279192   20.469559      18.694773      1.7747863     -1.8076441      18210.603    
    473000   0.99683423     0.0023323615   0.0034264302   19.9209        18.440601      1.4802988     -2.1082309      18195.79     
    474000   1.1537978      0.0023323615   0.0021936431   20.323905      18.610515      1.7133897     -2.0387695      18280.814    
    475000   1.1041325      0.0023323615   0.0047457167   20.254289      18.614652      1.6396368     -1.9675894      18131.03     
    476000   0.99393023     0.0023323615   0.0013107089   20.213214      18.737228      1.4759864     -1.7454891      18139.409    
    477000   1.034763       0.0023323615  -0.0019180972   20.556768      19.020145      1.5366231     -1.5189572      18074.283    
    478000   1.0324941      0.0023323615  -0.0021560043   20.473023      18.93977       1.5332538     -1.6065347      18289.128    
    479000   1.059037       0.0023323615   0.0028996538   20.255768      18.683098      1.5726699     -1.7947481      18236.382    
    480000   0.92735174     0.0023323615   0.0017895212   19.872616      18.495499      1.3771173     -1.861373       18145.708    
    481000   1.0035211      0.0023323615  -0.0014383707   20.173193      18.682964      1.4902289     -1.8290944      18052.737    
    482000   0.81832743     0.0023323615  -0.00051496481  19.909862      18.694646      1.2152162     -1.7950504      18115.833    
    483000   1.0413726      0.0023323615  -0.0042752145   20.43248       18.886041      1.5464383     -1.5808774      18166.944    
    484000   0.97917654     0.0023323615  -0.001059981    20.58393       19.129853      1.4540772     -1.4899146      18333.781    
    485000   1.1493598      0.0023323615  -0.00016763974  20.611984      18.905185      1.7067994     -1.5418053      18251.478    
    486000   0.98660447     0.0023323615   0.0018362185   20.461457      18.99635       1.4651076     -1.4870196      18332.407    
    487000   0.98730768     0.0023323615   0.0046075692   20.153192      18.68704       1.4661519     -1.8624133      18170.949    
    488000   0.98017773     0.0023323615  -0.0012929697   20.223595      18.768031      1.4555639     -1.8173686      18150.634    
    489000   0.86523848     0.0023323615  -0.0025098313   20.385284      19.100405      1.2848791     -1.6274561      18188.949    
    490000   0.98554668     0.0023323615   7.6729555e-05  20.352686      18.889149      1.4635368     -1.6312658      18327.327    
    491000   1.1144765      0.0023323615  -0.0032092493   20.569387      18.914389      1.6549976     -1.6133347      18295.444    
    492000   1.0284269      0.0023323615   0.0016151807   20.288572      18.761358      1.5272139     -1.7228955      18186.924    
    493000   0.94251226     0.0023323615  -0.0014050424   20.313172      18.913541      1.3996307     -1.5275008      18372.505    
    494000   1.0794632      0.0023323615  -0.0045214782   20.624793      19.02179       1.6030028     -1.701626       18278.809    
    495000   1.057129       0.0023323615   0.00053806333  20.114927      18.54509       1.5698366     -1.9171387      18226.026    
    496000   0.9535037      0.0023323615   0.0021105616   20.419332      19.003379      1.415953      -1.6321444      18040.074    
    497000   0.77733025     0.0023323615  -0.0047205313   19.880112      18.725776      1.1543354     -1.8926438      18303.382    
    498000   0.94989711     0.0023323615  -0.0025741174   20.186149      18.775552      1.4105972     -1.7314246      18183.558    
    499000   0.86390732     0.0023323615  -0.0062828036   20.081186      18.798283      1.2829024     -1.8345384      18112.592    
    500000   0.96710385     0.0023323615   0.0007225602   19.749694      18.313544      1.4361492     -2.1091591      18072.83     
    501000   1.0172164      0.0023323615  -0.0050110533   20.186038      18.675471      1.5105664     -1.7059781      18081.326    
    502000   0.98967441     0.0023323615   0.002404391    20.140408      18.670742      1.4696665     -1.8285714      17995.534    
    503000   0.94531548     0.0023323615  -0.0036743168   20.037381      18.633588      1.4037935     -1.7531316      18092.955    
    504000   1.0716337      0.0023323615  -0.0015188657   20.431833      18.840457      1.591376      -1.7539954      18267.983    
    505000   1.0073288      0.0023323615   0.002167796    20.239834      18.743951      1.4958833     -1.8073494      18156.62     
    506000   1.0311073      0.0023323615  -0.002808444    20.569189      19.037994      1.5311943     -1.4515258      18339.086    
    507000   1.0296887      0.0023323615   0.0028060667   20.392306      18.863218      1.5290877     -1.6702939      18268.805    
    508000   1.0380239      0.0023323615  -0.00039829151  20.214211      18.672745      1.5414656     -1.7921474      18206.125    
    509000   1.1288001      0.0023323615  -0.0030524437   20.678759      19.002491      1.6762681     -1.5230518      18172.901    
    510000   1.132402       0.0023323615   0.00071095076  20.504646      18.823029      1.681617      -1.5557668      18341.674    
    511000   0.97739278     0.0023323615   0.0012089702   20.481652      19.030223      1.4514283     -1.4621073      18349.122    
    512000   1.1013185      0.0023323615  -0.00083002226  20.755943      19.120485      1.635458      -1.5132222      18214.474    
    513000   1.0623346      0.0023323615  -0.00015223762  20.485574      18.908007      1.5775669     -1.5957423      18304.174    
    514000   0.89729806     0.0023323615  -0.001260966    20.021932      18.689445      1.3324876     -1.8453072      18210.121    
    515000   0.92553583     0.0023323615  -0.0038300749   20.39886       19.024439      1.3744207     -1.6455756      18291.92     
    516000   0.97549829     0.0023323615  -0.0043495846   20.277488      18.828873      1.448615      -1.655722       18233.094    
    517000   0.97191102     0.0023323615   0.00071691044  19.980242      18.536954      1.4432879     -1.9229264      18064.604    
    518000   1.0613015      0.0023323615   0.00065181586  20.256288      18.680255      1.5760327     -1.7122292      18217.569    
    519000   0.88743323     0.0023323615  -0.00032709107  20.33347       19.015631      1.3178383     -1.7049825      18199.071    
    520000   1.0840082      0.0023323615  -0.0036834643   20.36192       18.752168      1.6097521     -1.7752884      18288.062    
    521000   1.086248       0.0023323615   0.0035556759   20.511942      18.898863      1.6130783     -1.6601578      18246.239    
    522000   0.92387856     0.0023323615   0.0031605625   20.079925      18.707966      1.3719597     -1.8193905      18230.606    
    523000   0.98440645     0.0023323615  -0.00093279811  20.490952      19.029108      1.4618436     -1.6549657      18140.962    
    524000   0.850374       0.0023323615  -0.00096631724  20.095314      18.832509      1.2628054     -1.7449205      18250.987    
    525000   1.0610355      0.0023323615  -0.00074053821  20.344284      18.768646      1.5756378     -1.7612226      18155.844    
    526000   1.0900493      0.0023323615  -0.00047404584  20.694354      19.075631      1.6187233     -1.4397121      18430.714    
    527000   1.0985154      0.0023323615  -0.0046390704   20.477452      18.846157      1.6312953     -1.684264       18443.073    
    528000   1.0695551      0.0023323615   0.0031407872   20.617664      19.029375      1.5882893     -1.6881954      18214.421    
    529000   1.0676503      0.0023323615  -0.0010788855   20.273575      18.688114      1.5854607     -1.7568879      18344.034    
    530000   1.0970834      0.0023323615  -0.0044577053   20.493921      18.864752      1.6291688     -1.8228415      18309.022    
    531000   1.0542405      0.0023323615  -0.0027811643   20.498916      18.933369      1.5655472     -1.5205411      18424.958    
    532000   0.98398996     0.0023323615  -0.0020366425   20.513129      19.051904      1.4612251     -1.4830261      18253.878    
    533000   0.90894463     0.0023323615   0.00023212694  20.067957      18.718174      1.3497828     -1.79785        18342.409    
    534000   1.1265586      0.0023323615   0.0010552242   20.663903      18.990963      1.6729395     -1.5815114      18302.529    
    535000   0.95927308     0.0023323615   0.0016027874   20.097554      18.673034      1.4245205     -1.791811       18239.854    
    536000   0.96465213     0.0023323615  -0.00018686686  19.956225      18.523716      1.4325084     -1.896372       18145.318    
    537000   0.8744367      0.0023323615   0.0019305388   19.713361      18.414823      1.2985385     -1.9920968      18174.304    
    538000   0.95528999     0.0023323615   0.0029813308   20.066911      18.648306      1.4186056     -1.8050463      18250.22     
    539000   1.0415074      0.0023323615   0.00037190828  20.427102      18.880463      1.5466386     -1.5825374      18229.011    
    540000   0.95104645     0.0023323615  -0.0049088051   20.293722      18.881418      1.412304      -1.6653343      18213.347    
    541000   1.0950131      0.0023323615   0.0024557485   20.12897       18.502875      1.6260945     -1.9791255      18219.328    
    542000   1.0566231      0.0023323615  -0.00040267413  20.298635      18.72955       1.5690854     -1.754477       18231.222    
    543000   1.0794881      0.0023323615   0.00284073     20.272123      18.669083      1.6030398     -1.8614         18343.832    
    544000   0.96799939     0.0023323615   0.0021892719   20.288469      18.850989      1.4374791     -1.6532439      18337.135    
    545000   1.185564       0.0023323615   0.0017308926   20.585241      18.824678      1.7605626     -1.7243032      18279.89     
    546000   1.028059       0.0023323615   0.00085402717  20.391553      18.864885      1.5266676     -1.695087       18402.211    
    547000   1.1416157      0.0023323615  -0.0045745709   20.309475      18.614176      1.6952993     -1.7634585      18426.856    
    548000   0.84152408     0.0023323615   0.00091503894  19.897212      18.647548      1.2496633     -1.9001241      18354.643    
    549000   0.94042894     0.0023323615   0.00083973765  20.36754       18.971003      1.396537      -1.5018855      18360.984    
    550000   0.87255368     0.0023323615   0.00022985214  20.180458      18.884716      1.2957422     -1.5250222      18477.656    
    551000   0.82342778     0.0023323615  -0.0039528947   20.260991      19.038201      1.2227902     -1.58153        18344.138    
    552000   1.1901369      0.0023323615   0.00042097168  20.651605      18.884252      1.7673533     -1.6836274      18367.369    
    553000   0.95782478     0.0023323615  -0.002709531    20.201427      18.779057      1.4223698     -1.6654289      18356.385    
    554000   1.0094169      0.0023323615   0.0002866803   20.124381      18.625397      1.4989841     -1.9253705      18285.395    
    555000   1.1130264      0.0023323615   0.004460007    20.293266      18.640422      1.6528443     -1.9082989      18275.579    
    556000   1.1372227      0.0023323615   0.00063765662  20.428946      18.74017       1.6887757     -1.723805       18215.209    
    557000   1.0755073      0.0023323615  -0.0023052303   20.567778      18.97065       1.5971284     -1.4921698      18381.847    
    558000   1.0588454      0.0023323615   0.007294016    20.394497      18.822112      1.5723855     -1.6162123      18515.892    
    559000   1.133678       0.0023323615  -0.0034976121   20.659317      18.975805      1.6835118     -1.6255312      18309.721    
    560000   1.0889528      0.0023323615  -0.0028896072   20.590105      18.97301       1.617095      -1.5405549      18347.767    
    561000   0.87713582     0.0023323615   0.00067091009  19.852597      18.550051      1.3025467     -1.9765836      18211.031    
    562000   1.0694948      0.0023323615  -0.00085840478  20.45154       18.86334       1.5881998     -1.7020202      18178.64     
    563000   0.97834617     0.0023323615  -0.0046352143   20.237729      18.784885      1.4528441     -1.6456531      18375.843    
    564000   0.97874121     0.0023323615  -0.00037564871  20.675977      19.222546      1.4534307     -1.2960034      18422.261    
    565000   0.90090415     0.0023323615   0.0021362228   20.240697      18.902854      1.3378427     -1.6310721      18487.749    
    566000   1.1387203      0.0023323615   0.0023723768   20.788383      19.097384      1.6909996     -1.4496599      18388.722    
    567000   0.881038       0.0023323615   0.001146295    20.285343      18.977002      1.3083414     -1.5210911      18257.247    
    568000   0.88177826     0.0023323615  -0.00033687019  20.086052      18.776612      1.3094407     -1.7128406      18373.976    
    569000   1.0524365      0.0023323615   0.00039840208  20.745959      19.18309       1.5628682     -1.3472717      18570.687    
    570000   0.98102235     0.0023323615  -0.0014834034   20.390841      18.934023      1.4568182     -1.5206672      18400.421    
    571000   0.94130558     0.0023323615  -0.0019523989   20.382138      18.984299      1.3978388     -1.4722859      18331.003    
    572000   1.0105064      0.0023323615   0.00058740954  20.563779      19.063177      1.5006021     -1.4888505      18335.838    
    573000   1.0564981      0.0023323615  -0.0013171772   20.392927      18.824027      1.5688997     -1.7844335      18429.918    
    574000   0.89351023     0.0023323615   0.0030091459   20.144966      18.818103      1.3268627     -1.7088762      18255.767    
    575000   1.07401        0.0023323615   0.0025629469   20.444225      18.84932       1.5949049     -1.6113119      18328.263    
    576000   1.1217872      0.0023323615  -0.0032774526   20.468957      18.803103      1.6658541     -1.7696958      18377.265    
    577000   1.0147673      0.0023323615  -0.0034912964   20.142899      18.63597       1.5069294     -1.8777404      18431.334    
    578000   0.96519057     0.0023323615  -0.0021493726   20.282341      18.849033      1.433308      -1.7055504      18488.704    
    579000   0.97093848     0.0023323615  -0.005325705    20.012412      18.570568      1.4418436     -2.0400735      18441.413    
    580000   1.117386       0.0023323615   0.00039729473  20.474075      18.814757      1.6593182     -1.7711138      18365.055    
    581000   1.0022018      0.0023323615   0.002934782    20.350885      18.862615      1.4882697     -1.8202024      18314.847    
    582000   0.96295019     0.0023323615   0.00016441854  20.11768       18.687699      1.429981      -1.8050867      18251.071    
    583000   0.92563505     0.0023323615   0.0042095606   20.06667       18.692102      1.374568      -1.8977482      18231.625    
    584000   0.91227359     0.0023323615   0.0013794063   20.047592      18.692866      1.3547263     -1.7928434      18378.703    
    585000   1.0801644      0.0023323615   0.0011678693   20.573564      18.96952       1.6040441     -1.5367537      18207.062    
    586000   1.049151       0.0023323615   0.0043485011   20.511233      18.953244      1.5579892     -1.562293       18260.623    
    587000   1.1322824      0.0023323615  -0.0015914998   20.71172       19.030281      1.6814394     -1.6500393      18198.029    
    588000   0.91058727     0.0023323615  -0.00062103639  20.19446       18.842237      1.3522221     -1.687028       18233.201    
    589000   1.0155146      0.0023323615  -0.0018497645   20.269915      18.761876      1.5080391     -1.7124005      18208.5      
    590000   1.0682481      0.0023323615   0.0020571388   20.43622       18.849872      1.5863484     -1.6099726      18307.014    
    591000   0.94582956     0.0023323615  -0.0040196688   20.345518      18.940961      1.4045569     -1.5667894      18358.556    
    592000   0.87620418     0.0023323615  -0.0053104291   20.444928      19.143765      1.3011632     -1.5252918      18465.657    
    593000   1.0386488      0.0023323615   0.001045117    20.714337      19.171944      1.5423934     -1.4458577      18600.158    
    594000   1.0398085      0.0023323615  -0.0031845964   20.484683      18.940567      1.5441156     -1.6189939      18492.095    
    595000   0.95652185     0.0023323615  -0.0021127838   20.195276      18.774841      1.420435      -1.7897427      18313.987    
    596000   0.96156504     0.0023323615   0.0048831952   20.071561      18.643637      1.4279241     -1.8058694      18305.755    
    597000   1.1581393      0.0023323615   0.0053886513   20.459848      18.740011      1.7198369     -1.7567007      18288.069    
    598000   0.85188182     0.0023323615  -0.0016489456   20.152001      18.886956      1.2650445     -1.618961       18370.956    
    599000   0.98909782     0.0023323615  -0.0010128852   20.256134      18.787324      1.4688103     -1.7220269      18305.154    
    600000   1.0558068      0.0023323615  -0.0042410176   20.744643      19.17677       1.5678732     -1.4757836      18466.655    
    601000   0.93107094     0.0023323615   0.0038500824   20.263812      18.881172      1.3826403     -1.5737404      18314.73     
    602000   1.0902455      0.0023323615   0.0073833401   20.365587      18.746573      1.6190146     -1.7730768      18237.401    
    603000   0.96488693     0.0023323615   0.00016288578  20.046492      18.613635      1.4328571     -1.8172266      18147.304    
    604000   0.92666829     0.0023323615   0.0015991632   20.109668      18.733566      1.3761024     -1.8218005      18303.049    
    605000   0.8876294      0.0023323615  -6.5856087e-05  20.118053      18.799924      1.3181297     -1.7324061      18460.858    
    606000   0.99655678     0.0023323615  -6.8001684e-05  20.113137      18.633251      1.4798868     -1.8401361      18494.408    
    607000   1.1060812      0.0023323615  -0.00078768859  20.570584      18.928054      1.6425306     -1.7421968      18369.952    
    608000   1.0749204      0.0023323615  -0.0018954108   20.329389      18.733132      1.5962568     -1.8039094      18226.268    
    609000   0.95098699     0.0023323615   0.0020264797   20.391815      18.979599      1.4122157     -1.61673        18259.327    
    610000   1.0000879      0.0023323615  -0.00074899395  20.312886      18.827755      1.4851305     -1.859157       18158.569    
    611000   0.91382203     0.0023323615  -0.00029815995  20.161769      18.804743      1.3570257     -1.6938285      18070.464    
    612000   1.0189149      0.0023323615   0.0028935546   20.285483      18.772394      1.5130887     -1.7874639      18188.32     
    613000   1.1392195      0.0023323615  -0.0010018252   20.48715       18.79541       1.691741      -1.6838288      18168.647    
    614000   0.85753691     0.0023323615   0.0058125029   20.125313      18.85187       1.2734423     -1.7222788      18107.351    
    615000   1.0637726      0.0023323615  -0.0011275858   20.146704      18.567001      1.5797023     -1.8601565      18258.192    
    616000   1.0063438      0.0023323615   0.00039296104  20.094547      18.600127      1.4944205     -1.9343984      18103.709    
    617000   0.94632658     0.0023323615   0.0015809247   20.058644      18.653349      1.405295      -1.8157567      18111.093    
    618000   1.0687803      0.0023323615   0.0046828209   20.346045      18.758907      1.5871387     -1.7632054      18240.855    
    619000   0.93187083     0.0023323615  -0.0029892154   20.104522      18.720694      1.3838282     -1.6353125      18208.942    
    620000   0.90498134     0.0023323615   0.0035502477   19.891359      18.547462      1.3438973     -1.9707547      18245.756    
    621000   0.98002774     0.0023323615  -0.00072403969  20.271722      18.816381      1.4553412     -1.7713215      18185.828    
    622000   1.0257799      0.0023323615  -0.0013443375   20.434867      18.911584      1.5232831     -1.5966413      18371.159    
    623000   0.97791567     0.0023323615  -0.005885839    20.062621      18.610416      1.4522048     -1.9609976      18283.346    
    624000   1.0393789      0.0023323615   0.0032737463   20.271368      18.72789       1.5434777     -1.8885545      18174.436    
    625000   0.98760111     0.0023323615  -0.00042428827  20.594326      19.127739      1.4665876     -1.5365821      18226.738    
    626000   1.0118889      0.0023323615  -0.0033165478   20.502054      18.999399      1.502655      -1.5634608      18160.221    
    627000   0.91207086     0.0023323615   0.00060724529  20.202731      18.848306      1.3544252     -1.7759585      18175.35     
    628000   0.91629644     0.0023323615   0.0065138579   20.080801      18.720101      1.3607002     -1.7681019      18246.216    
    629000   0.92945315     0.0023323615   0.0012236645   20.026089      18.645851      1.3802379     -1.8161584      18281.979    
    630000   0.94602957     0.0023323615  -0.00047298202  20.040791      18.635937      1.4048539     -1.8159088      18155.368    
    631000   0.84927605     0.0023323615  -0.0032727473   20.025385      18.76421       1.2611749     -1.6294707      18229.657    
    632000   0.86916529     0.0023323615   0.0068497476   20.116093      18.825382      1.2907105     -1.669441       18258.209    
    633000   0.91499795     0.0023323615  -0.0046227983   20.513652      19.15488       1.358772      -1.4237896      18329.262    
    634000   1.008117       0.0023323615   0.00090150797  20.362407      18.865353      1.4970538     -1.6845144      18339.349    
    635000   1.0330317      0.0023323615   0.0016821203   20.39049       18.856437      1.534052      -1.6709232      18225.37     
    636000   0.94493128     0.0023323615   0.0015309368   20.265371      18.862148      1.4032229     -1.6635999      18283.366    
    637000   0.97348891     0.0023323615  -0.0010177015   20.358803      18.913172      1.445631      -1.6801895      18264.483    
    638000   1.0655493      0.0023323615   0.0040622192   20.291878      18.709538      1.5823408     -1.9386372      18188.969    
    639000   0.95986853     0.0023323615  -4.4077736e-06  20.456192      19.030787      1.4254048     -1.6563386      18211.736    
    640000   0.9626613      0.0023323615  -0.00017045894  20.358281      18.928729      1.429552      -1.5674011      18266.736    
    641000   0.98730886     0.0023323615   0.0016152014   20.263438      18.797284      1.4661536     -1.7835436      18271.193    
    642000   1.0037917      0.0023323615  -0.0025295317   20.104548      18.613918      1.4906307     -1.7884362      18250.146    
    643000   0.90046639     0.0023323615   0.0015646936   20.119325      18.782132      1.3371926     -1.6937897      18310.617    
    644000   1.119085       0.0023323615   0.0027364298   20.228181      18.56634       1.6618412     -2.0054633      18207.812    
    645000   0.9685462      0.0023323615  -0.0011773798   20.314283      18.875991      1.4382911     -1.6762381      18241.071    
    646000   0.94755542     0.0023323615  -0.0012497933   20.243936      18.836816      1.4071198     -1.6661482      18313.087    
    647000   1.1160762      0.0023323615   0.002007038    20.289592      18.632219      1.6573731     -1.8323374      18336.832    
    648000   0.99933333     0.0023323615  -0.0019241177   20.282829      18.798819      1.48401       -1.7481224      18218.567    
    649000   0.89282678     0.0023323615   0.002017239    20.031768      18.70592       1.3258478     -1.8030455      18175.992    
    650000   0.97390087     0.0023323615  -0.00040877432  20.140483      18.69424       1.4462428     -1.8000712      18278.558    
    651000   0.98763037     0.0023323615   0.00072840134  20.213496      18.746865      1.4666311     -1.7274409      18276.764    
    652000   0.98763027     0.0023323615  -0.00040638086  20.284934      18.818303      1.466631      -1.6016828      18130.249    
    653000   1.1176962      0.0023323615   0.004368901    20.468528      18.808749      1.6597788     -1.5705818      18305.875    
    654000   1.117807       0.0023323615   0.0012365272   20.463098      18.803155      1.6599435     -1.744556       18282.492    
    655000   0.93348311     0.0023323615  -0.0017301606   20.266079      18.879856      1.3862224     -1.7305299      18282.505    
    656000   0.92983808     0.0023323615   0.0025016275   20.020912      18.640102      1.3808095     -1.8034491      18302.156    
    657000   1.1453964      0.0023323615   0.0029920263   20.341576      18.640663      1.7009137     -1.7954332      18260.186    
    658000   0.96992147     0.0023323615  -0.0010880836   20.094026      18.653692      1.4403334     -1.9226224      18223.559    
    659000   1.1626996      0.0023323615   0.00037614575  20.475697      18.749088      1.726609      -1.9517688      18280.124    
    660000   1.2200101      0.0023323615   0.0016565153   20.638265      18.82655       1.811715      -1.6922239      18222.917    
    661000   0.98582383     0.0023323615   0.0025555847   20.485145      19.021197      1.4639484     -1.6445498      18237.118    
    662000   0.8740379      0.0023323615  -0.00054439756  20.067576      18.76963       1.2979463     -1.6526042      18209.586    
    663000   1.1008861      0.0023323615   0.0030910063   20.269995      18.635179      1.6348158     -1.8947111      18209.317    
    664000   0.90995283     0.0023323615  -0.0046645907   20.045822      18.694542      1.3512799     -1.8957138      18002.762    
    665000   0.88136494     0.0023323615  -0.00078976544  19.799881      18.491054      1.3088269     -1.9893566      18008.07     
    666000   1.0582859      0.0023323615   0.00076564346  20.2586        18.687045      1.5715546     -1.7773485      18162.908    
    667000   1.1085895      0.0023323615   0.0064797534   20.484138      18.837882      1.6462554     -1.8189191      18273.16     
    668000   0.96429238     0.0023323615   0.002269551    20.464207      19.032233      1.4319742     -1.604997       18180.239    
    669000   0.97266823     0.0023323615   0.0011786989   20.378349      18.933936      1.4444123     -1.6062832      18285.392    
    670000   1.0575334      0.0023323615   0.0027365158   20.117253      18.546816      1.5704371     -1.8740023      18099.973    
    671000   1.0296801      0.0023323615   0.0029269982   20.204168      18.675094      1.5290749     -1.8437608      18157.743    
    672000   1.0530044      0.0023323615   0.0027491402   20.389615      18.825903      1.5637115     -1.7100796      18219.079    
    673000   0.93525947     0.0023323615   0.0024313012   20.002136      18.613275      1.3888603     -1.9787445      18430.238    
    674000   0.94981546     0.0023323615   9.3380309e-05  20.121099      18.710623      1.410476      -1.7664368      18407.088    
    675000   0.95241526     0.0023323615  -0.00030176856  20.183081      18.768744      1.4143367     -1.7827821      18267.909    
    676000   1.118993       0.0023323615  -0.0011395729   20.464522      18.802817      1.6617046     -1.7164778      18298.08     
    677000   0.86439132     0.0023323615   0.0025284647   19.783077      18.499456      1.2836211     -1.9002789      18273.792    
    678000   1.2173955      0.0023323615  -0.0024624403   20.208373      18.40054       1.8078324     -2.0982402      18204.471    
    679000   1.0206444      0.0023323615  -0.00045729435  20.130109      18.614452      1.515657      -1.7640482      18117.655    
    680000   1.0023058      0.0023323615   0.0019581227   20.504096      19.015671      1.4884242     -1.6546296      18277.309    
    681000   1.0689715      0.0023323615  -0.00511314     20.37982       18.792398      1.5874227     -1.767542       18244.035    
    682000   1.1112813      0.0023323615  -0.00040942861  20.48387       18.833617      1.6502528     -1.5872181      18280.218    
    683000   1.0035009      0.0023323615  -0.0010186784   20.095747      18.605549      1.4901988     -1.806824       18397.236    
    684000   1.028652       0.0023323615   0.0027004604   20.372385      18.844836      1.5275483     -1.6877808      18179.296    
    685000   1.1235949      0.0023323615  -0.00014540702  20.306363      18.637825      1.6685384     -1.8097011      18190.345    
    686000   1.0750686      0.0023323615   0.0020252295   20.162126      18.565649      1.5964769     -1.9401167      18212.43     
    687000   0.91009405     0.0023323615   0.00072458665  20.425537      19.074047      1.3514897     -1.6145805      18251.541    
    688000   0.94063196     0.0023323615  -0.0051997684   20.343214      18.946376      1.3968385     -1.6178939      18338.392    
    689000   0.94329589     0.0023323615  -0.0012332748   20.036518      18.635723      1.4007944     -1.9468268      18147.08     
    690000   1.0551598      0.0023323615   0.00039781405  20.473577      18.906665      1.5669123     -1.7453816      18194.606    
    691000   0.94603309     0.0023323615   0.0019037276   20.382587      18.977728      1.4048591     -1.5245094      18168.148    
    692000   0.9808373      0.0023323615   0.0013173112   20.07868       18.622137      1.4565434     -1.8291151      18340.444    
    693000   1.033537       0.0023323615  -0.0032010154   20.648347      19.113544      1.5348025     -1.6169784      18344.148    
    694000   1.012582       0.0023323615  -0.0011624982   20.140968      18.637283      1.5036842     -1.7891051      18244.269    
    695000   0.96831086     0.0023323615   0.0052717758   20.395462      18.957521      1.4379416     -1.6302547      18405.91     
    696000   0.97422948     0.0023323615  -9.5286924e-06  20.279488      18.832757      1.4467308     -1.7408363      18314.232    
    697000   0.82984252     0.0023323615   0.0010972262   20.119243      18.886927      1.2323161     -1.5298347      18267.625    
    698000   1.0262833      0.0023323615   0.0011779949   20.192393      18.668362      1.5240307     -1.8113655      18328.148    
    699000   1.0057951      0.0023323615  -0.0032995197   20.061653      18.568048      1.4936057     -1.992185       18280.992    
    700000   1.0451262      0.0023323615  -0.0020480517   20.468714      18.916702      1.5520124     -1.7291953      18404.831    
    701000   1.0552356      0.0023323615   0.00071601009  20.394785      18.82776       1.5670248     -1.638268       18550.094    
    702000   1.0450264      0.0023323615   0.00026149369  20.669891      19.118027      1.5518643     -1.3668542      18630.342    
    703000   1.0341127      0.0023323615  -0.00088994326  20.41204       18.876383      1.5356573     -1.7242044      18499.951    
    704000   0.94345347     0.0023323615  -0.0011526046   20.238663      18.837634      1.4010284     -1.730229       18236.355    
    705000   0.92985349     0.0023323615   0.0010829983   19.987383      18.60655       1.3808324     -1.9033516      18190.899    
    706000   0.99576693     0.0023323615   0.00098668348  20.484789      19.006075      1.4787139     -1.5249997      18139.142    
    707000   0.96124404     0.0023323615  -0.0012267655   20.264484      18.837037      1.4274474     -1.5950789      18225.773    
    708000   0.97712831     0.0023323615   0.0016047131   20.268367      18.817332      1.4510355     -1.7817172      18017.214    
    709000   1.1815604      0.0023323615   0.0019429995   20.45593       18.701313      1.7546172     -1.83086        18140.573    
    710000   0.99268828     0.0023323615   0.002337839    20.167693      18.693551      1.4741421     -1.7500466      18243.145    
    711000   1.0888945      0.0023323615  -0.0013283338   20.543728      18.926719      1.6170084     -1.6379066      18194.35     
    712000   1.1074304      0.0023323615  -0.0010388457   20.670319      19.025785      1.6445342     -1.5749359      18197.024    
    713000   0.87610567     0.0023323615   0.0010651746   20.180895      18.879878      1.3010169     -1.5993571      18356.986    
    714000   1.073423       0.0023323615  -0.001577951    20.811868      19.217835      1.5940332     -1.4379615      18372.823    
    715000   0.93728077     0.0023323615  -0.0029052339   20.104506      18.712644      1.3918619     -1.7761271      18242.831    
    716000   0.99815305     0.0023323615  -0.001098455    20.378852      18.896595      1.4822573     -1.5342193      18209.945    
    717000   0.90056263     0.0023323615   0.0015966456   19.846646      18.509311      1.3373355     -1.8977451      18327.182    
    718000   1.0185094      0.0023323615  -0.0014265668   20.231196      18.71871       1.5124864     -1.6849982      18200.936    
    719000   1.0347628      0.0023323615  -0.0041879311   20.573186      19.036563      1.5366228     -1.5811108      18233.767    
    720000   0.85882815     0.0023323615  -0.00065441216  20.101964      18.826604      1.2753598     -1.7333981      18193.704    
    721000   1.0307427      0.0023323615   0.00081814513  20.452845      18.922192      1.5306529     -1.591375       18090.905    
    722000   1.0474606      0.0023323615   0.001735974    20.517544      18.962065      1.555479      -1.6896549      18107.772    
    723000   0.96186865     0.0023323615  -0.0040103673   20.411164      18.982789      1.4283749     -1.5614597      18034.184    
    724000   1.0805162      0.0023323615   0.0016785748   20.723251      19.118684      1.6045665     -1.4343063      18261.756    
    725000   1.0758738      0.0023323615   0.0037008973   20.236051      18.638379      1.5976727     -1.8618607      18300.707    
    726000   1.0588302      0.0023323615   0.0026751111   20.424307      18.851944      1.5723629     -1.702853       18148.36     
    727000   1.0289232      0.0023323615   0.0011106206   20.661061      19.13311       1.527951      -1.4340731      18182.667    
    728000   1.0266226      0.0023323615  -0.00039180715  20.423789      18.899254      1.5245346     -1.6236157      18336.269    
    729000   1.0360864      0.0023323615   0.00073470483  20.285503      18.746914      1.5385883     -1.6648712      18383.872    
    730000   0.80853162     0.0023323615   0.0035030505   20.192738      18.992069      1.2006695     -1.5320662      18395.974    
    731000   1.0995615      0.0023323615   0.0051339109   20.510275      18.877426      1.6328488     -1.642168       18461.763    
    732000   1.0015596      0.0023323615  -0.00071396725  20.339456      18.85214       1.487316      -1.7401513      18125.123    
    733000   1.0869196      0.0023323615   0.0018837236   20.402613      18.788538      1.6140756     -1.6306328      18116.139    
    734000   1.1320364      0.0023323615   0.0028500238   20.696936      19.015862      1.681074      -1.640728       18190.073    
    735000   1.2380756      0.0023323615   0.0045804715   20.884091      19.045549      1.8385422     -1.526791       18303.797    
    736000   0.89517633     0.0023323615   0.0022129776   20.008365      18.679028      1.3293368     -1.8193963      18343.855    
    737000   1.0432582      0.0023323615  -0.0011218349   20.431039      18.8818        1.5492384     -1.6603071      18349.133    
    738000   0.99140372     0.0023323615  -0.0027030757   20.228355      18.756121      1.4722345     -1.719406       18255.684    
    739000   1.1186881      0.0023323615   8.533688e-05   20.718916      19.057664      1.6612519     -1.5892552      18344.894    
    740000   0.99469573     0.0023323615  -0.00014279811  20.272808      18.795685      1.4771232     -1.6842994      18352.111    
    741000   0.98315337     0.0023323615   0.0052065655   20.707778      19.247795      1.4599828     -1.4236924      18322.641    
    742000   1.0699446      0.0023323615   0.00052565482  20.452659      18.863791      1.5888677     -1.545161       18247.107    
    743000   1.0388584      0.0023323615   0.0020317912   20.673281      19.130576      1.5427047     -1.4561611      18335.592    
    744000   1.182849       0.0023323615   0.0030928435   20.828765      19.072235      1.7565308     -1.3754209      18398.172    
    745000   1.0193407      0.0023323615  -0.0016150469   20.368525      18.854804      1.5137209     -1.7089315      18338.176    
    746000   0.94043456     0.0023323615  -0.0013091733   20.157396      18.76085       1.3965453     -1.7835251      18249.315    
    747000   1.0120714      0.0023323615   0.00051378428  20.321308      18.818382      1.502926      -1.6550755      18125.627    
    748000   0.95059004     0.0023323615  -0.00096688736  20.341191      18.929564      1.4116262     -1.5953331      18266.91     
    749000   0.97661442     0.0023323615   0.00055263792  20.329975      18.879703      1.4502724     -1.6830808      18201.583    
    750000   1.0440372      0.0023323615  -0.0015220362   20.20974       18.659345      1.5503952     -1.8306241      18295.692    
    751000   1.096202       0.0023323615  -0.0013535922   20.255358      18.627498      1.62786       -1.9174675      18248.491    
    752000   1.0214863      0.0023323615   0.0031750641   20.266905      18.749997      1.5169071     -1.7303236      18241.178    
    753000   0.9423232      0.0023323615   9.7168637e-05  20.028091      18.628741      1.3993499     -1.9072352      18297.557    
    754000   0.9752118      0.0023323615  -0.0027654737   20.082226      18.634036      1.4481895     -1.8953874      18278.822    
    755000   0.90278344     0.0023323615  -0.0022521572   20.23569       18.895056      1.3406334     -1.6089143      18247.47     
    756000   0.83023926     0.0023323615   0.0018453997   20.287306      19.054401      1.2329053     -1.5470822      18357.418    
    757000   1.0804418      0.0023323615   0.00090551518  20.346691      18.742235      1.6044561     -1.7589882      18171.154    
    758000   1.1078043      0.0023323615   0.003434749    20.574992      18.929903      1.6450893     -1.7094365      18265.298    
    759000   0.93271902     0.0023323615  -0.002932004    20.275241      18.890153      1.3850877     -1.6492677      18136.123    
    760000   1.0959024      0.0023323615  -0.0014037962   20.302663      18.675248      1.627415      -1.8364653      18204.591    
    761000   1.0193873      0.0023323615  -0.0032288795   20.341681      18.827891      1.5137901     -1.6846638      18385.903    
    762000   0.9387674      0.0023323615  -0.0057198009   20.274375      18.880305      1.3940696     -1.6592425      18176.31     
    763000   1.003253       0.0023323615  -0.0010981189   20.361847      18.872016      1.4898308     -1.7306493      18254.398    
    764000   1.0792841      0.0023323615  -0.0018822605   20.277054      18.674317      1.602737      -1.8235128      18333.69     
    765000   0.92400624     0.0023323615   0.0018823808   20.181695      18.809545      1.3721493     -1.6429983      18137.237    
    766000   0.94792101     0.0023323615  -0.0026028771   20.401001      18.993338      1.4076627     -1.5290166      18157.694    
    767000   1.0893365      0.0023323615   0.0037140926   20.405866      18.788201      1.6176647     -1.5901761      18273.247    
    768000   1.2210613      0.0023323615  -0.00029450364  20.585151      18.771875      1.8132761     -1.666893       18336.259    
    769000   0.94613354     0.0023323615  -0.00079990698  20.024324      18.619315      1.4050083     -1.8423974      18437.731    
    770000   0.9274561      0.0023323615   0.00019129234  20.149579      18.772307      1.3772723     -1.6969823      18274.92     
    771000   1.06317        0.0023323615  -0.0014156243   20.491659      18.912852      1.5788074     -1.6359501      18322.368    
    772000   0.87216113     0.0023323615  -0.0069321488   19.885176      18.590016      1.2951593     -1.8821357      18198.172    
    773000   1.0103753      0.0023323615   0.0012940311   20.335071      18.834664      1.5004073     -1.6290012      18222.478    
    774000   0.96607976     0.0023323615  -0.0010371672   20.395504      18.960876      1.4346284     -1.6069542      18279.02     
    775000   1.0865586      0.0023323615   0.0023899269   20.373421      18.759882      1.6135395     -1.7835454      18481.032    
    776000   0.87319022     0.0023323615  -0.0051264187   20.208706      18.912018      1.2966875     -1.6958002      18197.856    
    777000   0.97395273     0.0023323615  -0.0015492425   20.395326      18.949006      1.4463198     -1.502059       18175.982    
    778000   1.0453332      0.0023323615   0.0024156505   20.497513      18.945193      1.5523198     -1.5648983      18216.492    
    779000   1.0848463      0.0023323615  -0.0021954569   20.612094      19.001098      1.6109967     -1.5557628      18294.374    
    780000   0.97048727     0.0023323615  -0.0016387179   20.335738      18.894565      1.4411736     -1.5579625      18248.445    
    781000   0.97380424     0.0023323615   0.001893905    20.322021      18.875922      1.4460993     -1.6598484      18209.304    
    782000   0.93532393     0.0023323615   0.0021451938   20.151495      18.762539      1.388956      -1.6700708      18158.318    
    783000   0.97360167     0.0023323615   0.00086670724  20.153386      18.707587      1.4457985     -1.7714197      18301.794    
    784000   0.96860277     0.0023323615   0.0048354181   20.082315      18.64394       1.4383751     -1.8113321      18194.112    
    785000   0.97774729     0.0023323615   0.00011726767  20.20315       18.751195      1.4519547     -1.6802365      18256.782    
    786000   1.0250231      0.0023323615  -0.0032840744   20.605539      19.08338       1.5221593     -1.5608008      18333.269    
    787000   1.1068636      0.0023323615   0.0021208124   20.272891      18.629199      1.6436924     -1.9272675      18319.315    
    788000   0.97476121     0.0023323615  -0.0015887405   20.048534      18.601014      1.4475204     -1.9226952      18361.18     
    789000   0.96572313     0.0023323615   0.0004207658   20.068221      18.634122      1.4340988     -1.9116627      18390.334    
    790000   0.92081944     0.0023323615   0.0013493888   20.255506      18.88809       1.3674169     -1.6097869      18339.137    
    791000   0.945204       0.0023323615   0.00016744884  20.26775       18.864122      1.4036279     -1.629891       18326.435    
    792000   0.86838486     0.0023323615  -0.0015033744   20.027162      18.73761       1.2895515     -1.7659904      18239.618    
    793000   1.0212906      0.0023323615  -0.0019537677   20.234481      18.717865      1.5166165     -1.8224867      18200.352    
    794000   1.0044281      0.0023323615  -0.0052763002   20.259994      18.768418      1.4915758     -1.7098729      18242.798    
    795000   1.0470609      0.0023323615  -0.0031886562   20.561541      19.006656      1.5548854     -1.6605388      18227.453    
    796000   0.98848773     0.0023323615  -0.00092011188  20.435899      18.967995      1.4679043     -1.6281992      18229.89     
    797000   0.98025613     0.0023323615  -0.0014038958   20.145273      18.689593      1.4556804     -1.7511359      18411.394    
    798000   1.0752873      0.0023323615  -0.00040820088  20.573344      18.976542      1.5968016     -1.4589413      18429.754    
    799000   1.0279626      0.0023323615  -0.00039193706  20.513979      18.987455      1.5265245     -1.502072       18415.388    
    800000   0.96953584     0.0023323615  -0.0018368937   20.367554      18.927793      1.4397607     -1.5404211      18526.395    
    801000   1.0312534      0.0023323615   0.00047642775  20.533674      19.002262      1.5314113     -1.4609128      18612.947    
    802000   0.97131208     0.0023323615   0.0026413266   20.340918      18.89852       1.4423984     -1.5926186      18283.908    
    803000   0.91198364     0.0023323615   0.00019129606  19.98569       18.631394      1.3542957     -1.833737       18160.934    
    804000   1.0182059      0.0023323615   0.0044103002   20.033288      18.521253      1.5120358     -1.9813501      18214.219    
    805000   0.87018914     0.0023323615  -0.0022226611   19.875058      18.582827      1.2922309     -1.9715063      18119.575    
    806000   1.0311715      0.0023323615   0.00011077268  20.16239       18.6311        1.5312896     -1.861292       18161.407    
    807000   0.92151711     0.0023323615  -0.00027129012  19.932412      18.563959      1.3684529     -1.9907339      18254.609    
    808000   0.97908034     0.0023323615   0.00037200872  20.14858       18.694645      1.4539343     -1.8104799      18245.022    
    809000   1.0914064      0.0023323615  -0.0039735528   20.522895      18.902156      1.6207385     -1.7708666      18249.232    
    810000   0.94632602     0.0023323615  -0.0049708698   20.065753      18.660458      1.4052941     -1.8783777      18259.408    
    811000   1.0584893      0.0023323615  -0.0029785485   20.187668      18.615811      1.5718565     -1.9374795      18197.678    
    812000   0.90318181     0.0023323615   0.00020142657  20.114799      18.773574      1.341225      -1.7334455      18198.089    
    813000   0.96198301     0.0023323615  -0.00073569344  20.201945      18.773401      1.4285448     -1.8029123      18186.683    
    814000   0.88994448     0.0023323615   0.0006823274   20.135297      18.81373       1.3215676     -1.6588612      18058.133    
    815000   0.96137698     0.0023323615  -0.00019893976  20.113981      18.686336      1.4276448     -1.9517047      18397.578    
    816000   0.94101558     0.0023323615  -0.001953247    20.247627      18.850219      1.3974081     -1.6374959      18293.314    
    817000   0.90094592     0.0023323615  -0.0018862545   20.054576      18.716671      1.3379047     -1.7799705      18270.658    
    818000   0.92242977     0.0023323615   0.0028421811   20.097179      18.72737       1.3698082     -1.7511662      18229.168    
    819000   0.99630464     0.0023323615   0.0022926764   20.237147      18.757635      1.4795124     -1.7693317      18292.01     
    820000   0.8056564      0.0023323615  -0.0033710598   20.307793      19.111394      1.1963997     -1.6363076      18298.013    
    821000   1.0491689      0.0023323615  -0.002015388    20.096805      18.538789      1.5580158     -1.9925056      18144.243    
    822000   1.0605751      0.0023323615  -0.0014078787   20.089046      18.514092      1.5749541     -1.9285441      18136.502    
    823000   1.0772319      0.0023323615  -0.0041221473   20.216259      18.61657       1.5996893     -1.9890957      18190.541    
    824000   0.94450733     0.0023323615   0.0014163827   19.995715      18.593121      1.4025934     -1.9429435      18206.039    
    825000   0.95947022     0.0023323615   0.0034445509   19.833727      18.408914      1.4248133     -2.0576839      18272.036    
    826000   1.0676337      0.0023323615  -0.0032419654   20.3884        18.802964      1.585436      -1.7124378      18200.644    
    827000   0.88055015     0.0023323615   0.00020429709  20.341478      19.033861      1.307617      -1.5291904      18272.441    
    828000   1.0655155      0.0023323615   0.0017182989   20.458848      18.876557      1.5822905     -1.7351867      18164.068    
    829000   1.0120272      0.0023323615  -0.0031214165   20.304438      18.801577      1.5028604     -1.7662714      18116.432    
    830000   0.91057389     0.0023323615  -0.0018594312   19.719808      18.367605      1.3522022     -2.1216268      18241.124    
    831000   0.91534721     0.0023323615  -0.0050206838   20.278175      18.918885      1.3592906     -1.687978       18183.274    
    832000   1.0321052      0.0023323615  -0.0014510794   20.260823      18.728147      1.5326762     -1.7865392      18209.231    
    833000   1.1089895      0.0023323615   0.0026547186   20.383862      18.737013      1.6468493     -1.8629319      18324.864    
    834000   0.92105391     0.0023323615  -0.0020331635   20.056217      18.688452      1.367765      -1.7095942      18214.617    
    835000   1.051481       0.0023323615  -0.00062881957  20.19219       18.630741      1.5614493     -1.8630777      18241.681    
    836000   0.83513335     0.0023323615  -0.00019311119  19.958954      18.718781      1.240173      -1.7381872      18209.693    
    837000   0.95002013     0.0023323615  -0.0019408446   19.977095      18.566315      1.4107799     -1.8581265      18214.055    
    838000   1.0734917      0.0023323615   0.0018569139   20.17946       18.585325      1.5941352     -1.8864109      18216.801    
    839000   0.97684369     0.0023323615   0.0012185914   20.215219      18.764606      1.4506129     -1.8676673      18216.801    
    840000   0.93577973     0.0023323615   0.00037332116  20.103768      18.714135      1.3896329     -1.7521954      18187.949    
    841000   0.93108501     0.0023323615   0.0031903911   19.786012      18.40335       1.3826612     -1.9773487      18160.029    
    842000   0.94815733     0.0023323615   0.00038388987  20.167943      18.759929      1.4080136     -1.8097855      18202.838    
    843000   1.0006161      0.0023323615  -0.0018206902   20.046882      18.560967      1.4859149     -1.8579502      18304.318    
    844000   0.98786635     0.0023323615   0.0012044812   20.513004      19.046022      1.4669815     -1.5539201      18298.492    
    845000   0.88077004     0.0023323615  -0.002002707    20.137053      18.82911       1.3079435     -1.7375364      18352.638    
    846000   0.91973635     0.0023323615   0.00050618698  20.159047      18.793238      1.3658085     -1.6384319      18236.801    
    847000   0.9350792      0.0023323615   0.0014716704   20.133825      18.745232      1.3885926     -1.7857374      18320.186    
    848000   0.97697898     0.0023323615   0.0035122116   20.190427      18.739613      1.4508138     -1.7842929      18367.447    
    849000   1.0251689      0.0023323615  -0.002915712    20.455966      18.93359       1.5223757     -1.6457618      18245.872    
    850000   0.92696756     0.0023323615   0.0027967437   20.221282      18.844735      1.3765468     -1.7742688      18331.084    
    851000   0.94380192     0.0023323615  -0.0012079475   20.213346      18.8118        1.4015458     -1.6468774      18221.56     
    852000   0.94722741     0.0023323615  -0.001112486    20.121049      18.714416      1.4066327     -1.8133778      18285.784    
    853000   0.87938454     0.0023323615   0.0018558819   19.987092      18.681206      1.305886      -1.8158455      18197.827    
    854000   1.0507149      0.0023323615  -0.0003176188   20.44103       18.880719      1.5603116     -1.6451499      18331.605    
    855000   1.1566068      0.0023323615   0.0025449597   20.413348      18.695786      1.7175611     -1.6733301      18289.346    
    856000   0.98190558     0.0023323615   0.0064463027   20.308589      18.85046       1.4581298     -1.7266836      18133.207    
    857000   0.90801157     0.0023323615   0.0038732123   20.33766       18.989263      1.3483972     -1.6607523      18200.472    
    858000   0.86370094     0.0023323615  -0.0023643647   19.919955      18.637359      1.2825959     -1.9234898      18217.483    
    859000   1.0847911      0.0023323615   0.0047354821   20.20531       18.594395      1.6109148     -1.8716769      18335.145    
    860000   0.93688275     0.0023323615   0.00087646538  20.277663      18.886392      1.3912709     -1.7419883      18302.334    
    861000   1.0133279      0.0023323615  -0.00033007658  20.291613      18.786821      1.5047919     -1.6698666      18255.243    
    862000   0.95817361     0.0023323615   0.0028130186   19.959326      18.536438      1.4228878     -1.9751851      18238.105    
    863000   1.0066106      0.0023323615  -0.0026575811   20.017277      18.522461      1.4948167     -2.0128703      17301.016    
    864000   0.95168783     0.0023323615   0.0012929617   20.120608      18.707352      1.4132564     -1.8255628      18160.535    
    865000   1.1155016      0.0023323615   0.0013789915   20.372264      18.715744      1.6565199     -1.7871409      18259.367    
    866000   1.0108927      0.0023323615   0.0017211476   20.152252      18.651076      1.5011756     -1.9337275      18139.657    
    867000   1.0016551      0.0023323615   0.00089731365  19.8871        18.399642      1.4874578     -2.0833411      18118.687    
    868000   1.0024873      0.0023323615   0.0014349063   20.160994      18.6723        1.4886937     -1.830965       18203.857    
    869000   0.99707098     0.0023323615   0.0050834015   20.249242      18.768592      1.4806504     -1.7943802      18271.681    
    870000   0.98254451     0.0023323615   0.0039390244   20.383397      18.924318      1.4590786     -1.7263811      18366.954    
    871000   1.0444386      0.0023323615  -0.00612932     20.256704      18.705712      1.5509913     -1.8816526      18269.38     
    872000   1.02411        0.0023323615   0.00087679661  20.314403      18.7936        1.5208033     -1.658691       18203.306    
    873000   0.96501203     0.0023323615   0.0046805486   20.269063      18.83602       1.4330429     -1.7104873      18232.841    
    874000   1.0612263      0.0023323615   0.0010399696   20.529874      18.953953      1.575921      -1.7739855      18253.928    
    875000   1.0581971      0.0023323615   0.0031554271   20.421647      18.850224      1.5714227     -1.7542744      18170.357    
    876000   0.96719503     0.0023323615  -0.0034195404   20.354448      18.918163      1.4362846     -1.6276722      18293.821    
    877000   1.1694853      0.0023323615  -0.0016894915   20.7174        18.980714      1.7366857     -1.6989373      18244.119    
    878000   0.95198574     0.0023323615   0.0044192055   20.024578      18.610879      1.4136988     -1.7946275      18184.847    
    879000   1.049581       0.0023323615   0.00040837488  20.233024      18.674396      1.5586278     -1.7740242      18159.24     
    880000   1.1698341      0.0023323615  -0.00064319242  20.84171       19.104506      1.7372036     -1.4996583      18197.094    
    881000   0.95717865     0.0023323615   0.0027798687   20.175553      18.754143      1.4214103     -1.7874754      18180.15     
    882000   0.84825143     0.0023323615  -0.0026050786   20.058247      18.798594      1.2596534     -1.7169304      18144.642    
    883000   0.96912777     0.0023323615   0.0032738554   20.292946      18.853791      1.4391547     -1.641479       18281.252    
    884000   0.91270579     0.0023323615  -0.0015115842   20.243568      18.8882        1.3553681     -1.5585594      18346.519    
    885000   0.97320847     0.0023323615   0.00095375612  20.472109      19.026895      1.4452146     -1.5807556      18178.452    
    886000   0.95996922     0.0023323615  -0.0020803643   19.979248      18.553694      1.4255543     -1.8982006      18232.551    
    887000   0.96114548     0.0023323615   0.0020118991   20.129812      18.702511      1.427301      -1.8696272      18160.297    
    888000   1.0071848      0.0023323615  -0.0006458958   20.078792      18.583122      1.4956694     -1.9049968      18159.22     
    889000   1.0187306      0.0023323615   0.0011731819   19.998297      18.485482      1.5128149     -1.88545        18050.876    
    890000   1.0979841      0.0023323615   0.00088453947  20.823166      19.192659      1.6305064     -1.4970254      18145.404    
    891000   0.97421446     0.0023323615  -5.5637143e-06  20.360511      18.913802      1.4467085     -1.5925137      18244.638    
    892000   1.013385       0.0023323615  -0.00099079058  20.34883       18.843953      1.5048767     -1.771884       18127.394    
    893000   0.99535053     0.0023323615  -0.0027651738   20.193297      18.715202      1.4780955     -1.8702835      18142.284    
    894000   0.97668507     0.0023323615   0.00226626     20.191514      18.741137      1.4503773     -1.7900003      18166.422    
    895000   1.1021853      0.0023323615  -0.00034598148  20.302927      18.666182      1.6367452     -1.8548036      18142.598    
    896000   1.0602781      0.0023323615   0.00010853952  20.641502      19.066989      1.5745129     -1.4754867      18310.953    
    897000   0.90119728     0.0023323615  -0.00234589     20.202276      18.863998      1.338278      -1.6676943      18238.771    
    898000   1.1008978      0.0023323615   0.0032676954   20.165411      18.530578      1.6348332     -1.8913441      18012.467    
    899000   1.0630571      0.0023323615   0.0022287597   20.606216      19.027577      1.5786398     -1.5646144      18130.569    
    900000   0.96597678     0.0023323615  -0.0020761401   20.38807       18.953595      1.4344755     -1.5858598      18134.008    
    901000   0.92477114     0.0023323615  -0.0016286709   20.25405       18.880765      1.3732851     -1.5350249      17947.666    
    902000   0.97202729     0.0023323615   0.0021778745   20.28089       18.83743       1.4434605     -1.6756182      18151.179    
    903000   1.0483293      0.0023323615  -0.0015491846   20.67103       19.114261      1.556769      -1.4758617      18172.047    
    904000   0.98509409     0.0023323615   0.00089964384  20.061108      18.598243      1.4628647     -1.815115       18263.106    
    905000   0.9579868      0.0023323615   0.0046691492   20.317348      18.894738      1.4226104     -1.757899       18216.176    
    906000   1.1428288      0.0023323615  -0.00032766172  20.267129      18.570028      1.6971007     -1.9136693      18260.764    
    907000   0.82928873     0.0023323615   0.0022805886   19.986065      18.754571      1.2314938     -1.7363799      18150.129    
    908000   0.95629992     0.0023323615   0.00067110009  20.128006      18.7079        1.4201054     -1.7317021      18151.43     
    909000   0.99114389     0.0023323615   0.0017189466   20.07143       18.599582      1.4718487     -1.9457584      18134.525    
    910000   1.014117       0.0023323615  -0.0039602306   20.086956      18.580993      1.5059638     -1.8863199      18239.317    
    911000   0.9876689      0.0023323615   0.0012617058   20.358772      18.892083      1.4666883     -1.6788566      18296.688    
    912000   0.92635376     0.0023323615  -0.0016080995   20.153688      18.778052      1.3756353     -1.6390019      18211.051    
    913000   1.1535527      0.0023323615  -0.00042222094  20.792902      19.079877      1.7130257     -1.5973123      18236.375    
    914000   0.85646565     0.0023323615  -0.0013800142   20.153244      18.881393      1.2718515     -1.5444437      18298.57     
    915000   0.95943181     0.0023323615  -0.0010626116   20.115481      18.690724      1.4247562     -1.7521348      18271.738    
    916000   1.0908255      0.0023323615  -0.0031201919   20.293266      18.67339       1.6198759     -1.8734075      18201.806    
    917000   0.97315546     0.0023323615   0.00023295447  20.203686      18.75855       1.4451359     -1.6925623      18154.451    
    918000   0.95873087     0.0023323615   0.00069410743  20.27247       18.848755      1.4237153     -1.6285766      18273.04     
    919000   0.94913979     0.0023323615  -0.00072898433  20.213772      18.804299      1.4094726     -1.7262082      17939.248    
    920000   1.1289247      0.0023323615   0.00029645076  20.505122      18.828668      1.6764532     -1.6470211      18300.911    
    921000   1.0344483      0.0023323615  -0.0037985052   20.387724      18.851569      1.5361557     -1.8197248      18145.266    
    922000   1.1349065      0.0023323615   0.00089119662  20.456804      18.771468      1.6853361     -1.7381369      18166.27     
    923000   1.0114137      0.0023323615  -0.00051857763  20.320011      18.818062      1.5019493     -1.6121848      18348.276    
    924000   0.97933677     0.0023323615  -0.00042879152  20.233693      18.779378      1.4543151     -1.7261773      18309.099    
    925000   1.0137567      0.0023323615  -0.0028486266   20.191926      18.686497      1.5054287     -1.8524275      18661.199    
    926000   0.8685123      0.0023323615   0.00054149295  20.242093      18.952352      1.2897408     -1.5219276      18528.64     
    927000   1.024286       0.0023323615  -0.00086888735  20.39798       18.876915      1.5210647     -1.6611876      18354.896    
    928000   1.0856839      0.0023323615  -0.00055221917  20.394931      18.782691      1.6122406     -1.8107517      18181.836    
    929000   0.94859628     0.0023323615  -4.9643578e-05  20.142951      18.734285      1.4086655     -1.6742363      18193.04     
    930000   1.0027233      0.0023323615   0.0014300431   20.246862      18.757818      1.4890442     -1.7814634      18255.039    
    931000   1.10137        0.0023323615  -0.0052125523   20.503051      18.867517      1.6355344     -1.8063671      18195.548    
    932000   0.91760774     0.0023323615  -0.0026945406   20.402439      19.039791      1.3626475     -1.6125212      18230.875    
    933000   0.89550448     0.0023323615  -0.00317307     20.021322      18.691498      1.3298242     -1.7765833      18155.134    
    934000   0.98707731     0.0023323615   0.0018551166   20.397953      18.932143      1.4658098     -1.6382387      18344.122    
    935000   0.89251639     0.0023323615  -0.0049805609   20.407078      19.081691      1.3253868     -1.4896327      18389.901    
    936000   0.93474185     0.0023323615  -0.0037596396   20.304797      18.916705      1.3880917     -1.6313171      18211.374    
    937000   0.93708812     0.0023323615  -0.0020511981   19.913508      18.521933      1.3915759     -1.8681863      18303.637    
    938000   0.88846525     0.0023323615   0.00035724862  19.861062      18.541691      1.3193709     -1.9224443      18330.723    
    939000   0.9400134      0.0023323615  -0.0022175853   20.062023      18.666103      1.3959199     -1.7852717      18234.323    
    940000   0.97955048     0.0023323615  -0.00018119401  20.184027      18.729394      1.4546325     -1.7378987      18276.292    
    941000   0.95511333     0.0023323615   0.0015367401   20.122737      18.704394      1.4183433     -1.8649594      18199.585    
    942000   0.86759697     0.0023323615   0.0029428701   20.113463      18.825081      1.2883815     -1.742035       18197.091    
    943000   0.92333853     0.0023323615   0.00032948331  20.223827      18.852669      1.3711577     -1.6951794      18269.839    
    944000   0.97303702     0.0023323615  -0.0043379974   20.142802      18.697842      1.44496       -1.8292935      18323.202    
    945000   1.0029694      0.0023323615  -0.00046828836  20.290045      18.800636      1.4894096     -1.720092       18358.431    
    946000   1.0404924      0.0023323615   0.00016657467  20.24393       18.698799      1.5451312     -1.7387252      18474.235    
    947000   1.2175794      0.0023323615  -0.00075009399  20.328468      18.520362      1.8081054     -1.9534267      18302.754    
    948000   1.0135555      0.0023323615   0.0019908745   20.265417      18.760287      1.5051299     -1.7359594      18300.754    
    949000   1.2573544      0.0023323615  -0.0025535213   20.585212      18.718041      1.8671713     -1.9041054      18225.859    
    950000   1.0027563      0.0023323615   0.0018728771   19.997931      18.508837      1.4890931     -1.9285383      18224.628    
    951000   0.97073055     0.0023323615  -0.0016561988   20.096091      18.654556      1.4415349     -1.8090091      18413.445    
    952000   1.1382686      0.0023323615  -0.0022132715   20.467827      18.777498      1.6903289     -1.6799944      18304.865    
    953000   0.98955741     0.0023323615  -0.0060084997   20.227541      18.758049      1.4694928     -1.8650484      18114.157    
    954000   0.77961401     0.0023323615  -0.0065924532   20.155005      18.997278      1.1577268     -1.636106       18306.235    
    955000   0.98603908     0.0023323615  -0.0015459374   20.173197      18.708929      1.464268      -1.7550221      18393.432    
    956000   0.93756091     0.0023323615   0.0010677053   20.286556      18.894278      1.392278      -1.7240231      18253.087    
    957000   0.96889833     0.0023323615  -0.0045320782   20.245201      18.806387      1.438814      -1.7221653      18302.294    
    958000   0.98496258     0.0023323615  -0.00046924813  20.11291       18.650241      1.4626694     -1.7810098      18179.144    
    959000   1.0251245      0.0023323615   0.0020134349   20.195597      18.673287      1.5223099     -1.8162175      18204.402    
    960000   0.97315675     0.0023323615   0.0027805949   20.307913      18.862775      1.4451378     -1.7964321      18358.714    
    961000   0.79997553     0.0023323615  -0.00061815922  19.931038      18.743075      1.1879637     -1.8223132      18266.432    
    962000   1.0096172      0.0023323615  -0.002510398    20.342422      18.84314       1.4992815     -1.6660143      18275.877    
    963000   1.0628701      0.0023323615   0.001232228    20.285266      18.706904      1.578362      -1.8317473      18158.139    
    964000   1.0022786      0.0023323615   0.0036550355   20.12159       18.633206      1.4883837     -1.9108371      18019.4      
    965000   0.92339919     0.0023323615   0.00055891862  20.150144      18.778896      1.3712478     -1.7757742      18171.578    
    966000   1.1394613      0.0023323615   0.0011910399   20.624792      18.932692      1.6921        -1.5436898      18249.345    
    967000   1.0927936      0.0023323615   0.0019163655   20.482094      18.859296      1.6227985     -1.5824803      18188.962    
    968000   0.92618673     0.0023323615   0.0015213667   20.131021      18.755634      1.3753873     -1.7229947      18221.114    
    969000   1.1161758      0.0023323615  -0.00035395914  20.337929      18.680408      1.6575211     -1.9355164      18240.858    
    970000   0.93859402     0.0023323615  -0.0018625086   20.292812      18.899         1.3938121     -1.6926791      18134.515    
    971000   1.1188869      0.0023323615  -0.0010156931   20.467948      18.806401      1.6615471     -1.7412277      18140.227    
    972000   1.1336614      0.0023323615  -0.00086305703  20.437605      18.754118      1.6834872     -1.7279184      18149.294    
    973000   1.0611572      0.0023323615   0.0015297058   20.44666       18.870842      1.5758184     -1.5455958      18328.071    
    974000   0.94536497     0.0023323615   0.0022542254   20.251819      18.847952      1.403867      -1.6471638      18251.708    
    975000   0.94678464     0.0023323615   0.0028587527   19.996412      18.590437      1.4059752     -1.880715       18231.099    
    976000   0.9294485      0.0023323615  -0.0049033218   20.131415      18.751184      1.380231      -1.7179833      18250.423    
    977000   0.9359347      0.0023323615   0.0018681083   20.328594      18.938731      1.389863      -1.5828195      18354.008    
    978000   0.92866599     0.0023323615   0.0019102304   20.146164      18.767095      1.379069      -1.7890753      18204.681    
    979000   0.89495312     0.0023323615  -0.00091060855  20.100317      18.771311      1.3290054     -1.7840023      18170.939    
    980000   1.1054508      0.0023323615   0.00080326537  20.072391      18.430797      1.6415945     -2.0743094      18225.3      
    981000   1.1005436      0.0023323615   0.0034242218   20.084313      18.450006      1.6343073     -2.0231622      18102.014    
    982000   1.0242076      0.0023323615   0.0028284472   20.317718      18.79677       1.5209483     -1.8498559      18009.942    
    983000   0.85044096     0.0023323615  -0.0024903844   20.058259      18.795354      1.2629048     -1.7014994      17917.266    
    984000   0.87996074     0.0023323615  -0.0010372622   20.376383      19.069641      1.3067417     -1.4001415      18054.553    
    985000   0.91749325     0.0023323615  -0.00085562178  20.010496      18.648019      1.3624775     -1.796903       18154.787    
    986000   0.89851471     0.0023323615  -0.00022968054  19.956391      18.622096      1.3342943     -1.8118452      18102.395    
    987000   1.0549126      0.0023323615   0.0012022206   20.454904      18.888359      1.5665452     -1.6502647      18144.936    
    988000   0.83070211     0.0023323615   0.00072345037  20.102325      18.868733      1.2335926     -1.6198714      18185.294    
    989000   1.0718157      0.0023323615   0.0026093089   20.10499       18.513344      1.5916463     -1.998802       18154.308    
    990000   0.92938433     0.0023323615   0.0010729383   20.265008      18.884872      1.3801357     -1.5620097      18277.242    
    991000   0.97001869     0.0023323615   0.0010712869   20.044346      18.603868      1.4404778     -1.8486857      18161.371    
    992000   0.84829521     0.0023323615  -0.0018146379   19.967136      18.707418      1.2597184     -1.8273818      18254.138    
    993000   0.98618516     0.0023323615   0.00086573892  20.209882      18.745397      1.464485      -1.7196057      18332.982    
    994000   1.0983493      0.0023323615  -0.001355386    20.244292      18.613243      1.6310487     -1.923501       18327.849    
    995000   1.0353115      0.0023323615   0.0030271818   20.525703      18.988265      1.5374375     -1.641952       18314.088    
    996000   1.0167896      0.0023323615   0.0016095957   20.186179      18.676247      1.5099325     -1.9333937      18364.045    
    997000   1.1333415      0.0023323615  -0.0031898094   20.522733      18.839721      1.6830122     -1.7845965      18152.512    
    998000   0.99864372     0.0023323615   0.0047368671   20.284484      18.801498      1.4829859     -1.7152786      18192.769    
    999000   1.016901       0.0023323615  -0.005911538    20.569859      19.059761      1.510098      -1.5215434      18238.538    
   1000000   1.0378325      0.0023323615   0.0058919591   20.204839      18.663658      1.5411812     -1.7957976      18248.868    
Loop time of 54.6672 on 1 procs for 1000000 steps with 100 atoms

Performance: 7902355.835 tau/day, 18292.490 timesteps/s
99.4% CPU use with 1 MPI tasks x 1 OpenMP threads

MPI task timing breakdown:
Section |  min time  |  avg time  |  max time  |%varavg| %total
---------------------------------------------------------------
Pair    | 45.737     | 45.737     | 45.737     |   0.0 | 83.66
Bond    | 1.2653     | 1.2653     | 1.2653     |   0.0 |  2.31
Neigh   | 3.7793     | 3.7793     | 3.7793     |   0.0 |  6.91
Comm    | 1.3693     | 1.3693     | 1.3693     |   0.0 |  2.50
Output  | 0.21738    | 0.21738    | 0.21738    |   0.0 |  0.40
Modify  | 1.9457     | 1.9457     | 1.9457     |   0.0 |  3.56
Other   |            | 0.3537     |            |       |  0.65

Nlocal:            100 ave         100 max         100 min
Histogram: 1 0 0 0 0 0 0 0 0 0
Nghost:            294 ave         294 max         294 min
Histogram: 1 0 0 0 0 0 0 0 0 0
Neighs:           4851 ave        4851 max        4851 min
Histogram: 1 0 0 0 0 0 0 0 0 0

Total # of neighbors = 4851
Ave neighs/atom = 48.51
Ave special neighs/atom = 1.98
Neighbor list builds = 97783
Dangerous builds = 79152

write_data      ${outputfile_assembled} nofix nocoeff
write_data      7_assembled.data nofix nocoeff
System init for write_data ...
Generated 0 of 6 mixed pair_coeff terms from geometric mixing rule

Total wall time: 0:00:56
