LAMMPS (23 Jun 2022 - Update 1)
OMP_NUM_THREADS environment is not set. Defaulting to 1 thread. (src/comm.cpp:98)
  using 1 OpenMP thread(s) per MPI task


variable        runtime equal 1000000
variable		subsample_rate equal 1000

variable		outputfile_created string '3_created.data'
variable		outputfile_relaxed string '5_relaxed.data'
variable		outputfile_selfasb string '6_a_self_assemble.lammpstrj'
variable		outputfile_trajlin string '6_b_trajlin.data'
variable		outputfile_assembled string '7_assembled.data'

units           lj
atom_style      full
dimension       3
boundary        p p p
timestep        0.005

read_data       ${outputfile_created}
read_data       3_created.data
Reading data file ...
  orthogonal box = (0 0 0) to (35 35 35)
  1 by 1 by 1 MPI processor grid
  reading atoms ...
  100 atoms
  reading velocities ...
  100 velocities
  scanning bonds ...
  1 = max bonds/atom
  reading bonds ...
  99 bonds
Finding 1-2 1-3 1-4 neighbors ...
  special bond factors lj:    0        0        0       
  special bond factors coul:  0        0        0       
     2 = max # of 1-2 neighbors
     2 = max # of 1-3 neighbors
     4 = max # of 1-4 neighbors
     6 = max # of special neighbors
  special bonds CPU = 0.000 seconds
  read_data CPU = 0.005 seconds

bond_style      fene
bond_coeff      * 30.0 1.5 1.0 1.0
special_bonds   fene
Finding 1-2 1-3 1-4 neighbors ...
  special bond factors lj:    0        1        1       
  special bond factors coul:  0        1        1       
     2 = max # of 1-2 neighbors
     6 = max # of special neighbors
  special bonds CPU = 0.000 seconds

variable        Temp equal 1.0
variable        velSeed equal 926458

velocity        all create ${Temp} ${velSeed}
velocity        all create 1 ${velSeed}
velocity        all create 1 926458

### Output
thermo_style    custom step temp density press etotal pe ke epair spcpu
thermo          1000

###########################################################################
# Soft relaxation (to remove overlaps of particles)
######################################################################

pair_style      soft 1.0
pair_coeff      * * 0.0
variable        prefactor equal ramp(0,300)
fix             rampSoft all adapt 1 pair soft a * * v_prefactor

minimize        0.0 1.0e-8 1000 100000
WARNING: Using 'neigh_modify every 1 delay 0 check yes' setting during minimization (src/min.cpp:187)
Generated 0 of 6 mixed pair_coeff terms from geometric mixing rule
Neighbor list info ...
  update every 1 steps, delay 0 steps, check yes
  max neighbors/atom: 2000, page size: 100000
  master list distance cutoff = 1.3
  ghost atom cutoff = 1.3
  binsize = 0.65, bins = 54 54 54
  1 neighbor lists, perpetual/occasional/extra = 1 0 0
  (1) pair soft, perpetual
      attributes: half, newton on
      pair build: half/bin/newton
      stencil: half/bin/3d
      bin: standard
WARNING: Communication cutoff 1.3 is shorter than a bond length based estimate of 1.7550000000000001. This may lead to errors. (src/comm.cpp:727)
Per MPI rank memory allocation (min/avg/max) = 8.346 | 8.346 | 8.346 Mbytes
   Step          Temp         Density         Press          TotEng         PotEng         KinEng         E_pair         S/CPU     
         0   1              0.0023323615  -0.0039617958   21.524174      20.039174      1.485          0              0            
       362   1              0.0023323615   0.0023090379   21.485548      20.000548      1.485          0              68707.964    
Loop time of 0.00527108 on 1 procs for 362 steps with 100 atoms

96.6% CPU use with 1 MPI tasks x 1 OpenMP threads

Minimization stats:
  Stopping criterion = force tolerance
  Energy initial, next-to-last, final = 
      20.0391741078675   20.0005480767337   20.0005480767337
  Force two-norm initial, final = 11.878422 7.9509778e-09
  Force max component initial, final = 6.6117807 1.3572772e-09
  Final line search alpha, max atom move = 1 1.3572772e-09
  Iterations, force evaluations = 362 738

MPI task timing breakdown:
Section |  min time  |  avg time  |  max time  |%varavg| %total
---------------------------------------------------------------
Pair    | 0.00022834 | 0.00022834 | 0.00022834 |   0.0 |  4.33
Bond    | 0.0023401  | 0.0023401  | 0.0023401  |   0.0 | 44.39
Neigh   | 0.0015381  | 0.0015381  | 0.0015381  |   0.0 | 29.18
Comm    | 0.0001857  | 0.0001857  | 0.0001857  |   0.0 |  3.52
Output  | 0          | 0          | 0          |   0.0 |  0.00
Modify  | 0          | 0          | 0          |   0.0 |  0.00
Other   |            | 0.0009789  |            |       | 18.57

Nlocal:            100 ave         100 max         100 min
Histogram: 1 0 0 0 0 0 0 0 0 0
Nghost:             20 ave          20 max          20 min
Histogram: 1 0 0 0 0 0 0 0 0 0
Neighs:              0 ave           0 max           0 min
Histogram: 1 0 0 0 0 0 0 0 0 0

Total # of neighbors = 0
Ave neighs/atom = 0
Ave special neighs/atom = 1.98
Neighbor list builds = 17
Dangerous builds = 0

fix             nvtSoft all nvt temp ${Temp} ${Temp} 0.5
fix             nvtSoft all nvt temp 1 ${Temp} 0.5
fix             nvtSoft all nvt temp 1 1 0.5
run             100000
Generated 0 of 6 mixed pair_coeff terms from geometric mixing rule
WARNING: Communication cutoff 1.3 is shorter than a bond length based estimate of 1.7550000000000001. This may lead to errors. (src/comm.cpp:727)
Per MPI rank memory allocation (min/avg/max) = 7.221 | 7.221 | 7.221 Mbytes
   Step          Temp         Density         Press          TotEng         PotEng         KinEng         E_pair         S/CPU     
       362   1              0.0023323615   0.0023090379   21.485548      20.000548      1.485          0              0            
      1000   0.90989032     0.0023323615  -0.0021940042   21.776974      20.425787      1.3511871      0.00036425437  78386.313    
      2000   0.86546688     0.0023323615   0.0034714157   21.677128      20.39191       1.2852183      0.0025814786   75160.567    
      3000   0.98199538     0.0023323615   0.0028144228   21.866132      20.407869      1.4582631      0.0011756043   73860.824    
      4000   1.004495       0.0023323615  -0.0014058211   21.945624      20.453949      1.4916751      0.011986179    71878.764    
      5000   1.1222705      0.0023323615   0.0044495116   21.986385      20.319813      1.6665718      0.0050317639   72928.603    
      6000   1.0538243      0.0023323615   0.0023957538   21.985713      20.420784      1.564929       0.012100514    73940.598    
      7000   1.0210598      0.0023323615  -0.00038820026  21.904665      20.388391      1.5162738      0              76837.515    
      8000   0.94819751     0.0023323615   0.0024943091   21.747889      20.339816      1.4080733      0              76840.296    
      9000   0.92364502     0.0023323615   0.0020053029   21.724166      20.352554      1.3716129      1.7780894e-05  75915.44     
     10000   0.86685188     0.0023323615   0.00078277366  21.644879      20.357604      1.287275       0.0098636418   76220.773    
     11000   1.0057103      0.0023323615   0.00010113276  21.8558        20.362321      1.4934798      0.020705341    75737.958    
     12000   0.97901664     0.0023323615  -0.0026996968   21.871206      20.417366      1.4538397      0.0052928539   75462.876    
     13000   0.97718436     0.0023323615  -6.1641422e-06  21.963706      20.512587      1.4511188      0.025022446    73843.665    
     14000   1.0530014      0.0023323615  -0.0009993112   21.947994      20.384287      1.5637071      0.0020860456   74875.946    
     15000   0.99094527     0.0023323615   0.0011068478   21.895146      20.423592      1.4715537      0.0015091113   75649.844    
     16000   0.91285091     0.0023323615  -0.00025424173  21.87524       20.519657      1.3555836      0.0047853639   75338.25     
     17000   0.82806978     0.0023323615  -0.00054698156  21.701984      20.472301      1.2296836      0              75650.187    
     18000   1.043278       0.0023323615  -6.6143919e-05  22.003299      20.454031      1.5492679      0.0034319132   76546.539    
     19000   1.0879249      0.0023323615  -0.0017804642   21.998985      20.383416      1.6155685      0.015376175    75211.138    
     20000   1.1144506      0.0023323615   0.0025198298   22.190904      20.535944      1.6549592      0              76076.353    
     21000   1.0427751      0.0023323615   0.0011345349   22.099492      20.550971      1.548521       0.00040047813  74149.003    
     22000   1.0586695      0.0023323615   0.0017882747   22.05673       20.484606      1.5721242      0              76302.229    
     23000   1.0058426      0.0023323615  -0.0055245362   21.954628      20.460951      1.4936763      0.0027619031   75358.325    
     24000   0.98273442     0.0023323615   0.0015147357   21.862067      20.402707      1.4593606      0              75695.97     
     25000   0.95835343     0.0023323615   0.0017808774   21.937761      20.514606      1.4231548      0.00020839942  75556.447    
     26000   0.93993778     0.0023323615  -0.0021777292   21.884849      20.489042      1.3958076      0.0088889834   76161.451    
     27000   0.9308188      0.0023323615  -0.00011239942  21.842252      20.459986      1.3822659      0.021612409    75309.995    
     28000   1.0149581      0.0023323615   0.0041996387   21.906846      20.399633      1.5072129      0.0064059022   75863.854    
     29000   0.92841138     0.0023323615  -2.5398808e-05  21.987185      20.608494      1.3786909      0.0046112484   73638.006    
     30000   1.021043       0.0023323615   0.001589158    22.097958      20.581709      1.5162489      0.016799508    72476.578    
     31000   1.0465985      0.0023323615  -0.0021744286   22.037917      20.483718      1.5541987      0.0057879149   75897.889    
     32000   0.98907108     0.0023323615  -0.0015558606   22.044089      20.575318      1.4687705      0.009448173    75323.07     
     33000   1.0918536      0.0023323615  -0.0025643847   22.039275      20.417873      1.6214025      0              74489.544    
     34000   0.99801543     0.0023323615   0.0016279766   21.932339      20.450286      1.4820529      0.017384617    77199.499    
     35000   1.0352271      0.0023323615  -0.0052971711   22.076004      20.538692      1.5373122      0.00010473809  75650.988    
     36000   1.1141579      0.0023323615  -0.00093279925  22.222491      20.567966      1.6545245      0.00033678641  76488.82     
     37000   1.0369415      0.0023323615   0.00013065175  22.217841      20.677983      1.5398581      0.013788831    73344.401    
     38000   1.0515596      0.0023323615   0.0021717558   22.070766      20.5092        1.561566       0.0067894678   76502.068    
     39000   1.0238495      0.0023323615   0.00026414509  22.040141      20.519725      1.5204165      0.00044464649  75433.162    
     40000   1.0749111      0.0023323615  -0.0026849368   22.039327      20.443084      1.596243       0.012651334    73830.941    
     41000   0.99070886     0.0023323615  -0.0030385564   22.03241       20.561207      1.4712027      0.00092855646  76970.242    
     42000   0.95315224     0.0023323615   0.0019788197   21.965263      20.549832      1.4154311      0.020233689    75521.172    
     43000   1.0644183      0.0023323615  -0.0011168725   22.287172      20.706511      1.5806611      0.039694129    75524.885    
     44000   1.0253747      0.0023323615  -0.006676522    22.066233      20.543552      1.5226814      0              72789.157    
     45000   0.94179556     0.0023323615  -0.0047206018   21.970644      20.572077      1.3985664      0.019869988    75217.378    
     46000   1.0083495      0.0023323615  -0.0017646918   21.972114      20.474715      1.497399       0.00026040605  75333.017    
     47000   0.98767959     0.0023323615  -0.00080218158  22.091674      20.62497       1.4667042      0.024266258    75205.018    
     48000   1.1473449      0.0023323615  -0.0025885687   22.080512      20.376705      1.7038072      0.00065962995  75417.887    
     49000   1.0679312      0.0023323615   0.0017688272   21.970482      20.384604      1.5858779      0.014142422    76333.862    
     50000   0.9581935      0.0023323615   0.0014398836   21.955202      20.532284      1.4229173      0.0055011948   76023.849    
     51000   1.0215759      0.0023323615  -0.00093292688  21.934681      20.41764       1.5170402      0              75645.031    
     52000   0.98079591     0.0023323615   0.0040701936   21.977374      20.520892      1.4564819      0.0020862422   75388.549    
     53000   1.0090927      0.0023323615   0.0013324753   22.095438      20.596935      1.4985027      0              74717.77     
     54000   0.97519627     0.0023323615   0.0013260734   22.070151      20.621984      1.4481665      0.026885444    76483.427    
     55000   1.1805087      0.0023323615  -0.001586238    22.424088      20.671033      1.7530554      0.024690954    76183.888    
     56000   0.98387121     0.0023323615   0.0037155145   22.104425      20.643376      1.4610487      0.01435493     76067.655    
     57000   1.0723812      0.0023323615  -0.0037916262   22.122726      20.53024       1.592486       0.013635549    76225.607    
     58000   1.0152349      0.0023323615   0.00021908047  22.082827      20.575203      1.5076238      0.00077375639  76043.893    
     59000   1.1424502      0.0023323615  -0.0052108657   22.30072       20.604182      1.6965385      0.013308184    77101.407    
     60000   1.0359703      0.0023323615  -0.00097887545  22.188218      20.649802      1.538416       0.00011346294  74465.309    
     61000   1.1646839      0.0023323615  -0.002085017    22.239945      20.51039       1.7295556      0.012918477    77774.274    
     62000   1.101836       0.0023323615   0.0010338878   22.171386      20.53516       1.6362265      0.001396566    76321.482    
     63000   0.96616435     0.0023323615   0.00097550571  21.903821      20.469067      1.4347541      0.013027663    77798.278    
     64000   1.0068907      0.0023323615  -0.0020278726   22.061652      20.566419      1.4952327      0.013750276    76123.986    
     65000   0.98723233     0.0023323615   0.0022441476   22.031073      20.565033      1.46604        0.0066686189   76713.737    
     66000   1.0273881      0.0023323615  -0.0003515278   22.183579      20.657908      1.5256713      0              74761.705    
     67000   0.96528212     0.0023323615  -0.00014822656  21.9396        20.506156      1.4334439      0.010365557    76801.394    
     68000   1.069702       0.0023323615   9.4754668e-05  22.081119      20.492611      1.5885075      0.00049153926  74094.398    
     69000   1.1229502      0.0023323615   0.0011504079   22.200329      20.532748      1.6675811      0.0068454249   76904.354    
     70000   1.0062775      0.0023323615  -0.00085311964  22.094021      20.599699      1.4943221      0.013222355    75089.151    
     71000   1.0906935      0.0023323615   0.00015260357  22.145362      20.525682      1.6196798      0.018338513    75910.184    
     72000   1.010401       0.0023323615  -6.0487182e-06  22.154105      20.653659      1.5004455      0.0013793953   73781.549    
     73000   1.1177599      0.0023323615  -0.0034084797   22.254435      20.594562      1.6598735      0.00011231735  77440.403    
     74000   0.9768019      0.0023323615   0.00016143893  22.07312       20.622569      1.4505508      0.0084515956   75419.934    
     75000   1.1360996      0.0023323615   0.002159116    22.161595      20.474487      1.6871079      0.0089909162   76013.372    
     76000   0.97379329     0.0023323615  -0.00068458621  21.988928      20.542845      1.446083       0              75599.424    
     77000   0.94876793     0.0023323615  -0.0016073976   21.923496      20.514575      1.4089204      0.017745108    75450.213    
     78000   0.83947996     0.0023323615  -0.00062768559  21.726727      20.480099      1.2466277      0.0054510099   75080.171    
     79000   1.0090614      0.0023323615  -0.00080262643  22.068192      20.569736      1.4984562      0.00023011166  75122.608    
     80000   1.1217643      0.0023323615  -0.0038177864   22.367902      20.702082      1.66582        0.032902439    76110.984    
     81000   1.0240158      0.0023323615   0.00023547123  22.031597      20.510933      1.5206635      0.0068767308   75755.607    
     82000   1.003236       0.0023323615  -0.0022802982   21.894199      20.404393      1.4898055      0.019136282    74728.457    
     83000   1.0554159      0.0023323615   0.004011718    22.104562      20.537269      1.5672927      0.0080869707   72084.639    
     84000   0.83527346     0.0023323615  -0.0034122221   21.874648      20.634267      1.2403811      0.0030083664   75818.558    
     85000   1.036002       0.0023323615   0.0013573923   21.962923      20.42446       1.5384629      0.015709144    76532.684    
     86000   0.9432002      0.0023323615  -0.0032183248   21.913588      20.512936      1.4006523      0.013730309    76343.495    
     87000   0.95566008     0.0023323615  -0.00049614223  21.91653       20.497375      1.4191552      0.0035862035   75501.403    
     88000   0.93373351     0.0023323615  -0.00097093893  21.870485      20.483891      1.3865943      0.0018212145   75314.26     
     89000   0.9684944      0.0023323615  -0.00047342045  21.973429      20.535215      1.4382142      0.00087524744  75267.403    
     90000   0.98293324     0.0023323615  -0.0032204602   22.050919      20.591263      1.4596559      0.015353933    76695.521    
     91000   1.0832827      0.0023323615   0.0048517083   22.11977       20.511095      1.6086749      0.0052867789   76403.276    
     92000   0.85899662     0.0023323615  -0.0013049519   21.765697      20.490087      1.27561        0.0024124001   75949.284    
     93000   0.96176266     0.0023323615  -4.4223672e-05  21.874222      20.446004      1.4282176      0.0045653365   77116.955    
     94000   0.96019503     0.0023323615   0.00024459347  21.944954      20.519064      1.4258896      3.8053462e-05  76637.402    
     95000   0.94702149     0.0023323615  -0.0033658915   21.86315       20.456823      1.4063269      0              77271.996    
     96000   0.91119348     0.0023323615  -0.0013197298   21.825018      20.471896      1.3531223      0.00043282989  75863.503    
     97000   1.0016687      0.0023323615  -0.0019514304   22.013024      20.525546      1.487478       0.0048369955   75383.087    
     98000   1.02143        0.0023323615  -0.0057874974   22.177965      20.661142      1.5168235      0              74484.65     
     99000   1.032786       0.0023323615   0.0018228259   21.975336      20.441649      1.5336871      7.1595851e-05  77503.657    
    100000   1.0594928      0.0023323615   0.0036169719   22.011024      20.437677      1.5733468      0.00032948157  75898.696    
    100362   1.1904942      0.0023323615  -0.00089755607  22.316856      20.548972      1.7678839      0.00063845255  75384.11     
Loop time of 1.32353 on 1 procs for 100000 steps with 100 atoms

Performance: 32639978.342 tau/day, 75555.505 timesteps/s
99.2% CPU use with 1 MPI tasks x 1 OpenMP threads

MPI task timing breakdown:
Section |  min time  |  avg time  |  max time  |%varavg| %total
---------------------------------------------------------------
Pair    | 0.049381   | 0.049381   | 0.049381   |   0.0 |  3.73
Bond    | 0.12867    | 0.12867    | 0.12867    |   0.0 |  9.72
Neigh   | 0.80598    | 0.80598    | 0.80598    |   0.0 | 60.90
Comm    | 0.055619   | 0.055619   | 0.055619   |   0.0 |  4.20
Output  | 0.0013647  | 0.0013647  | 0.0013647  |   0.0 |  0.10
Modify  | 0.24847    | 0.24847    | 0.24847    |   0.0 | 18.77
Other   |            | 0.03406    |            |       |  2.57

Nlocal:            100 ave         100 max         100 min
Histogram: 1 0 0 0 0 0 0 0 0 0
Nghost:             60 ave          60 max          60 min
Histogram: 1 0 0 0 0 0 0 0 0 0
Neighs:             36 ave          36 max          36 min
Histogram: 1 0 0 0 0 0 0 0 0 0

Total # of neighbors = 36
Ave neighs/atom = 0.36
Ave special neighs/atom = 1.98
Neighbor list builds = 9821
Dangerous builds = 8265
unfix           nvtSoft
unfix           rampSoft
reset_timestep  0

write_data      ${outputfile_relaxed}
write_data      5_relaxed.data
System init for write_data ...
Generated 0 of 6 mixed pair_coeff terms from geometric mixing rule
WARNING: Communication cutoff 1.3 is shorter than a bond length based estimate of 1.7550000000000001. This may lead to errors. (src/comm.cpp:727)
WARNING: Not all mixed pair coeffs generated from mixing. Use write_data with 'pair ij' option to store all pair coeffs. (src/write_data.cpp:309)

###########################################################################
# Full LJ with Coulomb
######################################################################

# Cutoffs and parameters:
# - Values: Marcel Verkade's Bachelor Thesis
# - Mapping to atom groups: Patrick Onck's paper
# - 1: aliphatic, 2: aromatic, 3: anion, 4: cation
# pair_style	lj/cut/coul/cut <lj_cut_global> <coul_cut_global>
# pair_coeff	<type_1>  <type_2>  <eps>  <sigma>  <r_cut_lj>  <r_cut_coul>

# Problem: Onck's model is much more complex, and Marcel has no sigma reported
# Using sigma=1 randomly

variable		glob_ljeps equal 1.0
variable		glob_ljsig 	equal 1.0
variable		glob_coulcut equal 10.0
variable		att_ljcut equal 2.50
variable		rep_ljcut equal 1.12

pair_style		lj/cut/coul/cut 						${att_ljcut} 	${glob_coulcut}
pair_style		lj/cut/coul/cut 						2.5 	${glob_coulcut}
pair_style		lj/cut/coul/cut 						2.5 	10
pair_coeff		1 1 	${glob_ljeps} 	${glob_ljsig}	${att_ljcut} 	${glob_coulcut}
pair_coeff		1 1 	1 	${glob_ljsig}	${att_ljcut} 	${glob_coulcut}
pair_coeff		1 1 	1 	1	${att_ljcut} 	${glob_coulcut}
pair_coeff		1 1 	1 	1	2.5 	${glob_coulcut}
pair_coeff		1 1 	1 	1	2.5 	10
pair_coeff		1 2 	${glob_ljeps} 	${glob_ljsig}	${att_ljcut} 	${glob_coulcut}
pair_coeff		1 2 	1 	${glob_ljsig}	${att_ljcut} 	${glob_coulcut}
pair_coeff		1 2 	1 	1	${att_ljcut} 	${glob_coulcut}
pair_coeff		1 2 	1 	1	2.5 	${glob_coulcut}
pair_coeff		1 2 	1 	1	2.5 	10
pair_coeff		1 3 	${glob_ljeps} 	${glob_ljsig}	${rep_ljcut} 	${glob_coulcut}
pair_coeff		1 3 	1 	${glob_ljsig}	${rep_ljcut} 	${glob_coulcut}
pair_coeff		1 3 	1 	1	${rep_ljcut} 	${glob_coulcut}
pair_coeff		1 3 	1 	1	1.12 	${glob_coulcut}
pair_coeff		1 3 	1 	1	1.12 	10
pair_coeff		1 4 	${glob_ljeps} 	${glob_ljsig}	${rep_ljcut} 	${glob_coulcut}
pair_coeff		1 4 	1 	${glob_ljsig}	${rep_ljcut} 	${glob_coulcut}
pair_coeff		1 4 	1 	1	${rep_ljcut} 	${glob_coulcut}
pair_coeff		1 4 	1 	1	1.12 	${glob_coulcut}
pair_coeff		1 4 	1 	1	1.12 	10
pair_coeff		2 2 	${glob_ljeps} 	${glob_ljsig}	${att_ljcut} 	${glob_coulcut}
pair_coeff		2 2 	1 	${glob_ljsig}	${att_ljcut} 	${glob_coulcut}
pair_coeff		2 2 	1 	1	${att_ljcut} 	${glob_coulcut}
pair_coeff		2 2 	1 	1	2.5 	${glob_coulcut}
pair_coeff		2 2 	1 	1	2.5 	10
pair_coeff		2 3 	${glob_ljeps} 	${glob_ljsig}	${rep_ljcut} 	${glob_coulcut}
pair_coeff		2 3 	1 	${glob_ljsig}	${rep_ljcut} 	${glob_coulcut}
pair_coeff		2 3 	1 	1	${rep_ljcut} 	${glob_coulcut}
pair_coeff		2 3 	1 	1	1.12 	${glob_coulcut}
pair_coeff		2 3 	1 	1	1.12 	10
pair_coeff		2 4 	${glob_ljeps} 	${glob_ljsig}	${att_ljcut} 	${glob_coulcut}
pair_coeff		2 4 	1 	${glob_ljsig}	${att_ljcut} 	${glob_coulcut}
pair_coeff		2 4 	1 	1	${att_ljcut} 	${glob_coulcut}
pair_coeff		2 4 	1 	1	2.5 	${glob_coulcut}
pair_coeff		2 4 	1 	1	2.5 	10
pair_coeff		3 3 	${glob_ljeps} 	${glob_ljsig}	${rep_ljcut} 	${glob_coulcut}
pair_coeff		3 3 	1 	${glob_ljsig}	${rep_ljcut} 	${glob_coulcut}
pair_coeff		3 3 	1 	1	${rep_ljcut} 	${glob_coulcut}
pair_coeff		3 3 	1 	1	1.12 	${glob_coulcut}
pair_coeff		3 3 	1 	1	1.12 	10
pair_coeff		3 4 	${glob_ljeps} 	${glob_ljsig}	${att_ljcut} 	${glob_coulcut}
pair_coeff		3 4 	1 	${glob_ljsig}	${att_ljcut} 	${glob_coulcut}
pair_coeff		3 4 	1 	1	${att_ljcut} 	${glob_coulcut}
pair_coeff		3 4 	1 	1	2.5 	${glob_coulcut}
pair_coeff		3 4 	1 	1	2.5 	10
pair_coeff		4 4 	${glob_ljeps} 	${glob_ljsig}	${rep_ljcut} 	${glob_coulcut}
pair_coeff		4 4 	1 	${glob_ljsig}	${rep_ljcut} 	${glob_coulcut}
pair_coeff		4 4 	1 	1	${rep_ljcut} 	${glob_coulcut}
pair_coeff		4 4 	1 	1	1.12 	${glob_coulcut}
pair_coeff		4 4 	1 	1	1.12 	10


fix             noDriftRot 	all momentum 10 linear 1 1 1 angular
fix             nvt1 		all nvt temp ${Temp} ${Temp} 0.5
fix             nvt1 		all nvt temp 1 ${Temp} 0.5
fix             nvt1 		all nvt temp 1 1 0.5

# dump          assemble 	all custom 1000 				${outputfile_selfasb} id type xu yu zu vx vy vz
dump            lindump 	all custom ${subsample_rate} 	${outputfile_trajlin} id type xu yu zu vx vy vz
dump            lindump 	all custom 1000 	${outputfile_trajlin} id type xu yu zu vx vy vz
dump            lindump 	all custom 1000 	6_b_trajlin.data id type xu yu zu vx vy vz

run             ${runtime}
run             1000000
Generated 0 of 6 mixed pair_coeff terms from geometric mixing rule
Neighbor list info ...
  update every 1 steps, delay 10 steps, check yes
  max neighbors/atom: 2000, page size: 100000
  master list distance cutoff = 10.3
  ghost atom cutoff = 10.3
  binsize = 5.15, bins = 7 7 7
  1 neighbor lists, perpetual/occasional/extra = 1 0 0
  (1) pair lj/cut/coul/cut, perpetual
      attributes: half, newton on
      pair build: half/bin/newton
      stencil: half/bin/3d
      bin: standard
Per MPI rank memory allocation (min/avg/max) = 7.712 | 7.712 | 7.712 Mbytes
   Step          Temp         Density         Press          TotEng         PotEng         KinEng         E_pair         S/CPU     
         0   1.1904942      0.0023323615  -0.0015622936   21.934269      20.166385      1.7678839     -0.38194929     0            
      1000   1.0527362      0.0023323615  -0.001290457    21.028216      19.464902      1.5633132     -0.89689995     33003.78     
      2000   0.8690802      0.0023323615  -0.0018406995   20.42392       19.133336      1.2905841     -1.1862399      30807.754    
      3000   1.0451343      0.0023323615  -0.0026278918   20.862048      19.310023      1.5520244     -1.2720784      26536.987    
      4000   0.79541071     0.0023323615   0.0023165012   20.110345      18.92916       1.1811849     -1.6098291      20507.188    
      5000   1.0340838      0.0023323615   0.0043070934   20.430207      18.894593      1.5356145     -1.5341651      18446.372    
      6000   1.0122465      0.0023323615  -0.0027859163   20.012341      18.509155      1.503186      -1.9460661      18089.99     
      7000   0.95888793     0.0023323615  -0.0038312166   20.240384      18.816435      1.4239486     -1.8179361      18009.675    
      8000   0.96745401     0.0023323615   0.0036365786   20.295796      18.859127      1.4366692     -1.6889155      18132.472    
      9000   1.2028988      0.0023323615   0.0026566668   20.704762      18.918457      1.7863047     -1.6318992      18131.837    
     10000   1.1438466      0.0023323615  -0.0024229545   20.670194      18.971581      1.6986123     -1.5601883      18169.749    
     11000   0.95373918     0.0023323615   0.0052960212   20.276485      18.860183      1.4163027     -1.8047233      18036.354    
     12000   1.0422939      0.0023323615  -0.0012816226   19.927403      18.379597      1.5478064     -2.0657644      18030.535    
     13000   1.0146117      0.0023323615  -0.0024097324   20.108022      18.601324      1.5066984     -1.8412339      18140.491    
     14000   0.87628077     0.0023323615   0.0086389549   19.80164       18.500363      1.3012769     -2.0373134      18037.864    
     15000   0.98825566     0.0023323615  -0.0014640846   19.934637      18.467078      1.4675597     -2.0651725      17969.584    
     16000   0.85225577     0.0023323615   0.0033892324   20.08678       18.82118       1.2655998     -1.7066575      18183.84     
     17000   0.87287722     0.0023323615   0.0013757638   19.893274      18.597051      1.2962227     -1.9732619      18178.366    
     18000   0.9382467      0.0023323615   0.0021112291   20.209441      18.816145      1.3932963     -1.8885057      18136.202    
     19000   1.094375       0.0023323615  -0.0015028143   20.067619      18.442472      1.6251469     -1.9528444      18242.828    
     20000   1.1280513      0.0023323615  -0.00029146189  20.378758      18.703602      1.6751561     -1.8072331      18229.408    
     21000   0.92396748     0.0023323615   0.0017853885   20.14302       18.770928      1.3720917     -1.7316265      18255.961    
     22000   0.97000703     0.0023323615   0.00031479706  20.297734      18.857274      1.4404604     -1.7820214      18148.275    
     23000   1.0351493      0.0023323615   0.0039276577   20.000571      18.463374      1.5371967     -2.0263556      15270.219    
     24000   0.9283056      0.0023323615  -0.00084725794  19.960306      18.581772      1.3785338     -1.9536727      18076.401    
     25000   0.90401459     0.0023323615  -0.0016246019   19.899882      18.557421      1.3424617     -1.9623053      17994.882    
     26000   1.0134908      0.0023323615   0.0023548507   20.216772      18.711738      1.5050338     -1.8713745      18040.834    
     27000   0.93420559     0.0023323615   0.00055509882  19.790495      18.4032        1.3872953     -2.0411691      18037.313    
     28000   1.0838276      0.0023323615  -0.0012061547   20.234939      18.625455      1.6094839     -1.9326677      18104.736    
     29000   1.0267016      0.0023323615  -0.003910302    20.414939      18.890287      1.5246519     -1.7054993      18037.844    
     30000   0.99763462     0.0023323615  -0.0013492737   20.081249      18.599761      1.4814874     -1.8654148      18045.733    
     31000   0.82213737     0.0023323615   0.0005584156   19.885914      18.66504       1.220874      -1.7722827      18164.448    
     32000   1.0602587      0.0023323615  -0.0033598798   20.364384      18.7899        1.5744841     -1.6627126      18277.617    
     33000   0.88724301     0.0023323615  -0.00063181486  20.163441      18.845885      1.3175559     -1.610544       18229.254    
     34000   0.89144886     0.0023323615  -0.0018042746   20.112918      18.789117      1.3238016     -1.6830668      18323.61     
     35000   1.0800246      0.0023323615   0.0032247396   20.59397       18.990133      1.6038365     -1.6070356      18138.974    
     36000   0.83837456     0.0023323615  -0.001274756    19.983481      18.738494      1.2449862     -1.6632709      18222.991    
     37000   1.0216021      0.0023323615   0.0027276647   20.417532      18.900453      1.5170791     -1.5743713      18221.128    
     38000   0.97303287     0.0023323615  -0.0025777893   20.156247      18.711293      1.4449538     -1.9135105      18069.728    
     39000   0.88877402     0.0023323615  -0.0030827119   20.326249      19.006419      1.3198294     -1.4660332      18167.166    
     40000   1.0393907      0.0023323615   0.00010622073  20.0301        18.486605      1.5434952     -2.031964       18011.531    
     41000   0.89228744     0.0023323615  -0.0017739634   19.971208      18.646161      1.3250469     -1.8364451      17987.66     
     42000   1.2196288      0.0023323615   0.0020749933   20.490955      18.679806      1.8111487     -1.8641356      17880.038    
     43000   1.003932       0.0023323615   0.0014052311   20.207849      18.71701       1.490839      -1.8420677      18012.175    
     44000   1.2302271      0.0023323615  -0.0018145917   20.575657      18.74877       1.8268872     -1.810369       18089.072    
     45000   1.0016176      0.0023323615  -0.001015121    20.315036      18.827634      1.4874022     -1.7181248      18001.172    
     46000   1.0505326      0.0023323615   0.0021532587   20.168451      18.60841       1.5600409     -1.8838513      18089.879    
     47000   1.0180278      0.0023323615   0.0012165644   20.117726      18.605955      1.5117713     -1.9552751      18124.386    
     48000   1.0571432      0.0023323615   0.0035184281   20.121493      18.551636      1.5698577     -1.9200971      18043.743    
     49000   1.0784764      0.0023323615  -0.00072724704  20.061825      18.460288      1.6015375     -2.0916153      18099.014    
     50000   0.9588009      0.0023323615   6.5866459e-05  20.085181      18.661361      1.4238193     -1.8293599      18058.427    
     51000   0.98366305     0.0023323615   0.00030603953  20.008414      18.547674      1.4607396     -1.9708729      18087.509    
     52000   1.0080804      0.0023323615   0.0021712075   20.271017      18.774018      1.4969993     -1.6435506      18094.808    
     53000   0.90084048     0.0023323615  -0.0025403609   20.034702      18.696954      1.3377481     -1.8512015      18072.912    
     54000   0.97185571     0.0023323615  -0.0014277729   19.742639      18.299434      1.4432057     -2.1502301      17915.864    
     55000   1.0417634      0.0023323615   0.00070415555  20.286431      18.739413      1.5470186     -1.8358574      18092.853    
     56000   1.0312821      0.0023323615  -0.0022799545   20.42191       18.890457      1.5314539     -1.5837946      18160.66     
     57000   1.0884924      0.0023323615   0.0023339324   20.192257      18.575846      1.6164113     -1.9636223      18104.723    
     58000   0.92547167     0.0023323615   0.0047764247   20.141983      18.767658      1.3743254     -1.7220106      18171.005    
     59000   1.1812214      0.0023323615  -0.0028870252   20.234473      18.480359      1.7541138     -1.9122509      18302.354    
     60000   0.95410481     0.0023323615   0.0022173292   20.583406      19.16656       1.4168456     -1.3280559      18280.352    
     61000   1.1094485      0.0023323615  -0.00037239333  19.970752      18.323221      1.647531      -2.071196       18236.609    
     62000   0.91060561     0.0023323615  -0.0012220595   20.196774      18.844525      1.3522493     -1.7416595      18306.611    
     63000   1.1097343      0.0023323615   0.0055031054   20.308686      18.660731      1.6479555     -1.8442978      18128.389    
     64000   1.1730846      0.0023323615  -0.0019248507   20.105721      18.363691      1.7420306     -2.0756191      18018.339    
     65000   0.94147962     0.0023323615  -0.0029862001   20.249632      18.851534      1.3980972     -1.588362       17951.463    
     66000   1.0246406      0.0023323615  -0.003364418    20.197302      18.675711      1.5215913     -1.8598769      18175.079    
     67000   1.0168804      0.0023323615   0.0019447909   20.054807      18.544739      1.5100674     -2.009779       17977.951    
     68000   0.97901169     0.0023323615  -0.0011236658   19.844744      18.390912      1.4538324     -1.9344886      18169.808    
     69000   1.0491621      0.0023323615   0.0012758402   20.295725      18.737719      1.5580058     -1.6898771      18085.506    
     70000   1.1105314      0.0023323615   0.0041773868   20.245134      18.595995      1.6491392     -1.8434774      18174.274    
     71000   0.86135456     0.0023323615   0.0013319417   20.051567      18.772455      1.2791115     -1.8201652      18049.972    
     72000   1.1040848      0.0023323615  -0.0016356267   20.250913      18.611347      1.6395659     -1.9268219      18081.028    
     73000   1.1051867      0.0023323615   0.00013314085  20.311434      18.670232      1.6412022     -1.7651806      18290.512    
     74000   0.9827235      0.0023323615   0.0012738756   20.324373      18.865029      1.4593444     -1.7579677      18431.858    
     75000   0.97479706     0.0023323615  -0.0046011598   20.181777      18.734203      1.4475736     -1.8241906      18194.639    
     76000   1.2244734      0.0023323615  -0.00195347     20.630052      18.811709      1.8183429     -1.8029135      18129.449    
     77000   1.063752       0.0023323615  -1.7897845e-05  20.262697      18.683025      1.5796718     -1.7648973      18314.498    
     78000   1.1773117      0.0023323615  -0.0023996699   20.315355      18.567047      1.7483079     -1.8942183      18160.37     
     79000   1.0477316      0.0023323615  -0.00032548116  20.574124      19.018243      1.5558815     -1.6652743      18248.965    
     80000   1.1490167      0.0023323615   0.0021922479   20.623722      18.917432      1.7062899     -1.6697868      18118.911    
     81000   0.93061307     0.0023323615   0.0019482593   20.134583      18.752622      1.3819604     -1.7393163      18098.42     
     82000   1.0657422      0.0023323615   0.00021825031  20.459165      18.876538      1.5826272     -1.7132723      18098.532    
     83000   0.97820653     0.0023323615  -0.00050050356  20.22777       18.775133      1.4526367     -1.7595055      18157.631    
     84000   1.1152737      0.0023323615  -0.0049105393   20.521625      18.865443      1.6561814     -1.6989494      18169.216    
     85000   1.1999125      0.0023323615   0.0034441874   20.506314      18.724444      1.7818701     -1.8446561      18270.742    
     86000   1.0862935      0.0023323615  -0.0014417736   20.074682      18.461536      1.6131458     -2.0263505      18295.591    
     87000   0.97118964     0.0023323615  -0.0016687753   20.075518      18.633301      1.4422166     -1.8017456      18203.711    
     88000   1.0032637      0.0023323615  -0.00019905683  20.099655      18.609808      1.4898466     -1.8771946      18224.528    
     89000   1.0236127      0.0023323615  -0.0023871651   20.159985      18.63992       1.5200649     -1.8967773      18112.385    
     90000   0.90797198     0.0023323615   0.0013759346   20.146279      18.79794       1.3483384     -1.7198404      18280.402    
     91000   1.0691639      0.0023323615  -0.0031454687   20.459525      18.871817      1.5877083     -1.5851651      18331.151    
     92000   1.0064794      0.0023323615  -0.0020949795   20.395787      18.901165      1.4946219     -1.7297056      18362.889    
     93000   1.0300563      0.0023323615  -0.00048765089  20.224391      18.694757      1.5296336     -1.8233469      18317.143    
     94000   0.969708       0.0023323615  -0.00089429382  20.020187      18.580171      1.4400164     -1.9180519      18086.214    
     95000   1.0017284      0.0023323615   0.0020471422   20.06658       18.579013      1.4875667     -1.9114275      18289.65     
     96000   0.85088782     0.0023323615   0.0034366569   20.202463      18.938895      1.2635684     -1.5987407      18240.081    
     97000   0.94239062     0.0023323615  -0.00049766877  20.035454      18.636004      1.3994501     -1.7901166      18247.664    
     98000   0.86172137     0.0023323615   0.0010570201   19.996551      18.716894      1.2796562     -1.8340891      18069.493    
     99000   0.96825736     0.0023323615   0.00024597661  19.890444      18.452582      1.4378622     -2.0289505      18037.857    
    100000   0.96304689     0.0023323615   0.0041250447   20.187531      18.757407      1.4301246     -1.7937848      18155.844    
    101000   1.0993534      0.0023323615   0.001096063    20.223724      18.591184      1.6325399     -1.9315174      18046.822    
    102000   1.0538097      0.0023323615  -0.0017694755   20.057977      18.493069      1.5649074     -2.0101534      18144.279    
    103000   1.0184873      0.0023323615  -0.00090972462  20.010497      18.498044      1.5124536     -1.9932853      18096.954    
    104000   1.0455943      0.0023323615  -0.0018590626   20.372107      18.819399      1.5527075     -1.7545065      18124.08     
    105000   1.1721429      0.0023323615  -0.00022969396  20.5473        18.806667      1.7406322     -1.8758366      17948.719    
    106000   0.99165916     0.0023323615  -0.00080646108  20.008911      18.536297      1.4726138     -1.8616234      18128.017    
    107000   1.0205856      0.0023323615  -0.0021460026   20.203926      18.688357      1.5155696     -1.873472       18014.154    
    108000   0.92388976     0.0023323615  -0.0016898117   20.002882      18.630906      1.3719763     -1.8246914      18169.557    
    109000   1.1831367      0.0023323615  -0.0017024779   20.396669      18.639711      1.756958      -1.8765014      18160.128    
    110000   0.9934632      0.0023323615   0.0010457652   20.386776      18.911484      1.4752928     -1.68935        18214.178    
    111000   0.9710427      0.0023323615   0.0036780596   19.958421      18.516423      1.4419984     -2.0554953      18128.083    
    112000   1.0759158      0.0023323615   0.0019915574   20.259587      18.661852      1.5977349     -1.8377743      18137.046    
    113000   1.0501715      0.0023323615  -0.0013896064   20.464161      18.904656      1.5595047     -1.5808086      18208.543    
    114000   1.126588       0.0023323615  -0.0042388623   20.405692      18.732709      1.6729832     -1.8154286      18094.277    
    115000   0.93055704     0.0023323615  -0.0027969188   20.148854      18.766976      1.3818772     -1.8069943      18144.662    
    116000   0.90206812     0.0023323615   0.003716313    20.111451      18.77188       1.3395712     -1.7542391      18199.652    
    117000   1.0285528      0.0023323615  -0.0015771549   20.100843      18.573442      1.5274009     -1.8640741      18212.972    
    118000   0.96404743     0.0023323615   0.0044424786   19.817638      18.386027      1.4316104     -2.0901483      18218.367    
    119000   1.12207        0.0023323615   0.0018415545   20.309068      18.642794      1.6662739     -1.9013245      18254.622    
    120000   1.1489214      0.0023323615   0.00031889976  20.442401      18.736253      1.7061482     -1.9540572      18218.683    
    121000   0.94575308     0.0023323615   0.0013612038   20.120451      18.716008      1.4044433     -1.7630398      18229.108    
    122000   0.97330841     0.0023323615   0.0024185756   20.213507      18.768144      1.445363      -1.8206856      18253.397    
    123000   0.95515614     0.0023323615  -0.0022525448   20.540573      19.122166      1.4184069     -1.4999808      18297.382    
    124000   1.0668375      0.0023323615   0.002334371    20.147214      18.56296       1.5842537     -1.8686092      18188.028    
    125000   0.94502334     0.0023323615  -0.0012022179   19.837795      18.434435      1.4033597     -2.0083019      18137.972    
    126000   0.80599381     0.0023323615  -0.0012229809   19.402043      18.205142      1.1969008     -2.1728623      18140.83     
    127000   0.92982299     0.0023323615   0.0018136321   20.080595      18.699808      1.3807871     -1.8611237      18292.875    
    128000   0.85537999     0.0023323615  -0.00085332694  19.832381      18.562141      1.2702393     -2.0082562      18121.458    
    129000   0.93728757     0.0023323615  -0.00029574463  20.035635      18.643763      1.391872      -1.9240388      18194.135    
    130000   0.83894026     0.0023323615  -0.0042512345   19.831245      18.585419      1.2458263     -1.9727776      18141.773    
    131000   0.92897771     0.0023323615  -0.0062585073   20.187726      18.808194      1.3795319     -1.6592295      18166.67     
    132000   1.1240744      0.0023323615   0.0038788233   20.29138       18.62213       1.6692505     -1.8444858      18058.084    
    133000   0.95651409     0.0023323615   0.0012409304   19.963828      18.543405      1.4204234     -1.9507434      18138.433    
    134000   0.97858412     0.0023323615  -0.0020892294   20.014763      18.561566      1.4531974     -1.8911379      18210.928    
    135000   0.90258806     0.0023323615  -0.0018820437   20.150903      18.81056       1.3403433     -1.6633572      18183.833    
    136000   1.0436047      0.0023323615   0.0010674913   20.189121      18.639368      1.549753      -1.8369723      18045.775    
    137000   0.95448676     0.0023323615  -0.0064498335   20.159785      18.742372      1.4174128     -1.8305066      18130.891    
    138000   0.88761077     0.0023323615  -0.0021984277   19.9477        18.629598      1.318102      -1.8845612      18284.652    
    139000   0.94942206     0.0023323615  -0.00017917946  19.954501      18.544609      1.4098918     -1.9377975      18451.603    
    140000   1.0183352      0.0023323615   0.00095532688  20.085653      18.573426      1.5122278     -1.8989434      18268.779    
    141000   1.0898232      0.0023323615  -0.0013281053   20.213703      18.595315      1.6183874     -1.8673218      18206.404    
    142000   0.95935131     0.0023323615  -0.0056044039   19.937832      18.513195      1.4246367     -1.8855868      18247.684    
    143000   0.98383801     0.0023323615  -0.0050908635   20.237872      18.776873      1.4609994     -1.7748915      18098.837    
    144000   0.97326353     0.0023323615   0.00096970915  20.233833      18.788536      1.4452963     -1.7884676      18094.831    
    145000   1.0873292      0.0023323615  -0.0021411502   20.396296      18.781612      1.6146839     -1.7884499      18004.578    
    146000   1.1625516      0.0023323615   0.0019710796   20.273703      18.547313      1.7263892     -1.8624819      17851.069    
    147000   0.94085185     0.0023323615  -0.0015080376   19.874277      18.477112      1.397165      -1.991668       17995.362    
    148000   0.98776803     0.0023323615   0.006485539    20.149668      18.682832      1.4668355     -1.829873       18031.522    
    149000   1.0568594      0.0023323615   0.0009962782   20.318657      18.749221      1.5694361     -1.851369       18047.482    
    150000   0.99243184     0.0023323615  -0.0015364038   20.022743      18.548982      1.4737613     -1.9863977      17918.543    
    151000   1.0213458      0.0023323615  -0.0022686866   20.091044      18.574345      1.5166985     -1.9646125      18048.017    
    152000   0.89193383     0.0023323615   0.0018260267   20.173333      18.848811      1.3245217     -1.770187       18346.097    
    153000   0.93853186     0.0023323615  -0.0024637496   20.393297      18.999578      1.3937198     -1.6321099      18537.859    
    154000   1.0485168      0.0023323615   0.0032013385   20.220821      18.663774      1.5570475     -1.9826235      18209.46     
    155000   0.8718552      0.0023323615   0.00017575169  20.033092      18.738387      1.294705      -1.8078955      18360.761    
    156000   1.0287381      0.0023323615   0.0015518908   20.28602       18.758343      1.5276761     -1.6355504      18457.537    
    157000   1.1206298      0.0023323615  -0.0032899526   20.440777      18.776642      1.6641352     -1.6361948      18226.368    
    158000   0.97880543     0.0023323615  -0.00050582255  20.240161      18.786635      1.4535261     -1.8095327      18168.587    
    159000   0.9791022      0.0023323615  -0.0005168126   20.028225      18.574258      1.4539668     -1.8050053      18191.999    
    160000   1.1139795      0.0023323615   0.0031973258   20.545899      18.891639      1.6542596     -1.6367769      18107.2      
    161000   0.91546463     0.0023323615   0.00085962363  20.147443      18.787978      1.359465      -1.6967387      18140.009    
    162000   1.1918638      0.0023323615  -0.0010675995   20.509807      18.739889      1.7699178     -1.8472255      18133.919    
    163000   1.006006       0.0023323615  -0.0022070135   20.133385      18.639466      1.4939189     -1.7328353      18101.706    
    164000   1.0555411      0.0023323615   0.003562331    20.416271      18.848793      1.5674786     -1.6426801      18185.957    
    165000   1.0301801      0.0023323615  -0.004031828    20.049524      18.519706      1.5298175     -1.9713417      18077.197    
    166000   1.0412715      0.0023323615   0.00055757121  20.082104      18.535816      1.5462882     -1.9470012      18131.557    
    167000   0.89712801     0.0023323615   0.0036758938   20.132369      18.800134      1.3322351     -1.7885633      18335.215    
    168000   1.1060214      0.0023323615   0.00253079     20.221524      18.579082      1.6424417     -1.8673722      18190.076    
    169000   0.89922675     0.0023323615  -0.0053762985   20.286394      18.951042      1.3353517     -1.6428351      18194.805    
    170000   0.99693271     0.0023323615  -0.0051143849   20.215162      18.734717      1.4804451     -1.8850764      18132.4      
    171000   0.9897868      0.0023323615   0.0011309639   19.972489      18.502656      1.4698334     -1.9411022      18160.274    
    172000   0.88957094     0.0023323615   0.0015652896   19.667447      18.346434      1.3210128     -2.1204274      18040.25     
    173000   1.0400055      0.0023323615  -0.00024425992  20.374762      18.830354      1.5444082     -1.8016639      18092.965    
    174000   1.0981179      0.0023323615   0.0016910816   20.390657      18.759952      1.6307051     -1.766696       18067.108    
    175000   1.028988       0.0023323615  -0.0012297048   20.130503      18.602456      1.5280471     -1.95915        18083.648    
    176000   0.97001793     0.0023323615   0.0009987553   20.231712      18.791235      1.4404766     -1.675614       18115.985    
    177000   1.0963341      0.0023323615   0.0017546672   20.122491      18.494435      1.6280561     -1.998182       18271.651    
    178000   0.97876523     0.0023323615  -0.00081585879  19.958003      18.504537      1.4534664     -1.9231694      18188.071    
    179000   1.0248705      0.0023323615  -8.6023817e-05  20.323815      18.801882      1.5219328     -1.7862643      18005.007    
    180000   0.96998958     0.0023323615  -0.0025581103   19.816988      18.376553      1.4404345     -2.0729761      18163.817    
    181000   1.0567612      0.0023323615   0.0048363894   20.157221      18.58793       1.5692904     -2.0009098      18090.187    
    182000   0.97469684     0.0023323615  -0.00076439106  20.028092      18.580668      1.4474248     -1.9277833      17949.058    
    183000   0.99520124     0.0023323615  -0.0066907122   20.072646      18.594772      1.4778738     -1.9368289      18125.008    
    184000   1.025654       0.0023323615  -0.00044840556  20.12486       18.601764      1.5230961     -1.9158359      18015.783    
    185000   1.0471993      0.0023323615   0.0014832296   20.195254      18.640163      1.555091      -1.8861429      18074.424    
    186000   0.99093722     0.0023323615  -0.0014059268   20.034709      18.563167      1.4715418     -1.8990948      18141.516    
    187000   1.0786641      0.0023323615  -0.00065229466  20.547322      18.945506      1.6018162     -1.6256582      18062.91     
    188000   1.1143256      0.0023323615   0.002691905    20.17085       18.516076      1.6547735     -1.9995796      18099.444    
    189000   0.81433946     0.0023323615  -0.00037974255  19.736767      18.527473      1.2092941     -1.8742632      18055.702    
    190000   1.0585558      0.0023323615   0.0024474264   19.979721      18.407765      1.5719554     -2.0418817      18005.237    
    191000   1.0236895      0.0023323615   0.0024025715   20.078871      18.558692      1.5201789     -1.8994708      17967.19     
    192000   0.95263145     0.0023323615  -0.0018156204   20.05412       18.639462      1.4146577     -1.799277       17969.033    
    193000   1.0074454      0.0023323615  -0.0005002063   20.053588      18.557531      1.4960564     -1.9627053      18094.221    
    194000   1.0774566      0.0023323615   0.0036089672   20.10598       18.505957      1.6000231     -1.8381085      17833.349    
    195000   0.88452443     0.0023323615   0.0014723124   20.072236      18.758717      1.3135188     -1.7813093      18047.576    
    196000   0.99215646     0.0023323615  -0.0025639968   19.878574      18.405222      1.4733523     -2.174791       18047.198    
    197000   1.0656516      0.0023323615  -0.0032717479   20.340588      18.758096      1.5824926     -1.8183393      18080.566    
    198000   1.0400998      0.0023323615   0.002767255    20.119734      18.575185      1.5445482     -1.9421467      18119.74     
    199000   1.0698899      0.0023323615  -0.00091326839  20.171843      18.583057      1.5887865     -1.8964424      18081.381    
    200000   0.94200485     0.0023323615  -0.0010811026   19.959742      18.560864      1.3988772     -1.9278484      18128.34     
    201000   1.0896439      0.0023323615   0.0010078148   20.543586      18.925465      1.6181211     -1.7750315      18110.791    
    202000   1.0160982      0.0023323615  -0.00078940657  20.312304      18.803398      1.5089058     -1.9269739      18059.838    
    203000   0.84724058     0.0023323615   0.00065405413  19.606215      18.348063      1.2581523     -2.118816       18139.386    
    204000   1.0738804      0.0023323615   0.0014055108   19.967131      18.372419      1.5947125     -2.0855433      18296.057    
    205000   0.93803537     0.0023323615  -0.0068611452   20.234465      18.841483      1.3929825     -1.7993202      18159.296    
    206000   0.97256693     0.0023323615   0.0017549388   20.09503       18.650768      1.4442619     -1.8712736      18232.997    
    207000   0.9021628      0.0023323615  -0.0015467073   20.082666      18.742955      1.3397118     -1.8300471      18262.287    
    208000   1.1340692      0.0023323615  -0.00023534888  20.293654      18.609561      1.6840928     -1.9824581      18190.385    
    209000   1.1140507      0.0023323615  -0.00086407639  20.472421      18.818055      1.6543654     -1.7624778      18294.22     
    210000   0.90334621     0.0023323615   0.0071253224   20.475797      19.134328      1.3414691     -1.4709567      18280.77     
    211000   0.9635891      0.0023323615  -0.0058548238   20.345852      18.914923      1.4309298     -1.630607       18174.205    
    212000   0.90485364     0.0023323615   0.00065900286  20.071187      18.72748       1.3437077     -1.7243327      18205.222    
    213000   0.94124842     0.0023323615  -0.0024487498   19.997056      18.599302      1.3977539     -1.891235       18250.613    
    214000   1.0888564      0.0023323615   0.0034980731   20.341324      18.724372      1.6169518     -1.7888691      18224.788    
    215000   1.0321686      0.0023323615   0.0049113159   20.201516      18.668745      1.5327703     -1.7563375      18198.689    
    216000   0.92771171     0.0023323615   0.00056742872  19.835691      18.458039      1.3776519     -1.9892113      18344.425    
    217000   1.1115512      0.0023323615   0.0042038341   20.146869      18.496216      1.6506536     -2.0352988      18319.721    
    218000   0.83470273     0.0023323615  -0.003082112    19.666748      18.427214      1.2395335     -1.9988171      18209.025    
    219000   1.0340682      0.0023323615   0.0019510382   20.005125      18.469534      1.5355913     -2.0271245      18266.505    
    220000   0.8974349      0.0023323615  -0.0018566096   19.99424       18.66155       1.3326908     -1.7986007      18454.06     
    221000   0.93450108     0.0023323615   0.00043570417  20.258249      18.870515      1.3877341     -1.5864622      18532.407    
    222000   1.0474013      0.0023323615   0.0042476716   20.590108      19.034717      1.555391      -1.4639195      18466.299    
    223000   0.9484854      0.0023323615   0.0016833212   19.851172      18.442671      1.4085008     -1.9894245      18245.692    
    224000   1.0735005      0.0023323615   0.0044040136   20.248566      18.654417      1.5941482     -1.9077587      18100.19     
    225000   0.9005156      0.0023323615   0.00022687596  19.988497      18.651231      1.3372657     -1.979676       18178.862    
    226000   0.91541651     0.0023323615  -0.00060883018  20.113063      18.75367       1.3593935     -1.7324675      18423.396    
    227000   0.94942908     0.0023323615   0.0032944799   20.256881      18.846979      1.4099022     -1.5449134      18522.774    
    228000   1.0960124      0.0023323615   0.0016959591   20.671747      19.044168      1.6275784     -1.4776834      18695.828    
    229000   1.0557391      0.0023323615   0.0021888199   20.570296      19.002524      1.5677725     -1.5423751      18327.617    
    230000   1.1195028      0.0023323615   0.0027550978   20.192788      18.530327      1.6624617     -1.9830259      18318.609    
    231000   1.1174685      0.0023323615   0.0034811912   19.951768      18.292327      1.6594407     -2.0484771      18152.945    
    232000   1.0670123      0.0023323615   0.0049606234   19.931914      18.347401      1.5845133     -2.0821034      18043.834    
    233000   1.0612624      0.0023323615  -0.0015188654   20.469529      18.893554      1.5759746     -1.7386542      18039.693    
    234000   1.0374088      0.0023323615   0.00049586006  20.320904      18.780352      1.540552      -1.748684       18184.777    
    235000   0.93051701     0.0023323615  -0.0014299618   20.050075      18.668257      1.3818178     -1.9299178      18046.509    
    236000   1.0924289      0.0023323615  -0.0020009956   20.119917      18.49766       1.6222569     -2.0115247      18076.044    
    237000   1.0558683      0.0023323615   0.001242603    20.13857       18.570606      1.5679645     -1.9216617      18236.915    
    238000   0.90834714     0.0023323615   0.0011905524   20.037948      18.689053      1.3488955     -1.8921845      18112.891    
    239000   0.96428642     0.0023323615  -0.0023747547   20.367445      18.935479      1.4319653     -1.588467       18234.866    
    240000   1.0080811      0.0023323615   0.0025555568   20.181267      18.684266      1.4970004     -1.7789057      18193.571    
    241000   0.79880029     0.0023323615  -0.0020113369   19.931863      18.745645      1.1862184     -1.7380527      18145.711    
    242000   0.86987763     0.0023323615   7.6606497e-05  19.872407      18.580639      1.2917683     -1.9098176      18207.354    
    243000   0.89993766     0.0023323615   0.0028595661   19.959819      18.623412      1.3364074     -1.7026737      18188.283    
    244000   0.96860268     0.0023323615  -0.0052743322   20.348542      18.910167      1.438375      -1.5508911      18294.049    
    245000   0.93854767     0.0023323615  -0.0023133533   20.057202      18.663459      1.3937433     -1.8879371      18218.783    
    246000   1.043836       0.0023323615  -0.0022807345   20.389785      18.839688      1.5500964     -1.7476679      18092.745    
    247000   1.1010204      0.0023323615   0.0019450774   20.380224      18.745209      1.6350153     -1.8620924      18247.05     
    248000   0.99617766     0.0023323615   0.0012839898   19.969795      18.490472      1.4793238     -1.9685435      18194.881    
    249000   0.84825852     0.0023323615  -0.0019438489   19.875722      18.616058      1.2596639     -1.7255711      18235.529    
    250000   0.86622533     0.0023323615  -0.00028317705  20.113024      18.826679      1.2863446     -1.6414576      18204.531    
    251000   0.95729509     0.0023323615  -0.0021294361   20.423504      19.001921      1.4215832     -1.4769277      18294.018    
    252000   1.0380712      0.0023323615  -0.0019271      20.449851      18.908315      1.5415357     -1.5851372      18289.182    
    253000   1.0665117      0.0023323615  -0.0014286348   20.272482      18.688712      1.5837699     -1.7835578      18260.964    
    254000   1.1246577      0.0023323615  -0.0047568477   20.162548      18.492431      1.6701167     -1.9699289      18211.466    
    255000   0.90531587     0.0023323615   0.001333827    19.890179      18.545785      1.3443941     -1.9991918      18040.843    
    256000   1.023126       0.0023323615  -0.0023700614   20.364186      18.844843      1.5193421     -1.7961145      18185.453    
    257000   1.1348526      0.0023323615  -0.0025781635   20.493442      18.808186      1.6852561     -1.7463586      18121.648    
    258000   1.1380297      0.0023323615  -0.0037641907   20.442176      18.752202      1.6899741     -1.8780964      18096.885    
    259000   0.98722205     0.0023323615  -0.00038010022  20.128843      18.662818      1.4660247     -1.8288566      18164.154    
    260000   0.98700121     0.0023323615  -0.0010881857   20.292213      18.826516      1.4656968     -1.7882419      18206.015    
    261000   0.8914651      0.0023323615   0.0019044299   19.847102      18.523277      1.3238257     -1.8854808      18181.538    
    262000   0.98147558     0.0023323615  -0.004320639    20.06758       18.610089      1.4574912     -1.8161277      18250.34     
    263000   1.0311983      0.0023323615  -0.0013319074   20.323236      18.791906      1.5313295     -1.9137276      18281.842    
    264000   0.89037119     0.0023323615   0.0012183809   19.797477      18.475276      1.3222012     -1.9713362      18161.414    
    265000   1.050766       0.0023323615  -0.0011536585   20.380642      18.820254      1.5603875     -1.8455232      18120.994    
    266000   1.1421654      0.0023323615   0.0020950151   20.144554      18.448439      1.6961156     -1.9776991      18164.768    
    267000   0.95524483     0.0023323615   0.0020744019   19.816447      18.397909      1.4185386     -2.0111396      17957.657    
    268000   1.0001426      0.0023323615  -0.0013463083   20.422476      18.937264      1.4852118     -1.6601361      17952.486    
    269000   0.93952218     0.0023323615   0.00093453161  20.185645      18.790454      1.3951904     -1.8048699      18214.837    
    270000   1.0433036      0.0023323615   0.0018239841   19.864104      18.314798      1.5493059     -2.0561002      18095.786    
    271000   1.0451441      0.0023323615   0.00067403353  20.132008      18.579969      1.5520389     -1.9119167      18086.332    
    272000   1.0144712      0.0023323615   0.00048533666  19.967283      18.460794      1.5064897     -1.9258368      18100.278    
    273000   1.1550348      0.0023323615  -0.003197658    20.503436      18.788209      1.7152266     -1.7960954      18055.666    
    274000   0.95309577     0.0023323615   0.0033984855   20.064471      18.649124      1.4153472     -1.9108002      18159.97     
    275000   0.97343828     0.0023323615  -0.00027540623  20.201893      18.756338      1.4455558     -1.7908158      18102.973    
    276000   0.97407995     0.0023323615  -0.0033810245   20.045451      18.598942      1.4465087     -1.9579956      18131.069    
    277000   1.0603943      0.0023323615  -0.0029917708   20.619063      19.044377      1.5746855     -1.6648906      18393.385    
    278000   1.0003748      0.0023323615  -0.0021669698   20.325467      18.83991       1.4855566     -1.6340183      18262.02     
    279000   1.1093398      0.0023323615  -0.00078214235  20.229014      18.581644      1.6473696     -1.8446903      18202.423    
    280000   1.1236234      0.0023323615  -0.002018668    20.408756      18.740175      1.6685808     -1.6533113      18094.07     
    281000   1.0950288      0.0023323615   0.0038493309   20.11757       18.491453      1.6261178     -1.9036376      18254.712    
    282000   0.8948823      0.0023323615   0.0021698286   20.112824      18.783924      1.3289002     -1.732479       18185.632    
    283000   1.0502694      0.0023323615  -0.0049212735   20.477827      18.918177      1.55965       -1.7393815      18168.958    
    284000   1.0600994      0.0023323615   1.560897e-06   20.473902      18.899655      1.5742476     -1.635438       18182.091    
    285000   1.0415125      0.0023323615   0.003316639    20.352128      18.805482      1.5466461     -1.7075039      18367.593    
    286000   0.91556853     0.0023323615  -0.0022011405   20.10185       18.74223       1.3596193     -1.9216332      18303.697    
    287000   0.9361013      0.0023323615  -0.00060041136  20.079538      18.689428      1.3901104     -1.8105845      18397.036    
    288000   0.90737631     0.0023323615  -0.0020800169   19.787933      18.440479      1.3474538     -2.013991       18287.985    
    289000   1.1623129      0.0023323615   0.0021727249   20.608099      18.882064      1.7260347     -1.7845054      18277.52     
    290000   1.0684802      0.0023323615  -0.00092064799  20.135537      18.548844      1.5866931     -2.0289867      18291.176    
    291000   0.96066241     0.0023323615  -0.0047800102   20.223092      18.796508      1.4265837     -1.808137       18304.432    
    292000   1.0879964      0.0023323615  -0.0028822091   20.337111      18.721436      1.6156747     -1.7811273      18380.52     
    293000   0.91677465     0.0023323615  -0.00023031958  20.047776      18.686365      1.3614104     -1.9023304      18337.738    
    294000   0.90827805     0.0023323615   0.0035291611   20.246826      18.898033      1.3487929     -1.6808845      18400.447    
    295000   1.021216       0.0023323615  -0.0011561347   20.128589      18.612083      1.5165058     -1.9223609      18305.187    
    296000   0.93847927     0.0023323615  -0.0033236749   19.777495      18.383853      1.3936417     -2.1057295      18287.03     
    297000   1.0145367      0.0023323615   0.00060741825  20.202264      18.695677      1.506587      -1.7995668      18253.838    
    298000   1.0464305      0.0023323615   0.0022812836   20.065747      18.511797      1.5539493     -1.9961186      18203.924    
    299000   0.9631701      0.0023323615   0.0058324912   20.10968       18.679373      1.4303076     -1.8027775      18227.966    
    300000   1.1206887      0.0023323615   0.0011240081   20.173138      18.508915      1.6642227     -1.9967434      18171.488    
    301000   0.9719368      0.0023323615  -0.00095597456  20.154968      18.711641      1.4433262     -1.8564464      18142.011    
    302000   1.0229615      0.0023323615   0.00031152789  20.035672      18.516575      1.5190978     -1.993672       18061.995    
    303000   0.94988607     0.0023323615   0.00089949126  20.146675      18.736094      1.4105808     -1.8706127      18207.5      
    304000   0.91153983     0.0023323615  -0.00021062729  20.068157      18.71452       1.3536366     -1.8550347      18264.834    
    305000   0.89301334     0.0023323615  -2.6015425e-06  19.977828      18.651703      1.3261248     -1.8007518      18166.597    
    306000   0.94215803     0.0023323615  -0.0028142113   20.236089      18.836985      1.3991047     -1.6463555      18252.412    
    307000   1.0296819      0.0023323615   0.0032700795   20.13355       18.604473      1.5290777     -1.893511       18196.682    
    308000   0.99950412     0.0023323615  -0.0023373839   20.27855       18.794287      1.4842636     -1.920602       18195.382    
    309000   1.092967       0.0023323615  -0.0017292368   20.17916       18.556104      1.623056      -1.8047541      18044.813    
    310000   1.1116728      0.0023323615   6.9721852e-05  20.18443       18.533596      1.6508341     -1.959955       18184.009    
    311000   0.95473218     0.0023323615  -0.001403265    19.951584      18.533807      1.4177773     -1.9864953      18168.773    
    312000   0.96154197     0.0023323615   0.001167971    20.26452       18.83663       1.4278898     -1.6384962      18250.343    
    313000   0.97961947     0.0023323615   0.0016725178   20.226007      18.771272      1.4547349     -1.752159       18469.791    
    314000   1.1420234      0.0023323615   0.0022152785   20.589603      18.893699      1.6959048     -1.6914437      18330.461    
    315000   1.0054771      0.0023323615   0.00099493534  20.324797      18.831663      1.4931335     -1.8584319      18215.402    
    316000   1.1060127      0.0023323615   0.0043146406   20.204096      18.561668      1.6424288     -1.915358       18199.844    
    317000   0.88589816     0.0023323615   0.00038350099  19.870641      18.555083      1.3155588     -1.9410499      18245.095    
    318000   1.1021559      0.0023323615  -0.00031627524  20.514074      18.877373      1.6367015     -1.6801503      18114.442    
    319000   0.94242267     0.0023323615   0.0011080213   20.252808      18.85331       1.3994977     -1.6961751      18304.808    
    320000   1.0861511      0.0023323615  -0.001680516    20.180354      18.567419      1.6129345     -1.9639967      18261.622    
    321000   1.0303173      0.0023323615  -0.0017932026   20.194623      18.664602      1.5300212     -1.8640077      18250.553    
    322000   0.86052362     0.0023323615  -0.0017386258   19.888578      18.6107        1.2778776     -1.841943       18248.775    
    323000   0.94782115     0.0023323615  -0.00080861798  20.668817      19.261302      1.4075144     -1.4017266      18463.949    
    324000   0.97601573     0.0023323615   0.00080912614  20.208968      18.759584      1.4493834     -1.6144505      18462.398    
    325000   1.0178208      0.0023323615   0.0011223186   20.228346      18.716882      1.5114639     -1.8030372      18213.012    
    326000   1.0034381      0.0023323615   0.0039001808   20.305303      18.815197      1.4901056     -1.7520181      18357.252    
    327000   1.0912463      0.0023323615   0.00014923424  20.470231      18.849731      1.6205008     -1.8320686      18477.286    
    328000   0.98961353     0.0023323615   0.00059786251  20.541294      19.071718      1.4695761     -1.5323121      18270.464    
    329000   1.0225899      0.0023323615   0.00034821784  20.219168      18.700622      1.518546      -1.9697389      18332.289    
    330000   0.93523997     0.0023323615   0.001260289    20.022918      18.634087      1.3888314     -1.8630588      18344.513    
    331000   1.0396085      0.0023323615   0.004759136    20.083879      18.54006       1.5438187     -1.9830569      18339.359    
    332000   1.0025476      0.0023323615   0.0020795659   19.896897      18.408113      1.4887831     -1.9740286      18090.899    
    333000   0.92791632     0.0023323615  -0.001066582    19.919442      18.541486      1.3779557     -1.906066       18061.165    
    334000   0.95977576     0.0023323615  -0.0019483544   20.110811      18.685544      1.425267      -1.81777        18072.139    
    335000   0.8544853      0.0023323615  -0.00088243989  20.0425        18.773589      1.2689107     -1.8637238      18072.915    
    336000   0.95983026     0.0023323615   0.0010916993   19.985154      18.559806      1.4253479     -1.9470117      18095.517    
    337000   0.95152626     0.0023323615   0.00020481229  20.179228      18.766212      1.4130165     -1.7770145      18065.611    
    338000   0.98563604     0.0023323615  -0.0011562354   20.132896      18.669227      1.4636695     -1.8853587      18078.365    
    339000   0.9662415      0.0023323615  -0.0015214089   20.33786       18.902992      1.4348686     -1.6393227      17869.721    
    340000   1.0967333      0.0023323615  -0.0030820997   20.306406      18.677757      1.6286489     -1.7568314      18150.799    
    341000   0.8796685      0.0023323615   0.0011793056   20.029324      18.723016      1.3063077     -1.8511651      18109.457    
    342000   1.0601162      0.0023323615  -5.4774031e-05  19.918401      18.344129      1.5742726     -2.108741       18079.017    
    343000   1.0311618      0.0023323615   0.00041565147  19.737735      18.206459      1.5312752     -2.1433158      18059.975    
    344000   0.91392184     0.0023323615   0.0018637408   19.890674      18.5335        1.3571739     -1.9433823      18037.183    
    345000   1.0382929      0.0023323615  -0.0030435072   20.278353      18.736488      1.541865      -1.8494401      17993.211    
    346000   1.0823115      0.0023323615   0.00080307208  20.281433      18.6742        1.6072325     -1.9215703      18010.055    
    347000   0.90286702     0.0023323615  -0.0021381639   19.923569      18.582812      1.3407575     -1.9492627      17995.8      
    348000   0.99622019     0.0023323615   0.0056496711   20.28881       18.809423      1.479387      -1.8010296      17880.002    
    349000   0.98355217     0.0023323615  -0.0020260806   19.882776      18.422201      1.460575      -2.1297899      18031.913    
    350000   0.92370713     0.0023323615  -0.0020525621   19.919471      18.547766      1.3717051     -1.7818805      18012.967    
    351000   0.90430748     0.0023323615   0.0019584556   20.341435      18.998538      1.3428966     -1.5478688      18060.299    
    352000   0.85340673     0.0023323615  -0.00039571013  19.885238      18.617929      1.267309      -1.8453676      18253.417    
    353000   0.99536732     0.0023323615   0.00094162502  20.147031      18.668911      1.4781205     -1.86653        18167.228    
    354000   1.097455       0.0023323615  -0.00022206488  20.116683      18.486962      1.6297207     -1.9444125      18100.807    
    355000   0.97960857     0.0023323615  -0.0024343528   20.02592       18.571201      1.4547187     -2.0419504      18187.286    
    356000   1.0174588      0.0023323615  -0.0037457643   20.276482      18.765556      1.5109264     -1.8493738      18105.521    
    357000   0.91794778     0.0023323615  -0.0038216227   20.465335      19.102182      1.3631525     -1.6469454      18280.181    
    358000   0.90579501     0.0023323615   0.0012371864   20.039782      18.694677      1.3451056     -1.8493304      18232.567    
    359000   1.0512557      0.0023323615   0.00060562882  20.360794      18.799679      1.5611147     -1.7462717      18342.22     
    360000   1.0831243      0.0023323615   0.0026631614   20.356844      18.748404      1.6084396     -1.8379138      18299.875    
    361000   1.0115447      0.0023323615  -0.00083808442  20.224375      18.722231      1.5021439     -1.7710897      18267.274    
    362000   0.93210361     0.0023323615  -0.0021464613   19.94556       18.561386      1.3841739     -2.0088059      18273.077    
    363000   0.99551176     0.0023323615  -0.0010665928   20.358765      18.88043       1.478335      -1.5937943      18313.732    
    364000   1.063592       0.0023323615  -0.0019762705   20.06083       18.481396      1.5794341     -1.996143       18130.019    
    365000   1.029431       0.0023323615   0.001117681    20.105876      18.577171      1.5287051     -2.0146546      18088.535    
    366000   1.1754196      0.0023323615   0.0014891902   20.392798      18.6473        1.7454981     -1.7924038      18235.332    
    367000   1.0125031      0.0023323615   0.0014052575   19.94125       18.437683      1.5035671     -2.0571932      18175.698    
    368000   1.1099169      0.0023323615   0.0024241795   20.464905      18.816678      1.6482266     -1.6104359      18135.853    
    369000   0.92644572     0.0023323615  -0.0031616522   20.064591      18.688819      1.3757719     -1.7803743      18220.107    
    370000   0.98685435     0.0023323615   0.00070940105  19.98334       18.517862      1.4654787     -1.9974178      18179.541    
    371000   1.0505926      0.0023323615  -0.0032302792   20.22605       18.66592       1.5601299     -1.9546705      18224.931    
    372000   0.85479416     0.0023323615  -0.0018621474   19.637666      18.368297      1.2693693     -2.0753844      17801.073    
    373000   1.0791252      0.0023323615  -0.0046397298   20.48056       18.878059      1.602501      -1.6873312      18000.776    
    374000   0.99959184     0.0023323615  -0.0005365615   20.347531      18.863137      1.4843939     -1.6430848      18137.497    
    375000   0.99944007     0.0023323615   0.00071492299  20.083904      18.599736      1.4841685     -1.9692312      18235.059    
    376000   1.0853444      0.0023323615   0.0054433824   20.428266      18.816529      1.6117364     -1.8624897      18165.327    
    377000   1.0561624      0.0023323615  -0.0018867115   20.032348      18.463947      1.5684012     -2.03764        18117.441    
    378000   1.0555583      0.0023323615  -0.00066577045  20.521284      18.95378       1.5675041     -1.7542899      18271.353    
    379000   1.0112102      0.0023323615   0.00070040251  20.059581      18.557934      1.5016471     -1.9077032      18217.194    
    380000   0.96890365     0.0023323615   0.0017674433   19.973555      18.534733      1.4388219     -1.979416       18100.091    
    381000   0.95990594     0.0023323615   0.0019942633   20.091504      18.666044      1.4254603     -1.9880408      18061.723    
    382000   0.97679193     0.0023323615   0.0048635825   19.859154      18.408617      1.450536      -2.0972049      18142.545    
    383000   0.90121853     0.0023323615   0.0034970362   20.026962      18.688652      1.3383095     -1.9689956      18180.806    
    384000   1.0721654      0.0023323615  -0.0005627795   20.296048      18.703883      1.5921656     -1.9063887      18142.416    
    385000   1.018878       0.0023323615  -0.00035005896  20.201456      18.688422      1.5130339     -1.9468682      18240.341    
    386000   1.1583478      0.0023323615   0.0045954068   20.255326      18.53518       1.7201465     -2.0297398      18225.613    
    387000   1.120835       0.0023323615  -0.0033142366   20.4128        18.74836       1.66444       -1.8657494      18246.85     
    388000   0.94277723     0.0023323615  -0.00042278591  20.051675      18.651651      1.4000242     -1.7620956      18269.625    
    389000   0.98819301     0.0023323615  -0.0020609212   20.220399      18.752932      1.4674666     -1.7255391      18439.941    
    390000   0.9482628      0.0023323615   0.0038425773   19.9831        18.57493       1.4081703     -1.9959015      18328.65     
    391000   0.97337386     0.0023323615   0.0051520597   20.252435      18.806975      1.4454602     -1.8337657      18560.756    
    392000   1.0058373      0.0023323615   0.00053643664  20.333322      18.839654      1.4936685     -1.7948042      18456.732    
    393000   0.80893121     0.0023323615  -0.00039627414  19.902471      18.701208      1.2012628     -1.7997043      18394.188    
    394000   0.92081091     0.0023323615  -0.0014066073   20.05123       18.683826      1.3674042     -1.8969438      18253.901    
    395000   1.1172065      0.0023323615   0.0015144779   20.240479      18.581427      1.6590516     -1.8993663      18134.788    
    396000   0.97977264     0.0023323615  -0.0023997827   20.169985      18.715022      1.4549624     -1.8276969      18071.328    
    397000   0.90207906     0.0023323615  -0.00025391023  19.924794      18.585207      1.3395874     -1.9341394      18019.725    
    398000   0.98628218     0.0023323615  -0.0032194906   19.927058      18.462429      1.464629      -2.1076844      18105.899    
    399000   1.1161692      0.0023323615  -0.0050136788   20.425845      18.768333      1.6575113     -1.8123489      18006.273    
    400000   0.99728044     0.0023323615   0.00042960838  19.975533      18.494571      1.4809615     -1.9895487      17917.475    
    401000   0.92308369     0.0023323615  -0.0015321256   19.847911      18.477132      1.3707793     -1.9894978      18097.521    
    402000   1.0158407      0.0023323615  -0.0023691587   20.20773       18.699207      1.5085235     -1.7532071      18124.63     
    403000   1.017197       0.0023323615  -0.0010911712   20.013881      18.503343      1.5105376     -2.0643436      18017.751    
    404000   1.2046571      0.0023323615  -0.0028151148   20.27235       18.483435      1.7889158     -1.9592131      18052.636    
    405000   0.90234979     0.0023323615   0.00092763107  19.96217       18.622181      1.3399894     -1.8129922      17981.027    
    406000   0.98891748     0.0023323615   0.0021647864   20.225569      18.757026      1.4685425     -1.7684873      18139.66     
    407000   0.96190793     0.0023323615   0.0010548687   19.968279      18.539846      1.4284333     -1.8929649      18128.912    
    408000   1.0257758      0.0023323615   0.0016547156   20.179927      18.656649      1.5232771     -1.9564912      18178.342    
    409000   0.99704438     0.0023323615   0.00079123573  19.888666      18.408055      1.4806109     -2.1107465      18116.474    
    410000   0.90302952     0.0023323615   0.00029097147  20.038463      18.697464      1.3409988     -1.8864282      18044.496    
    411000   1.0007683      0.0023323615   0.001150033    20.171842      18.685701      1.4861409     -1.9089341      18069.679    
    412000   1.0626422      0.0023323615  -0.00095172688  20.187155      18.609131      1.5780237     -1.9659727      18008.408    
    413000   1.0140256      0.0023323615   0.0036263057   20.166295      18.660467      1.505828      -1.7985324      17988.078    
    414000   1.1399164      0.0023323615   0.0017175422   20.328464      18.635688      1.6927759     -1.8334181      18083.275    
    415000   1.1238415      0.0023323615   0.00064402941  19.887753      18.218848      1.6689046     -2.1907388      18106.756    
    416000   0.931196       0.0023323615  -0.001690157    20.02818       18.645354      1.3828261     -1.8193391      18098.456    
    417000   1.0638322      0.0023323615  -0.0031247527   20.21765       18.637859      1.5797909     -1.8467221      17933.452    
    418000   0.93391413     0.0023323615  -0.00018526325  20.207464      18.820602      1.3868625     -1.7681901      18058.463    
    419000   0.85026618     0.0023323615   0.0040856449   19.850854      18.588208      1.2626453     -2.0590385      18044.747    
    420000   0.98924941     0.0023323615   0.0077890897   20.179241      18.710206      1.4690354     -1.9587828      18217.011    
    421000   0.91390028     0.0023323615   0.0036164802   19.936993      18.579851      1.3571419     -1.903406       18258.649    
    422000   0.96041129     0.0023323615  -0.004350442    19.886686      18.460475      1.4262108     -2.0399171      18191.462    
    423000   0.95947953     0.0023323615   0.0040928242   20.078034      18.653207      1.4248271     -1.8039393      18199.3      
    424000   0.96789131     0.0023323615  -0.00048207258  19.949269      18.511951      1.4373186     -1.9792621      18199.927    
    425000   1.0401573      0.0023323615   0.0049475499   20.205474      18.660841      1.5446336     -1.8767014      18195.611    
    426000   1.0996067      0.0023323615   0.00077031433  20.050641      18.417725      1.632916      -1.933029       18066.431    
    427000   1.0511422      0.0023323615  -0.00048308347  20.374599      18.813653      1.5609461     -1.6632277      18157.955    
    428000   1.0400379      0.0023323615   0.0014164779   20.400795      18.856339      1.5444562     -1.5838504      18316.888    
    429000   1.0781896      0.0023323615   0.00033305     20.330908      18.729797      1.6011116     -1.7725028      18196.858    
    430000   0.9250802      0.0023323615   0.0047512033   20.111978      18.738234      1.3737441     -1.7710722      18341.347    
    431000   1.1092203      0.0023323615   0.00071780391  20.450306      18.803114      1.6471922     -1.672688       18322.617    
    432000   0.97973406     0.0023323615  -0.0014662467   20.045778      18.590873      1.4549051     -1.8685711      18165.334    
    433000   0.97497599     0.0023323615   0.0016715669   19.851058      18.403219      1.4478393     -2.0535782      18056.444    
    434000   1.0240738      0.0023323615   0.00085266137  20.225477      18.704728      1.5207496     -1.9166017      18093.46     
    435000   0.97306252     0.0023323615   0.0009324743   20.138625      18.693627      1.4449978     -1.8065816      18091.109    
    436000   0.84428423     0.0023323615  -0.00086898757  19.699934      18.446172      1.2537621     -2.0015525      18072.221    
    437000   1.0015689      0.0023323615  -0.0018603941   20.304432      18.817102      1.4873298     -1.736275       17967.956    
    438000   1.1475222      0.0023323615  -0.0020454538   20.580675      18.876605      1.7040704     -1.7802487      17946.592    
    439000   0.9145213      0.0023323615  -0.00032090329  19.985365      18.6273        1.3580641     -1.8590282      17818.281    
    440000   0.95212612     0.0023323615  -0.0014069977   19.864421      18.450514      1.4139073     -2.0553232      18051.957    
    441000   1.0765336      0.0023323615   0.0013915555   20.07626       18.477608      1.5986524     -1.9998508      17852.618    
    442000   0.90301585     0.0023323615  -0.0045674622   20.273956      18.932978      1.3409785     -1.6855864      17983.185    
    443000   0.97967895     0.0023323615   0.00068843495  20.281238      18.826415      1.4548232     -1.7726133      18152.347    
    444000   0.94619576     0.0023323615  -0.0021829562   20.01077       18.605669      1.4051007     -1.9219556      17982.857    
    445000   1.1460694      0.0023323615   0.00038097628  20.300345      18.598432      1.7019131     -1.8170314      17917.601    
    446000   0.98299681     0.0023323615   0.0013498307   20.062785      18.603035      1.4597503     -1.9011894      17982.209    
    447000   0.91701096     0.0023323615  -0.0025297981   19.614027      18.252265      1.3617613     -2.2027145      17778.555    
    448000   0.93590412     0.0023323615  -0.00016355856  20.302615      18.912798      1.3898176     -1.6758659      17877.415    
    449000   0.9230812      0.0023323615  -0.00044056242  20.079725      18.70895       1.3707756     -1.8318124      17948.467    
    450000   1.1989107      0.0023323615  -0.0010038141   20.354855      18.574473      1.7803824     -1.8970395      17905.313    
    451000   0.91438188     0.0023323615   0.0030089648   20.126797      18.76894       1.3578571     -1.8539116      17907.462    
    452000   0.94870643     0.0023323615  -0.0030795399   20.029432      18.620603      1.408829      -1.8945507      18023.757    
    453000   0.95083525     0.0023323615  -0.0023151978   20.172754      18.760764      1.4119903     -1.7605819      17982.835    
    454000   0.95711469     0.0023323615   0.00098663978  20.137494      18.716179      1.4213153     -1.8047162      18028.314    
    455000   0.92485536     0.0023323615  -0.0019961432   20.235423      18.862012      1.3734102     -1.7085078      18053.158    
    456000   0.97107425     0.0023323615   0.00051085466  20.230482      18.788437      1.4420453     -1.737963       18103.653    
    457000   0.88965248     0.0023323615   0.003573392    20.089608      18.768474      1.3211339     -1.7230379      18061.276    
    458000   1.0136761      0.0023323615   0.0020769811   20.209653      18.704344      1.505309      -1.7651258      18008.921    
    459000   1.1696055      0.0023323615  -0.00070037722  20.600917      18.864053      1.7368642     -1.6019949      18002.941    
    460000   1.0218778      0.0023323615  -0.00014339939  20.124407      18.606918      1.5174886     -1.9138688      17954.404    
    461000   1.2684689      0.0023323615  -0.002445009    20.914789      19.031112      1.8836763     -1.6670907      18178.448    
    462000   1.0977899      0.0023323615   0.00063067282  20.325409      18.695191      1.630218      -1.8045358      18098.391    
    463000   1.0239898      0.0023323615   0.00038743336  20.390788      18.870164      1.5206248     -1.7534328      18051.036    
    464000   0.97387929     0.0023323615  -0.00054028811  20.26856       18.822349      1.4462107     -1.7531667      18034.95     
    465000   0.96354001     0.0023323615  -0.0057287147   20.137576      18.70672       1.4308569     -1.8293679      18099.146    
    466000   0.84798626     0.0023323615  -0.0018051679   19.845208      18.585948      1.2592596     -1.9631277      18103.643    
    467000   1.0942419      0.0023323615   2.5889897e-05  20.468633      18.843684      1.6249492     -1.6244266      17996.164    
    468000   1.0329591      0.0023323615   0.0021870652   20.16194       18.627996      1.5339443     -1.8508262      18159.435    
    469000   1.0584037      0.0023323615   0.00017246243  20.241572      18.669843      1.5717294     -1.8091715      18107.21     
    470000   1.0369586      0.0023323615   0.00079545041  20.075531      18.535648      1.5398835     -1.7872548      17999.701    
    471000   0.99900067     0.0023323615  -0.00022049561  20.161469      18.677953      1.483516      -1.8509673      17935.698    
    472000   1.0045773      0.0023323615  -0.0014218076   20.577153      19.085356      1.4917973     -1.6686888      18078.473    
    473000   0.91592676     0.0023323615  -0.001576817    19.868276      18.508124      1.3601512     -1.9630988      18160.056    
    474000   1.017736       0.0023323615   0.002400768    20.273947      18.762609      1.511338      -1.8200011      18090.63     
    475000   1.0052125      0.0023323615   0.00015243696  20.239154      18.746414      1.4927406     -1.8222992      17997.3      
    476000   0.8624503      0.0023323615  -0.0010444977   20.041533      18.760794      1.2807387     -1.7254685      17966.608    
    477000   1.0342306      0.0023323615  -0.00043792807  20.282795      18.746962      1.5358324     -1.8660289      17913.497    
    478000   1.1048515      0.0023323615   0.0055671707   20.515897      18.875193      1.6407044     -1.7854673      17874.284    
    479000   1.0090726      0.0023323615  -0.00011244312  20.199754      18.701281      1.4984728     -1.7800246      17914.832    
    480000   1.0997915      0.0023323615  -0.0006746      20.268531      18.635341      1.6331903     -1.8119639      18089.548    
    481000   0.98212114     0.0023323615   0.00010650533  20.064273      18.605823      1.4584499     -1.9263418      17962.388    
    482000   0.95820991     0.0023323615  -0.00064320236  20.382733      18.959792      1.4229417     -1.5121827      17847.373    
    483000   1.145002       0.0023323615  -0.00027307244  20.355272      18.654944      1.700328      -1.7841765      17948.842    
    484000   0.93886508     0.0023323615  -0.00320969     20.016432      18.622218      1.3942146     -1.9219233      17503.8      
    485000   0.77826061     0.0023323615  -0.002724296    20.00664       18.850923      1.155717      -1.7903627      17680.532    
    486000   1.0029745      0.0023323615   0.0057511778   20.251526      18.762109      1.4894171     -1.7177926      17660.895    
    487000   0.92699102     0.0023323615  -0.00012556032  20.193971      18.81739       1.3765817     -1.661181       17585.223    
    488000   0.90054782     0.0023323615  -0.0036908977   20.223866      18.886553      1.3373135     -1.816383       17736.856    
    489000   0.9264813      0.0023323615   0.0048843001   20.143303      18.767479      1.3758247     -1.7151878      17740.938    
    490000   0.94318342     0.0023323615  -0.004059405    20.19357       18.792943      1.4006274     -1.7845382      17712.988    
    491000   0.80308435     0.0023323615  -3.2534123e-05  19.907464      18.714884      1.1925803     -1.7190163      17612.778    
    492000   1.0507569      0.0023323615  -0.0051318249   20.344093      18.783719      1.5603741     -1.6821834      17684.789    
    493000   1.1367303      0.0023323615   0.0062466814   20.274717      18.586672      1.6880445     -1.8938712      17824.387    
    494000   0.9162776      0.0023323615  -0.0014020526   20.113087      18.752414      1.3606722     -1.6881348      17710.523    
    495000   1.0673213      0.0023323615   0.0044619528   20.112595      18.527623      1.5849722     -1.8662781      17823.439    
    496000   1.1240104      0.0023323615  -0.0034293072   20.435184      18.766029      1.6691555     -1.7806325      17817.438    
    497000   1.0794496      0.0023323615   0.0010372666   20.330144      18.727162      1.6029826     -1.7798508      17782.039    
    498000   1.1243239      0.0023323615   0.00019616345  20.658382      18.988761      1.669621      -1.676462       18088.515    
    499000   1.1239583      0.0023323615   0.00063273868  20.402265      18.733187      1.6690781     -1.8159215      18044.878    
    500000   1.0816426      0.0023323615  -0.0027811679   20.358387      18.752148      1.6062392     -1.6181867      17985.333    
    501000   0.9735988      0.0023323615   0.0032178313   20.20152       18.755725      1.4457942     -1.7534921      17958.158    
    502000   0.9644147      0.0023323615   0.0027468385   19.891729      18.459573      1.4321558     -1.9505396      18015.89     
    503000   0.93246399     0.0023323615   0.0018996123   20.13264       18.747931      1.384709      -1.836174       17839.899    
    504000   1.025344       0.0023323615  -0.005291664    20.327189      18.804553      1.5226358     -1.8214481      17884.818    
    505000   0.97838412     0.0023323615   0.0011412504   20.444273      18.991372      1.4529004     -1.5767836      17897.475    
    506000   1.0856046      0.0023323615  -0.0027759261   20.312207      18.700084      1.6121228     -1.814367       18042.383    
    507000   1.1557293      0.0023323615   0.0018420902   20.378459      18.662201      1.716258      -1.8646354      17774.082    
    508000   0.98112856     0.0023323615  -4.9399477e-05  19.970168      18.513193      1.4569759     -1.9611419      17928.888    
    509000   1.1053654      0.0023323615   0.0020739439   20.486648      18.845181      1.6414676     -1.7833451      17964.218    
    510000   0.84275352     0.0023323615  -0.0022547176   19.866781      18.615292      1.251489      -1.952405       17736.361    
    511000   1.0239692      0.0023323615  -0.00078480345  20.46765       18.947056      1.5205942     -1.6930824      18110.193    
    512000   1.1418727      0.0023323615  -0.00071492629  20.701263      19.005582      1.6956809     -1.5198294      18175.025    
    513000   0.99359379     0.0023323615  -0.0014257264   20.489898      19.014411      1.4754868     -1.5149853      18129.946    
    514000   0.99324428     0.0023323615  -0.0020995047   19.925709      18.450741      1.4749678     -1.9906184      17987.388    
    515000   0.97606857     0.0023323615   0.0025448326   19.99115       18.541688      1.4494618     -2.0078937      18065.575    
    516000   0.99683731     0.0023323615  -0.00070127256  19.964682      18.484379      1.4803034     -2.0778751      18037.303    
    517000   1.0499026      0.0023323615   0.00043958562  20.222419      18.663314      1.5591053     -1.9430984      17934.003    
    518000   1.0329788      0.0023323615   0.0019256799   20.137347      18.603373      1.5339736     -1.8488481      17936.859    
    519000   1.052003       0.0023323615   0.001039534    20.186544      18.624319      1.5622245     -1.8921873      17781.909    
    520000   0.98595463     0.0023323615   0.00095656835  20.309329      18.845186      1.4641426     -1.7887189      17907.767    
    521000   0.96111814     0.0023323615   0.0045511036   20.398457      18.971197      1.4272604     -1.6045591      18059.907    
    522000   1.0050293      0.0023323615   0.0017595893   20.066681      18.574213      1.4924685     -1.9503074      18024.063    
    523000   0.83915388     0.0023323615  -0.0008916278   19.783315      18.537172      1.2461435     -1.8553099      18036.358    
    524000   1.0881216      0.0023323615  -0.00083201484  20.049706      18.433846      1.6158606     -2.0271355      17954.114    
    525000   0.96620617     0.0023323615  -0.0043593059   20.265914      18.831098      1.4348162     -1.6265981      18024.011    
    526000   0.91865791     0.0023323615   0.0042842993   20.003004      18.638797      1.364207      -1.7858737      17966.718    
    527000   1.0214296      0.0023323615   0.0012777449   20.39397       18.877147      1.516823      -1.6526435      18021.586    
    528000   1.1311858      0.0023323615  -0.0011708334   20.793723      19.113912      1.6798109     -1.4191406      17892.368    
    529000   0.95799843     0.0023323615  -0.0030949507   20.488368      19.065741      1.4226277     -1.5742302      17764.541    
    530000   1.0607214      0.0023323615  -0.001063191    20.249632      18.67446       1.5751713     -1.9106322      17880.951    
    531000   0.93680804     0.0023323615   0.0031152834   20.128683      18.737523      1.3911599     -1.8382807      17799.823    
    532000   0.97525497     0.0023323615  -0.0027763791   20.081677      18.633424      1.4482536     -1.9970599      17958.459    
    533000   0.93662636     0.0023323615   0.0023283311   20.284639      18.893749      1.3908901     -1.7013086      17985.385    
    534000   1.1231439      0.0023323615   8.9399523e-05  20.302806      18.634938      1.6678688     -1.8724427      18014.769    
    535000   1.0380796      0.0023323615  -0.005053625    20.384195      18.842647      1.5415482     -1.7004881      17885.856    
    536000   0.93057329     0.0023323615   0.0035082751   20.066575      18.684673      1.3819013     -1.8679782      17725.523    
    537000   0.99420187     0.0023323615  -0.0014998544   20.199989      18.723599      1.4763898     -1.7174009      17755.806    
    538000   0.95176849     0.0023323615  -0.00013561616  20.02104       18.607664      1.4133762     -1.83302        17790.222    
    539000   0.9533308      0.0023323615  -0.0011405504   20.27491       18.859214      1.4156962     -1.6940405      17793.486    
    540000   1.0803364      0.0023323615   0.0036943364   20.334912      18.730612      1.6042996     -1.8608732      17733.204    
    541000   1.0633815      0.0023323615   0.00057326194  20.536268      18.957147      1.5791215     -1.6230058      17795.497    
    542000   0.88396034     0.0023323615   0.0065377858   19.93041       18.617729      1.3126811     -1.902786       17809.665    
    543000   0.97270543     0.0023323615   0.0019022272   20.421683      18.977216      1.4444676     -1.6927916      17810.841    
    544000   1.0101099      0.0023323615   0.0035740599   20.367278      18.867265      1.5000132     -1.640127       17749.876    
    545000   0.95778353     0.0023323615   0.0020306475   20.027929      18.605621      1.4223085     -1.9646179      17801.302    
    546000   0.95545787     0.0023323615  -0.00062830289  20.648486      19.229631      1.4188549     -1.4428144      18038.564    
    547000   1.0886         0.0023323615   0.0018828757   20.320176      18.703605      1.616571      -1.8669595      17905.123    
    548000   0.96635791     0.0023323615  -0.002149646    20.126666      18.691624      1.4350415     -1.8715305      17833.585    
    549000   0.94225132     0.0023323615   0.00032195347  19.729968      18.330725      1.3992432     -2.115962       17901.485    
    550000   1.0597808      0.0023323615  -0.0033394336   20.131071      18.557296      1.5737745     -1.9488125      17907.526    
    551000   0.9765684      0.0023323615   0.000653545    20.240242      18.790038      1.4502041     -1.6858759      17850.073    
    552000   0.80576171     0.0023323615   0.0023167338   19.765397      18.568841      1.1965561     -1.9692474      18017.526    
    553000   1.0680782      0.0023323615  -0.00064209192  20.537158      18.951062      1.5860962     -1.562063       17823.372    
    554000   1.0521603      0.0023323615  -0.00098827596  20.15573       18.593272      1.562458      -1.9285112      17798.94     
    555000   0.90434983     0.0023323615  -0.002036753    19.983178      18.640219      1.3429595     -1.8527601      17802.115    
    556000   0.87961867     0.0023323615  -0.0016193253   19.805392      18.499158      1.3062337     -1.9833672      17770.446    
    557000   0.93275208     0.0023323615  -0.00071329284  20.354905      18.969768      1.3851368     -1.5259668      17953.836    
    558000   1.0408245      0.0023323615   0.00087646526  20.212718      18.667093      1.5456243     -1.864262       17891.483    
    559000   1.0945979      0.0023323615   0.0041543371   20.305763      18.680285      1.6254779     -1.8210948      17954.608    
    560000   0.98309556     0.0023323615  -0.0020336016   20.282995      18.823099      1.4598969     -1.8032701      17859.479    
    561000   1.018421       0.0023323615   0.0022793409   20.169837      18.657482      1.5123551     -1.8171901      17808.315    
    562000   1.0521743      0.0023323615   4.0798354e-05  20.289728      18.727249      1.5624789     -1.7170381      17900.217    
    563000   0.88939135     0.0023323615   0.0010146734   20.08035       18.759604      1.3207461     -1.7726579      18046.216    
    564000   0.9973936      0.0023323615   0.0013985555   20.375437      18.894307      1.4811295     -1.7457789      17911.688    
    565000   0.96161562     0.0023323615   0.0021871484   20.193505      18.765506      1.4279992     -1.7875555      17931.822    
    566000   1.095987       0.0023323615   0.0028011066   20.282762      18.655221      1.6275408     -1.8933884      17871.586    
    567000   1.1178208      0.0023323615  -0.0024228051   20.128697      18.468733      1.659964      -1.9682444      17707.011    
    568000   0.84179044     0.0023323615   0.0038976841   19.660791      18.410733      1.2500588     -1.9964197      17774.696    
    569000   1.0160771      0.0023323615   0.00056715144  19.909125      18.40025       1.5088745     -2.1562561      17717.647    
    570000   0.93934184     0.0023323615   0.0020345266   19.977875      18.582952      1.3949226     -1.9590875      17749.848    
    571000   1.1219483      0.0023323615  -0.0016313458   20.08044       18.414346      1.6660933     -2.044014       17972.952    
    572000   0.9994102      0.0023323615  -0.0025705126   20.181244      18.69712       1.4841242     -1.7641992      17957.505    
    573000   0.9273314      0.0023323615   0.0013790258   20.385301      19.008214      1.3770871     -1.4848251      17841.742    
    574000   1.0063048      0.0023323615   0.0007584786   20.246745      18.752382      1.4943627     -1.7522174      17892.615    
    575000   0.91714121     0.0023323615   0.0013773186   19.837668      18.475713      1.3619547     -1.9380919      17884.222    
    576000   0.98717039     0.0023323615  -0.0019511333   20.223612      18.757664      1.465948      -1.8250237      17912.758    
    577000   0.90882556     0.0023323615   0.0032114948   19.961167      18.611561      1.349606      -2.0473957      17736.49     
    578000   0.97979045     0.0023323615  -0.0004233933   19.844724      18.389735      1.4549888     -2.027882       17826.676    
    579000   0.99777557     0.0023323615  -0.00093784702  20.162679      18.680983      1.4816967     -1.8719213      17864.59     
    580000   0.98484845     0.0023323615  -0.00022886575  20.082676      18.620176      1.4625        -1.8706758      17952.354    
    581000   0.84444318     0.0023323615  -0.00054922426  19.977539      18.723541      1.2539981     -1.6888958      18030.916    
    582000   0.91780672     0.0023323615   0.0047117296   20.031315      18.668372      1.362943      -1.8988072      17842.875    
    583000   0.97337228     0.0023323615   0.0057448237   20.267633      18.822175      1.4454578     -1.6960347      17840.25     
    584000   1.0209167      0.0023323615   0.0025484263   20.224374      18.708313      1.5160613     -1.8158934      17824.454    
    585000   0.9810564      0.0023323615   0.002203678    20.640491      19.183622      1.4568688     -1.4313518      17905.936    
    586000   1.0019069      0.0023323615   0.0014792242   20.019957      18.532126      1.4878317     -1.9960155      17913.356    
    587000   1.0039055      0.0023323615   0.0020540581   20.438737      18.947938      1.4907996     -1.5733751      17960.931    
    588000   0.96769884     0.0023323615   0.0031724199   20.237736      18.800703      1.4370328     -1.7242777      17962.631    
    589000   1.0964777      0.0023323615  -0.00095330649  20.238704      18.610434      1.6282693     -1.7876927      17902.345    
    590000   1.1180108      0.0023323615   0.0014936611   20.166483      18.506236      1.6602461     -1.9796253      17939.554    
    591000   0.76665525     0.0023323615  -0.00063372022  19.628069      18.489586      1.1384831     -1.9535532      17875.193    
    592000   1.0040442      0.0023323615  -0.0026164749   20.036288      18.545282      1.4910056     -1.9463127      18030.691    
    593000   0.91155132     0.0023323615   0.0011843321   19.703321      18.349668      1.3536537     -1.9802858      17965.169    
    594000   0.96286712     0.0023323615   0.00070287256  20.031831      18.601973      1.4298577     -1.9516137      17969.92     
    595000   1.0419461      0.0023323615   0.0014583299   20.330296      18.783006      1.5472899     -1.8189497      17860.678    
    596000   0.8462413      0.0023323615   0.0021874847   19.997751      18.741083      1.2566683     -1.9239187      17842.17     
    597000   1.1524642      0.0023323615   0.0012941622   20.465696      18.754287      1.7114093     -1.8159199      17801.902    
    598000   0.90194746     0.0023323615  -0.001362759    19.999184      18.659792      1.339392      -1.7685726      17890.995    
    599000   0.92636968     0.0023323615  -0.0019754755   20.172819      18.79716       1.375659      -1.7140036      17901.761    
    600000   0.89885152     0.0023323615  -0.0023925003   20.070903      18.736108      1.3347945     -1.841417       17817.826    
    601000   1.0657262      0.0023323615  -0.00094415247  20.104905      18.522302      1.5826034     -1.9876178      17749.715    
    602000   1.0420252      0.0023323615  -0.00064618393  20.308068      18.76066       1.5474074     -1.6552132      17744.067    
    603000   0.93019023     0.0023323615   0.0023068062   20.021886      18.640553      1.3813325     -1.8712441      17788.548    
    604000   1.0208172      0.0023323615  -0.0036876094   20.356539      18.840625      1.5159135     -1.856057       17789.287    
    605000   0.92337975     0.0023323615  -0.00029987662  20.046933      18.675714      1.3712189     -1.8201389      17775.661    
    606000   0.88412645     0.0023323615   0.0004075653   20.151106      18.838179      1.3129278     -1.7245794      17852.8      
    607000   0.90806805     0.0023323615   0.00173857     20.240886      18.892405      1.3484811     -1.5594495      18056.15     
    608000   0.90367869     0.0023323615  -0.001172386    19.724527      18.382564      1.3419628     -1.9356513      17990.144    
    609000   0.96163486     0.0023323615   0.0014226957   20.114573      18.686546      1.4280278     -1.7492135      17924.432    
    610000   1.135585       0.0023323615   0.0016036293   20.204889      18.518546      1.6863437     -1.9673231      17888.863    
    611000   1.0259691      0.0023323615  -0.0021653868   20.095805      18.572241      1.5235641     -1.8436254      17769.111    
    612000   1.0968471      0.0023323615  -0.0049536541   20.579028      18.95021       1.628818      -1.6038518      17904.234    
    613000   1.1161079      0.0023323615   0.00020984536  20.23826       18.58084       1.6574202     -1.9054968      17851.504    
    614000   0.90681399     0.0023323615  -0.0022406463   20.093972      18.747353      1.3466188     -1.9058871      17683.072    
    615000   1.2583818      0.0023323615   0.0033774777   20.329755      18.461058      1.868697      -1.9898048      17750.871    
    616000   1.0023978      0.0023323615   0.00066883     20.211991      18.72343       1.4885607     -1.8059102      17719.003    
    617000   1.0699716      0.0023323615   0.0020103848   20.002593      18.413686      1.5889079     -1.9747047      17714.5      
    618000   1.0371702      0.0023323615   0.0016865359   20.406385      18.866188      1.5401977     -1.7113561      17693.539    
    619000   0.96931942     0.0023323615  -3.625327e-05   20.104328      18.664888      1.4394393     -1.7819669      17768.867    
    620000   1.0405166      0.0023323615  -0.00076348318  20.182091      18.636924      1.5451672     -1.8126939      18008.382    
    621000   0.98753766     0.0023323615  -0.0043179034   20.070709      18.604216      1.4664934     -1.8311799      17887.747    
    622000   0.97695823     0.0023323615  -0.0013684882   20.229388      18.778605      1.450783      -1.8359149      17707.137    
    623000   1.0244754      0.0023323615  -0.0033257408   20.084133      18.562787      1.521346      -1.9261447      17712.422    
    624000   0.94954513     0.0023323615  -0.0047347501   20.097886      18.687812      1.4100745     -1.9142955      17909.698    
    625000   0.96701062     0.0023323615  -0.00084471208  19.991324      18.555313      1.4360108     -1.9499948      17954.624    
    626000   0.92461311     0.0023323615   0.00073297046  19.913258      18.540208      1.3730505     -1.9158203      17985.479    
    627000   1.0512006      0.0023323615  -0.00027960599  20.483604      18.922571      1.5610328     -1.6036441      17989.673    
    628000   1.01521        0.0023323615   0.00057652283  20.104743      18.597156      1.5075869     -1.8420146      17975.583    
    629000   0.93460473     0.0023323615  -0.0010601404   20.023001      18.635113      1.387888      -1.9248366      17868.684    
    630000   1.0268764      0.0023323615  -0.00039197344  20.088562      18.56365       1.5249114     -1.9186856      17901.029    
    631000   0.99810834     0.0023323615   0.0061320499   20.261827      18.779636      1.4821909     -1.7296969      17934.387    
    632000   1.027201       0.0023323615   0.004532057    20.070443      18.545049      1.5253935     -1.9285988      17897.745    
    633000   0.96079207     0.0023323615  -0.0022402622   20.458034      19.031258      1.4267762     -1.6409569      17970.752    
    634000   0.98015208     0.0023323615  -0.00081487786  20.275886      18.82036       1.4555258     -1.759836       17916.687    
    635000   1.0391953      0.0023323615  -0.0029197167   20.531473      18.988268      1.543205      -1.6529507      17792.312    
    636000   1.0404583      0.0023323615  -0.00033157665  20.207861      18.66278       1.5450806     -1.8875831      17595.304    
    637000   1.0590319      0.0023323615   0.00032260344  20.224718      18.652056      1.5726623     -1.8734947      17680.325    
    638000   0.98198799     0.0023323615  -0.0032895557   20.308648      18.850396      1.4582522     -1.7153068      17790.308    
    639000   0.92690427     0.0023323615   0.00035926345  20.059539      18.683087      1.3764528     -1.9275916      17838.114    
    640000   0.97292299     0.0023323615  -0.0016142707   20.186707      18.741916      1.4447906     -1.842881       17783.081    
    641000   0.92015074     0.0023323615   0.0043948987   19.86064       18.494216      1.3664238     -1.9562812      17804.103    
    642000   0.99199913     0.0023323615   0.0028143244   19.881988      18.408869      1.4731187     -2.0096665      17802.493    
    643000   0.94082063     0.0023323615   0.0017237993   20.357608      18.960489      1.3971186     -1.6454666      17931.771    
    644000   0.94099042     0.0023323615  -3.9111506e-05  20.273461      18.876091      1.3973708     -1.6578136      18163.846    
    645000   0.94173145     0.0023323615   0.0039619135   20.023242      18.624771      1.3984712     -2.1118115      17946.841    
    646000   0.86289326     0.0023323615  -0.0041437793   20.066123      18.784726      1.2813965     -1.7580477      18006.985    
    647000   0.9418558      0.0023323615  -0.0042302515   20.306345      18.907689      1.3986559     -1.6873073      18125.6      
    648000   1.0678388      0.0023323615   0.00047322899  20.235067      18.649327      1.5857406     -1.8142917      18030.2      
    649000   0.92699062     0.0023323615  -0.0027432206   20.415051      19.03847       1.3765811     -1.6506123      17964.587    
    650000   0.93547661     0.0023323615   0.0042767224   20.050838      18.661655      1.3891828     -1.8995312      17849.875    
    651000   0.97814644     0.0023323615  -0.0014712005   20.16066       18.708112      1.4525475     -1.8660082      17815.285    
    652000   0.88331006     0.0023323615   0.0011909109   20.032886      18.72117       1.3117154     -1.7253189      17731.332    
    653000   1.0547891      0.0023323615  -0.0041785259   20.462379      18.896017      1.5663618     -1.6526486      17873.404    
    654000   0.98603362     0.0023323615   0.004469276    20.206639      18.742379      1.4642599     -1.7598892      18050.54     
    655000   1.0310905      0.0023323615  -0.00045912669  20.374677      18.843507      1.5311693     -1.6897748      18256.028    
    656000   0.9991905      0.0023323615   9.3226905e-05  20.183615      18.699817      1.4837979     -1.7565883      18071.335    
    657000   1.1053584      0.0023323615   0.0095995926   20.446724      18.805266      1.6414572     -1.7481247      17914.018    
    658000   1.1064551      0.0023323615   0.0013653486   20.340023      18.696937      1.6430859     -1.7075473      17969.587    
    659000   0.90602589     0.0023323615   0.0020585871   20.206569      18.861121      1.3454484     -1.7446163      17933.272    
    660000   0.94981927     0.0023323615  -0.00085176857  20.278874      18.868393      1.4104816     -1.6594923      17922.546    
    661000   1.0211531      0.0023323615   0.00017115485  20.370231      18.853818      1.5164124     -1.7769331      17983.9      
    662000   0.97000831     0.0023323615  -0.0012767362   20.006202      18.56574       1.4404623     -1.923675       17861.036    
    663000   1.0238892      0.0023323615   0.0037029561   20.27427       18.753795      1.5204755     -1.6896523      17700.542    
    664000   1.0757963      0.0023323615  -0.0053263101   20.225825      18.628267      1.5975575     -1.9261651      17854.301    
    665000   0.86168742     0.0023323615  -0.0011135075   20.36891       19.089304      1.2796058     -1.5326748      17994.639    
    666000   0.98697175     0.0023323615  -0.0015576758   20.225943      18.76029       1.4656531     -1.7258455      17965.146    
    667000   0.96008152     0.0023323615   0.0047616909   20.079533      18.653812      1.4257211     -1.9179419      17833.174    
    668000   0.82788713     0.0023323615   0.00045241735  20.049115      18.819702      1.2294124     -1.8132619      17790.384    
    669000   1.0980336      0.0023323615   0.0013475966   20.275199      18.644619      1.6305799     -1.8127415      17792.398    
    670000   1.0321307      0.0023323615   0.0019019796   20.289479      18.756765      1.532714      -1.7232263      17772.604    
    671000   1.0827278      0.0023323615  -0.0019863727   20.406226      18.798375      1.6078508     -1.7765481      17717.405    
    672000   0.89710937     0.0023323615  -0.0015148104   19.960744      18.628537      1.3322074     -1.8508273      17744.957    
    673000   1.1053142      0.0023323615   0.0019362609   20.285012      18.64362       1.6413916     -1.7795507      17912.414    
    674000   1.018419       0.0023323615   0.0010894043   20.273286      18.760934      1.5123522     -1.7569268      18070.949    
    675000   0.90444369     0.0023323615   0.0019596599   20.016886      18.673787      1.3430989     -1.7679445      18054.086    
    676000   1.0655001      0.0023323615   0.0021626857   20.322413      18.740146      1.5822677     -1.7505645      18003.458    
    677000   1.0257119      0.0023323615   0.0015123958   20.237938      18.714756      1.5231821     -1.7811699      17976.713    
    678000   1.1020167      0.0023323615  -0.0031176574   20.749064      19.11257       1.6364948     -1.4789351      17972.15     
    679000   1.0336926      0.0023323615  -0.00053152365  20.032399      18.497365      1.5350335     -1.9312171      17984.299    
    680000   0.93496009     0.0023323615   0.0010100891   20.113964      18.725549      1.3884157     -1.7346874      17809.042    
    681000   0.81263497     0.0023323615   0.00044828987  20.081228      18.874466      1.2067629     -1.6310412      17919.875    
    682000   1.1009464      0.0023323615  -0.00084061201  20.472135      18.837229      1.6349053     -1.6830039      17977.105    
    683000   1.003476       0.0023323615   0.002189065    20.37196       18.881798      1.4901618     -1.6294444      18124.735    
    684000   0.99146282     0.0023323615   0.0012250334   19.813867      18.341544      1.4723223     -2.0805134      18037.958    
    685000   1.0223291      0.0023323615   0.0020336694   20.256392      18.738233      1.5181587     -1.8194454      17815.759    
    686000   0.97228752     0.0023323615   0.0012197953   19.870355      18.426508      1.443847      -2.053767       17841.248    
    687000   0.86259833     0.0023323615   0.0023254052   19.627893      18.346935      1.2809585     -2.0826035      17781.456    
    688000   0.98501018     0.0023323615   0.00066286857  20.195119      18.732379      1.4627401     -1.7662867      17812.872    
    689000   1.125485       0.0023323615  -0.0046492866   20.359607      18.688261      1.6713453     -1.9039231      17927.461    
    690000   1.03843        0.0023323615  -0.0037713713   20.4985        18.956432      1.5420685     -1.6714752      18080.906    
    691000   1.0383482      0.0023323615   0.00051969885  20.112022      18.570074      1.5419471     -1.9504541      18067.027    
    692000   0.98746632     0.0023323615   0.0030457932   20.112126      18.645738      1.4663875     -1.8558427      17926.022    
    693000   0.99073338     0.0023323615   0.0038320683   20.058367      18.587128      1.4712391     -1.8489633      17865.566    
    694000   0.8905325      0.0023323615   0.0031407412   19.934062      18.611621      1.3224408     -1.8485025      17815.905    
    695000   0.92098877     0.0023323615   0.0027919331   19.992028      18.62436       1.3676683     -1.9371096      17939.335    
    696000   1.0455412      0.0023323615  -0.0014094377   20.203933      18.651305      1.5526287     -1.9150072      17920.013    
    697000   1.1939641      0.0023323615  -0.0029526038   20.438566      18.66553       1.7730368     -1.9492654      17795.583    
    698000   0.93389677     0.0023323615   0.0011792352   20.087304      18.700468      1.3868367     -1.8106098      18097.931    
    699000   1.1239551      0.0023323615  -0.0025717036   20.380602      18.711529      1.6690733     -1.8092032      17974.234    
    700000   1.0125135      0.0023323615  -0.0048824677   20.393312      18.88973       1.5035825     -1.6598635      18008.577    
    701000   1.0233416      0.0023323615  -0.0012620049   20.23914       18.719477      1.5196623     -1.8002671      18012.915    
    702000   0.84089942     0.0023323615  -0.0014971209   20.145736      18.897001      1.2487356     -1.78767        17869.749    
    703000   1.0022581      0.0023323615  -0.00048642994  20.170742      18.682389      1.4883533     -1.7420349      17998.118    
    704000   1.036865       0.0023323615  -0.0009944624   20.803537      19.263793      1.5397445     -1.4320734      18144.005    
    705000   0.99223798     0.0023323615   0.00023077326  19.809154      18.335681      1.4734734     -2.1482765      17982.271    
    706000   1.0300556      0.0023323615   0.0011126679   20.159127      18.629494      1.5296326     -1.8473348      17830.373    
    707000   1.1672908      0.0023323615   0.0016939003   20.557735      18.824308      1.7334268     -1.6840926      18020.265    
    708000   1.0573439      0.0023323615  -0.00076859207  20.289444      18.719288      1.5701557     -1.8016335      17888.655    
    709000   0.93057783     0.0023323615   9.8646441e-05  19.951397      18.569489      1.3819081     -1.9483242      17852.704    
    710000   1.0139728      0.0023323615  -0.0013640658   19.782755      18.277005      1.5057496     -2.1630012      17888.276    
    711000   0.91732909     0.0023323615   8.2752543e-05  19.996625      18.634391      1.3622337     -1.8950996      17788.91     
    712000   0.82287365     0.0023323615  -0.0010114564   19.927866      18.705898      1.2219674     -1.762811       18094.667    
    713000   1.075281       0.0023323615   0.0017233625   20.316361      18.719569      1.5967922     -1.6811206      17968.089    
    714000   1.0142989      0.0023323615   0.00075721116  20.161809      18.655575      1.5062339     -1.8623443      18114.844    
    715000   0.85423796     0.0023323615  -0.0012112391   19.907982      18.639438      1.2685434     -1.8948944      17960.045    
    716000   1.049605       0.0023323615   0.0002245664   20.560411      19.001748      1.5586634     -1.6356402      18027.487    
    717000   0.8679433      0.0023323615   0.0022601805   20.032683      18.743787      1.2888958     -1.7181418      18016.45     
    718000   1.0112365      0.0023323615  -0.0018097629   19.827548      18.325861      1.5016862     -2.1983568      17883.501    
    719000   0.87156263     0.0023323615   0.00092216868  19.687626      18.393356      1.2942705     -2.1665809      17786.019    
    720000   1.035582       0.0023323615  -0.00010930722  20.003603      18.465763      1.5378393     -2.0638207      17724.531    
    721000   1.0219672      0.0023323615  -0.0027079684   19.933097      18.415476      1.5176213     -2.0663492      17726.168    
    722000   1.0379726      0.0023323615  -0.0018640101   20.099069      18.55768       1.5413893     -2.0275514      17946.828    
    723000   1.0748733      0.0023323615   0.00042136207  20.048836      18.452649      1.5961869     -2.055066       18053.694    
    724000   0.88977558     0.0023323615  -0.00010584317  19.969971      18.648654      1.3213167     -1.9026438      17883.62     
    725000   0.93650104     0.0023323615   0.0019688803   19.791415      18.400711      1.390704      -2.1234932      17897.771    
    726000   1.0199199      0.0023323615   0.0023917997   20.458467      18.943886      1.5145811     -1.613707       17897.305    
    727000   0.9923983      0.0023323615   0.0023412331   20.360354      18.886643      1.4737115     -1.4923124      17926.756    
    728000   1.0058501      0.0023323615   0.0023873433   20.333993      18.840305      1.4936874     -1.6511087      18123.231    
    729000   1.0518545      0.0023323615   0.0040982739   20.219863      18.657859      1.5620039     -1.8862965      18049.691    
    730000   0.8441367      0.0023323615  -0.0031782527   20.289799      19.036256      1.253543      -1.4940996      18067.396    
    731000   0.97084049     0.0023323615  -0.00010088571  19.982028      18.54033       1.4416981     -2.0225366      18075.393    
    732000   1.0791555      0.0023323615   0.00062794992  20.291316      18.688771      1.6025458     -1.9026185      18005.231    
    733000   0.93612771     0.0023323615  -0.0016950175   20.143656      18.753507      1.3901496     -1.8971063      17858.009    
    734000   0.93313582     0.0023323615   0.0018520189   20.178721      18.793014      1.3857067     -1.6595044      17976.176    
    735000   1.0531164      0.0023323615   0.006422432    20.215827      18.651949      1.5638779     -1.9441704      18015.211    
    736000   0.95309921     0.0023323615  -0.0029226126   20.246553      18.831201      1.4153523     -1.7158337      18029.405    
    737000   1.0381697      0.0023323615   0.00076433191  19.773646      18.231964      1.541682      -2.2788966      17823.538    
    738000   1.1751539      0.0023323615   0.0015248533   20.532098      18.786995      1.7451036     -1.7853227      17997.656    
    739000   0.99298503     0.0023323615   0.0017430208   20.205123      18.73054       1.4745828     -1.7700679      17943.647    
    740000   0.93766694     0.0023323615   0.0025087352   20.336907      18.944471      1.3924354     -1.5765533      18030.164    
    741000   0.97914903     0.0023323615  -0.00014025605  20.509312      19.055276      1.4540363     -1.3161766      18052.871    
    742000   1.0638586      0.0023323615  -0.00094404811  20.560517      18.980687      1.57983       -1.4356868      18384.928    
    743000   1.0407063      0.0023323615  -0.0019120261   20.413667      18.868218      1.5454489     -1.5968532      18374.095    
    744000   1.0994989      0.0023323615   0.0015245124   20.239271      18.606515      1.6327558     -1.8127747      17885.282    
    745000   1.2048238      0.0023323615  -0.0010774293   20.625265      18.836102      1.7891634     -1.6689059      17789.867    
    746000   1.0386122      0.0023323615   0.0022848832   20.393834      18.851495      1.5423391     -1.6780418      17952.516    
    747000   0.90348443     0.0023323615   0.002771863    20.01003       18.668356      1.3416744     -1.8378948      17934.999    
    748000   1.0633237      0.0023323615  -0.0046359023   20.543578      18.964542      1.5790357     -1.5327458      18100.787    
    749000   1.0054701      0.0023323615  -0.001624301    20.397596      18.904473      1.493123      -1.6239934      18037.244    
    750000   1.1642949      0.0023323615  -0.0012544609   20.561538      18.83256       1.7289779     -1.67369        18063.329    
    751000   1.0003239      0.0023323615   0.00012859037  20.415517      18.930036      1.485481      -1.7411272      18013.351    
    752000   0.9570204      0.0023323615  -0.0024071939   20.32706       18.905884      1.4211753     -1.8158325      17981.033    
    753000   1.0768309      0.0023323615   0.0015901222   20.411552      18.812458      1.5990939     -1.7578648      17928.907    
    754000   1.0404361      0.0023323615  -0.0028380023   19.926014      18.380967      1.5450476     -2.1049656      17913.324    
    755000   1.1249795      0.0023323615   0.001199865    20.535058      18.864464      1.6705945     -1.7602057      17835.497    
    756000   0.89553007     0.0023323615   0.00074220959  19.9304        18.600538      1.3298621     -1.8909549      17895.984    
    757000   0.91813384     0.0023323615   0.00079032945  20.092167      18.728739      1.3634288     -1.7701997      17895.293    
    758000   0.88606281     0.0023323615  -0.0038374603   19.923184      18.607381      1.3158033     -1.8764783      17820.244    
    759000   1.1282595      0.0023323615   0.0018040533   20.384596      18.709131      1.6754653     -1.9177892      17803.226    
    760000   0.961723       0.0023323615  -0.0034022067   20.01274       18.584581      1.4281587     -1.9019504      17835.149    
    761000   0.94034977     0.0023323615   0.0015489016   19.907248      18.510829      1.3964194     -2.0550423      17829.281    
    762000   1.1286223      0.0023323615  -0.00054113654  20.358322      18.682318      1.6760041     -1.9483786      17804.712    
    763000   0.98477167     0.0023323615   0.0022581477   20.170255      18.707869      1.4623859     -1.8764813      17800.362    
    764000   0.9857758      0.0023323615   0.0045692037   20.013103      18.549226      1.4638771     -1.9739176      18115.38     
    765000   1.0314095      0.0023323615   0.0020037681   20.102041      18.570398      1.5316431     -1.9506213      17955.596    
    766000   0.98280264     0.0023323615  -0.00076962266  20.319715      18.860253      1.4594619     -1.5857393      17827.507    
    767000   1.0180962      0.0023323615   0.0021133403   20.155339      18.643466      1.5118729     -1.8065533      17944.372    
    768000   0.93497058     0.0023323615  -0.0010394404   20.418008      19.029577      1.3884313     -1.4649855      18026.898    
    769000   0.9589759      0.0023323615   0.0016960789   20.079924      18.655845      1.4240792     -1.7420893      18007.638    
    770000   1.0268283      0.0023323615  -0.0023720536   20.01794       18.4931        1.52484       -1.9242874      17929.139    
    771000   1.0235478      0.0023323615  -0.0058112091   20.0556        18.535631      1.5199686     -2.0238665      17785.873    
    772000   1.0667652      0.0023323615   0.00134284     20.20949       18.625344      1.5841464     -1.7436258      17786.906    
    773000   1.0333857      0.0023323615  -0.0011703716   20.369833      18.835255      1.5345778     -1.7956285      17764.863    
    774000   1.1480505      0.0023323615  -0.0018088575   20.371461      18.666606      1.7048549     -1.758577       17962.899    
    775000   0.83591945     0.0023323615  -0.0013773755   19.751901      18.510561      1.2413404     -1.8929774      18045.684    
    776000   0.85849012     0.0023323615  -0.000370039    19.908022      18.633164      1.2748578     -1.8057031      17781.808    
    777000   1.0799661      0.0023323615   0.0044251787   20.355874      18.752125      1.6037497     -1.7912915      17835.85     
    778000   0.95560383     0.0023323615  -0.00013253086  20.211237      18.792165      1.4190717     -1.7249526      17775.399    
    779000   0.95113083     0.0023323615   0.00026681605  20.155572      18.743142      1.4124293     -1.7796337      17911.758    
    780000   1.167916       0.0023323615   0.0023248398   20.362589      18.628234      1.7343553     -1.9979878      17866.637    
    781000   0.82371429     0.0023323615   0.0011609884   19.894104      18.670888      1.2232157     -1.8573405      17839.73     
    782000   0.89073129     0.0023323615   0.00021768073  19.778011      18.455275      1.322736      -2.0932117      17687.917    
    783000   0.96613091     0.0023323615   0.0025623722   19.944666      18.509962      1.4347044     -2.0736439      17613.213    
    784000   1.139293       0.0023323615  -0.0010721082   20.280411      18.588561      1.6918501     -2.0345385      17730.284    
    785000   0.91657902     0.0023323615  -0.0027463477   20.061713      18.700593      1.3611198     -1.727035       17840.715    
    786000   0.90695264     0.0023323615   0.0020842004   20.205811      18.858986      1.3468247     -1.653454       17877.159    
    787000   1.0633708      0.0023323615  -0.0044683564   20.41438       18.835274      1.5791057     -1.7235342      17900.069    
    788000   1.059036       0.0023323615   0.0029983495   20.294283      18.721615      1.5726685     -1.700062       17942.33     
    789000   1.0083003      0.0023323615   0.0018339115   20.122002      18.624676      1.4973259     -1.8183145      17755.38     
    790000   1.0002858      0.0023323615  -0.0054650954   20.244538      18.759114      1.4854245     -1.8043769      17928.798    
    791000   1.0453454      0.0023323615   0.0058010905   20.151647      18.599309      1.552338      -1.8552155      17868.316    
    792000   0.94774272     0.0023323615   0.0019129569   20.303152      18.895754      1.4073979     -1.7375727      17781.97     
    793000   0.86757657     0.0023323615  -0.0025379564   20.271379      18.983028      1.2883512     -1.7069308      17930.91     
    794000   0.97990898     0.0023323615  -0.0026381963   20.308124      18.852959      1.4551648     -1.6581227      18036.061    
    795000   0.91155151     0.0023323615   0.0011446141   20.107499      18.753845      1.353654      -1.8745176      17853.627    
    796000   0.96355851     0.0023323615  -0.0052735013   20.458942      19.028057      1.4308844     -1.7631754      17642.824    
    797000   0.83021022     0.0023323615  -0.001002982    20.061941      18.829079      1.2328622     -1.6977195      17784.941    
    798000   1.0024071      0.0023323615  -0.0025133495   20.19965       18.711076      1.4885746     -1.8379739      17862.506    
    799000   1.0218389      0.0023323615  -0.0045744773   20.214908      18.697477      1.5174307     -1.8226119      17851.884    
    800000   0.94136432     0.0023323615  -0.0036612433   20.392136      18.99421       1.397926      -1.531788       17946.96     
    801000   1.0011293      0.0023323615   0.002772556    20.139475      18.652798      1.4866771     -1.8214747      17794.85     
    802000   1.0267108      0.0023323615   0.0008581756   20.35559       18.830924      1.5246656     -1.6630148      17951.208    
    803000   1.0027768      0.0023323615   0.00012510736  20.287318      18.798195      1.4891236     -1.7607077      18128.655    
    804000   1.0155851      0.0023323615  -0.0029601977   20.192369      18.684225      1.5081438     -1.7589191      17969.5      
    805000   0.972276       0.0023323615  -0.0025305086   20.192109      18.748279      1.4438299     -1.8363931      18051.646    
    806000   0.94243453     0.0023323615   0.0012504635   19.796916      18.397401      1.3995153     -2.031926       17914.443    
    807000   0.84598936     0.0023323615  -0.00018174977  20.006774      18.75048       1.2562942     -1.6947092      17890.691    
    808000   0.90538055     0.0023323615   0.0015579389   19.947855      18.603365      1.3444901     -2.0692978      17855.914    
    809000   1.0308219      0.0023323615  -0.0050168688   20.387235      18.856465      1.5307705     -1.8048102      17756.141    
    810000   0.89995329     0.0023323615  -0.0027259184   20.078174      18.741744      1.3364306     -1.8478204      17886.292    
    811000   1.0641593      0.0023323615  -0.0021134617   20.364161      18.783885      1.5802765     -1.7604946      18015.227    
    812000   0.98608568     0.0023323615  -0.0015302274   19.845363      18.381026      1.4643372     -1.9216558      17884.279    
    813000   1.0081258      0.0023323615  -2.2139109e-05  20.130008      18.632942      1.4970669     -1.8581876      17900.05     
    814000   0.98756594     0.0023323615   0.0022770695   20.403881      18.937346      1.4665354     -1.8612515      17859.499    
    815000   1.0788802      0.0023323615  -0.0001806199   20.303804      18.701667      1.6021372     -1.7771676      18019.37     
    816000   0.85207793     0.0023323615   0.0033278257   19.706384      18.441048      1.2653357     -2.0451827      17948.974    
    817000   0.94455155     0.0023323615  -0.0019595496   19.942935      18.540276      1.4026591     -1.8780174      17887.11     
    818000   1.024821       0.0023323615   0.00093590159  20.303027      18.781168      1.5218592     -1.6842186      17898.394    
    819000   1.0181491      0.0023323615  -0.0061939023   20.556563      19.044611      1.5119514     -1.5780582      17987.407    
    820000   0.84546624     0.0023323615   0.0011038094   20.228956      18.973439      1.2555174     -1.6845282      17903.473    
    821000   0.9555521      0.0023323615   0.0031646703   20.032616      18.613621      1.4189949     -1.9592883      17910.572    
    822000   0.94835373     0.0023323615  -0.00073443138  20.075131      18.666825      1.4083053     -1.8394964      17995.641    
    823000   1.0740575      0.0023323615   0.00085606168  20.305923      18.710948      1.5949754     -1.7878602      18068.103    
    824000   0.99933485     0.0023323615   0.0031907995   20.134237      18.650225      1.4840123     -1.8116835      17957.053    
    825000   0.98876922     0.0023323615  -0.00019984277  20.294476      18.826154      1.4683223     -1.6895986      17821.825    
    826000   1.0418717      0.0023323615   0.00067349932  20.048713      18.501534      1.5471795     -2.0209637      17879.311    
    827000   1.0682654      0.0023323615  -0.0026899082   20.20022       18.613845      1.5863741     -1.8619447      17954.782    
    828000   1.137449       0.0023323615   0.0010824262   20.463137      18.774025      1.6891117     -1.781423       17722.259    
    829000   1.1399326      0.0023323615   0.00018736576  20.294028      18.601229      1.6927999     -1.982406       17834.484    
    830000   0.97102232     0.0023323615   0.0021008306   19.631043      18.189075      1.4419681     -2.3402426      17755.007    
    831000   1.1446689      0.0023323615   0.0032895052   20.242841      18.543007      1.6998333     -1.9529686      17732.501    
    832000   0.79906325     0.0023323615   6.2773193e-05  19.67954       18.492931      1.1866089     -1.9598642      17943.305    
    833000   1.1049116      0.0023323615  -0.0034083111   20.31703       18.676236      1.6407937     -1.8130036      17863.35     
    834000   0.99676637     0.0023323615  -0.0033496726   20.050581      18.570383      1.4801981     -2.0013894      17914.915    
    835000   0.93161404     0.0023323615  -0.00078494232  20.30581       18.922363      1.3834469     -1.6266146      17975.454    
    836000   1.0226527      0.0023323615  -4.7963377e-05  20.342822      18.824182      1.5186393     -1.7168315      17956.63     
    837000   0.91747335     0.0023323615  -0.00087231203  20.091744      18.729296      1.3624479     -1.8393922      18185.082    
    838000   1.0652861      0.0023323615   0.0017736602   20.564079      18.982129      1.5819499     -1.6263219      18032.953    
    839000   0.99377795     0.0023323615   0.0019492158   20.258262      18.782502      1.4757603     -1.7883231      18003.915    
    840000   0.98241854     0.0023323615  -0.00079459243  19.870628      18.411737      1.4588915     -2.0710144      17913.764    
    841000   1.0896903      0.0023323615  -0.0018847584   20.437451      18.819261      1.6181901     -1.7115115      17906.88     
    842000   0.99267291     0.0023323615   0.00042145932  20.041481      18.567362      1.4741193     -1.9390868      17626.877    
    843000   0.86715663     0.0023323615   0.0011702251   20.056227      18.7685        1.2877276     -1.7816771      17704.407    
    844000   0.99165219     0.0023323615   0.0012470743   19.943728      18.471124      1.4726035     -2.0456165      17717.572    
    845000   0.90668982     0.0023323615  -0.0021687547   19.661238      18.314803      1.3464344     -2.1797324      17717.874    
    846000   0.98724341     0.0023323615   0.0038634211   20.006586      18.54053       1.4660565     -1.9460142      17600.299    
    847000   0.95864145     0.0023323615   0.0054609263   20.209844      18.786262      1.4235826     -1.7485327      17740.563    
    848000   1.1176408      0.0023323615  -0.0018239163   20.398126      18.738429      1.6596966     -1.7190674      17829.488    
    849000   0.96265607     0.0023323615   0.002716554    20.049504      18.619959      1.4295443     -1.8429941      17876.265    
    850000   0.94251291     0.0023323615  -0.00098299831  20.123152      18.723521      1.3996317     -1.8559075      17938.074    
    851000   0.93783459     0.0023323615  -0.00081109711  20.113143      18.720459      1.3926844     -1.8784282      17957.247    
    852000   1.143484       0.0023323615  -0.00062335337  20.683816      18.985742      1.6980737     -1.6388908      18117.073    
    853000   1.2111331      0.0023323615  -0.00084462342  20.308253      18.509721      1.7985327     -1.9776865      18124.679    
    854000   1.0258601      0.0023323615  -0.0046483359   20.219285      18.695883      1.5234023     -1.9397436      18267.592    
    855000   0.96243188     0.0023323615   0.002313971    19.937521      18.508309      1.4292113     -1.9432558      18177.18     
    856000   0.97995909     0.0023323615   0.0025366803   20.66268       19.20744       1.4552392     -1.5278184      18318.891    
    857000   0.93376998     0.0023323615  -0.0012193486   20.367089      18.980441      1.3866484     -1.5953482      18370.578    
    858000   1.065389       0.0023323615  -0.0011192357   20.599007      19.016904      1.5821027     -1.6027229      18341.034    
    859000   1.2263504      0.0023323615   6.2834972e-05  20.640331      18.8192        1.8211304     -1.7424615      18240.818    
    860000   1.0077452      0.0023323615   8.6981431e-05  20.220181      18.72368       1.4965016     -1.7462897      18205.345    
    861000   0.92520646     0.0023323615  -0.0012219731   20.052462      18.678531      1.3739316     -1.7193445      18320.825    
    862000   1.0394253      0.0023323615  -0.0040148706   20.478214      18.934667      1.5435466     -1.7212767      18246.263    
    863000   0.9855715      0.0023323615   0.0050843454   20.136317      18.672743      1.4635737     -1.9101688      18189.221    
    864000   0.973486       0.0023323615  -0.0024317445   20.371332      18.925705      1.4456267     -1.6803629      18202.782    
    865000   0.93478137     0.0023323615  -0.0020255763   20.487637      19.099487      1.3881503     -1.4104902      18229.417    
    866000   1.0421529      0.0023323615   0.0059392929   20.21534       18.667743      1.547597      -1.7379946      18282.163    
    867000   0.89619638     0.0023323615  -0.0043051113   20.039851      18.709         1.3308516     -1.8407156      17992.148    
    868000   1.075119       0.0023323615   0.0011295249   20.52507       18.928518      1.5965517     -1.577123       18041.088    
    869000   1.0286487      0.0023323615   0.0022295041   19.92405       18.396506      1.5275433     -2.1286986      17902.782    
    870000   1.0861664      0.0023323615  -0.00090106231  20.188733      18.575776      1.6129571     -1.880541       17905.958    
    871000   0.9495481      0.0023323615   0.0013525794   20.179189      18.76911       1.4100789     -1.7812359      17764.522    
    872000   0.87245644     0.0023323615   0.0029355745   19.974122      18.678524      1.2955978     -1.9021195      17689.572    
    873000   1.0486874      0.0023323615  -0.0011499977   20.335781      18.778481      1.5573008     -1.83863        17981.315    
    874000   1.0307854      0.0023323615  -2.6404331e-05  20.044801      18.514085      1.5307163     -1.8990945      17753.213    
    875000   0.98379118     0.0023323615  -0.00011873443  20.349647      18.888717      1.4609299     -1.6948208      17760.413    
    876000   0.93309041     0.0023323615   0.0019998291   20.107067      18.721428      1.3856393     -1.9073065      17758.82     
    877000   0.93202501     0.0023323615  -0.0016932596   19.937082      18.553025      1.3840571     -2.0256895      17658.833    
    878000   0.89096697     0.0023323615   0.0014314688   19.910073      18.586987      1.323086      -1.9871322      17638.06     
    879000   1.1650684      0.0023323615   0.0022749485   20.395679      18.665552      1.7301266     -1.9015237      17824.025    
    880000   0.97696898     0.0023323615   0.00076854999  20.020055      18.569256      1.4507989     -1.8299063      17966.896    
    881000   1.0214504      0.0023323615  -0.00032949171  20.268673      18.751819      1.5168539     -1.8002168      17878.286    
    882000   1.0147574      0.0023323615   0.00042696788  19.991836      18.484921      1.5069147     -2.0774896      17994.756    
    883000   1.0109418      0.0023323615  -0.003306967    20.372318      18.871069      1.5012486     -1.6722169      17863.146    
    884000   0.94987634     0.0023323615  -0.0011326086   20.2033        18.792733      1.4105664     -1.858022       18030.907    
    885000   1.1270248      0.0023323615   0.0015886435   20.265317      18.591685      1.6736318     -1.9976079      17907.915    
    886000   0.91368391     0.0023323615  -0.0020369386   20.10866       18.751839      1.3568206     -1.7226744      18042.918    
    887000   0.96802637     0.0023323615  -0.00043860766  20.222521      18.785001      1.4375192     -1.7999567      18053.024    
    888000   1.0682572      0.0023323615   7.9721189e-05  20.128298      18.541936      1.586362      -1.8952689      17867.862    
    889000   1.084935       0.0023323615  -0.00093570693  20.387448      18.77632       1.6111285     -1.8066078      17883.276    
    890000   0.99202208     0.0023323615   0.0064065028   20.013809      18.540656      1.4731528     -2.0134039      17667.253    
    891000   1.0588595      0.0023323615   0.0033860506   20.033975      18.461569      1.5724064     -2.0232373      17911.562    
    892000   1.0016103      0.0023323615   0.0030459693   19.88808       18.400689      1.4873912     -2.0710983      17798.404    
    893000   1.0382885      0.0023323615  -0.0020137448   20.279139      18.73728       1.5418585     -1.828906       17933.397    
    894000   1.0415813      0.0023323615   0.0039327246   20.092986      18.546237      1.5467483     -1.8522311      17860.656    
    895000   0.81821754     0.0023323615  -0.0012877676   19.965505      18.750451      1.215053      -1.7112129      17889.854    
    896000   1.0153581      0.0023323615  -5.0411607e-05  20.148474      18.640667      1.5078068     -1.8569084      17785.122    
    897000   0.87829605     0.0023323615   0.001148734    19.914512      18.610243      1.3042696     -1.9301868      17757.098    
    898000   0.91973451     0.0023323615  -0.0043039849   19.934497      18.568691      1.3658057     -1.8949285      17826.864    
    899000   1.0717459      0.0023323615  -0.0029924099   20.197723      18.60618       1.5915427     -1.9144894      17873.823    
    900000   1.0472492      0.0023323615   6.553565e-05   20.337978      18.782813      1.5551651     -1.7872855      18007.969    
    901000   0.94949378     0.0023323615   0.00070742448  19.959457      18.549459      1.4099983     -2.0141619      17753.372    
    902000   1.0675895      0.0023323615  -0.0014585      20.430546      18.845176      1.5853704     -1.7888893      17803.394    
    903000   0.91563872     0.0023323615   0.0010474819   20.013076      18.653352      1.3597235     -1.8492633      17888.795    
    904000   0.8958918      0.0023323615  -0.004253705    19.924457      18.594058      1.3303993     -1.7933149      18036.977    
    905000   1.1410372      0.0023323615   0.0037259081   20.262099      18.567659      1.6944402     -2.0179927      17928.756    
    906000   0.86392367     0.0023323615  -0.0030442347   19.79398       18.511053      1.2829267     -1.8985878      17965.357    
    907000   1.051341       0.0023323615   0.0029087737   19.971283      18.410042      1.5612414     -2.0098468      17917.774    
    908000   0.99631908     0.0023323615  -0.004713647    20.034608      18.555074      1.4795338     -1.907891       17897.723    
    909000   0.9786117      0.0023323615   0.0021362863   20.314573      18.861334      1.4532384     -1.7303884      17927.365    
    910000   0.90415406     0.0023323615  -0.00078204502  20.152168      18.809499      1.3426688     -1.7599675      17872.572    
    911000   0.96296878     0.0023323615   0.0031554513   20.198285      18.768277      1.4300086     -1.7713627      18102.041    
    912000   0.95495356     0.0023323615   0.0034455723   20.356631      18.938525      1.418106      -1.6031646      18067.465    
    913000   1.1760864      0.0023323615   0.0057923125   20.215797      18.469309      1.7464883     -1.9114409      18107.134    
    914000   1.0477901      0.0023323615   0.0012251965   20.498673      18.942705      1.5559683     -1.6176147      18082.99     
    915000   0.92144874     0.0023323615  -0.0032391647   20.356403      18.988051      1.3683514     -1.6055437      18089.026    
    916000   1.0725666      0.0023323615  -0.0017220874   20.280671      18.687909      1.5927615     -1.6984117      18250.704    
    917000   0.9636683      0.0023323615   0.0017900788   20.342923      18.911876      1.4310474     -1.6131929      18119.694    
    918000   1.0031675      0.0023323615   0.0031237131   20.326575      18.836871      1.4897037     -1.6432087      18102.793    
    919000   1.0259568      0.0023323615  -0.0028128009   20.211638      18.688092      1.5235459     -1.830428       18102.963    
    920000   1.057614       0.0023323615  -0.0012766358   20.339708      18.769151      1.5705568     -1.6201485      18099.694    
    921000   1.0042467      0.0023323615   0.0035388977   20.092025      18.600719      1.4913064     -1.9750672      18013.026    
    922000   0.91179511     0.0023323615   0.00028395131  20.091992      18.737977      1.3540157     -1.8505902      18172.243    
    923000   0.92680268     0.0023323615  -0.00033675538  19.928552      18.55225       1.376302      -2.1251449      18020.33     
    924000   1.1097326      0.0023323615   0.002855943    20.249807      18.601854      1.6479529     -1.8211815      18061.07     
    925000   0.97594994     0.0023323615  -0.0026532664   20.074995      18.625709      1.4492857     -1.8840489      17983.382    
    926000   1.0949647      0.0023323615   0.0012447949   20.332335      18.706313      1.6260226     -1.8728371      18013.312    
    927000   0.91561191     0.0023323615   0.00073002009  20.127609      18.767925      1.3596837     -1.652219       17988.23     
    928000   1.0528547      0.0023323615  -0.0021583578   20.481266      18.917776      1.5634892     -1.5507972      18190.143    
    929000   0.99189438     0.0023323615  -0.001730522    20.228759      18.755796      1.4729632     -1.8158259      18238.974    
    930000   0.99050607     0.0023323615  -5.1207697e-05  20.315236      18.844334      1.4709015     -1.6409902      18392.957    
    931000   0.9195982      0.0023323615   0.0035473224   20.110324      18.744721      1.3656033     -1.7456263      18481.905    
    932000   1.0472651      0.0023323615   0.00095131612  20.401489      18.8463        1.5551887     -1.7521402      18119.484    
    933000   1.0623866      0.0023323615  -0.00060880652  20.126994      18.54935       1.5776441     -2.019152       18074.326    
    934000   1.0203044      0.0023323615   0.00078593433  20.262749      18.747597      1.5151521     -1.7069623      18124.024    
    935000   0.92356498     0.0023323615   0.0034238836   20.226965      18.855471      1.371494      -1.7948651      18356.631    
    936000   1.1002517      0.0023323615  -0.0042450684   20.550751      18.916878      1.6338738     -1.6695282      18449.663    
    937000   1.0165498      0.0023323615  -0.00062842035  20.524155      19.014578      1.5095765     -1.4819416      18642.051    
    938000   1.1075659      0.0023323615  -0.0012033703   20.695525      19.05079       1.6447353     -1.4105763      18652.551    
    939000   0.925564       0.0023323615   0.00037920289  20.205582      18.83112       1.3744625     -1.6772912      18669.87     
    940000   1.0110107      0.0023323615  -0.00052517926  20.475843      18.974492      1.5013508     -1.5869598      18501.577    
    941000   1.0463332      0.0023323615  -0.0014251005   20.255847      18.702042      1.5538049     -1.7335426      18467.86     
    942000   0.95057771     0.0023323615  -0.0022049348   20.469123      19.057515      1.4116079     -1.4565027      18599.465    
    943000   0.91804624     0.0023323615   0.0050795737   20.091761      18.728462      1.3632987     -1.6668023      18597.004    
    944000   0.85727337     0.0023323615   0.00073600495  20.163655      18.890605      1.273051      -1.6270968      18306.816    
    945000   1.0093176      0.0023323615  -0.0013364246   20.343957      18.84512       1.4988366     -1.6718789      18304.123    
    946000   1.0146567      0.0023323615   9.3599937e-05  20.277924      18.771158      1.5067652     -1.7782185      18185.095    
    947000   0.89968624     0.0023323615  -0.00048410553  19.771321      18.435287      1.3360341     -1.9182918      18226.641    
    948000   1.0396354      0.0023323615  -0.0018441966   20.179076      18.635218      1.5438586     -1.8451614      18083.616    
    949000   1.1810489      0.0023323615  -0.00064306141  20.337918      18.58406       1.7538575     -1.9985671      18146.763    
    950000   1.0444347      0.0023323615  -0.0043754649   20.558906      19.00792       1.5509856     -1.6004628      18237.481    
    951000   1.0106224      0.0023323615  -0.00090623311  20.338067      18.837293      1.5007743     -1.7450149      18121.474    
    952000   1.0774791      0.0023323615   0.0017290698   20.424747      18.824691      1.6000564     -1.8585013      18054.369    
    953000   0.8970199      0.0023323615  -0.0041563736   20.178923      18.846849      1.3320746     -1.6787397      18115.11     
    954000   0.90802021     0.0023323615  -0.0017072679   20.119437      18.771027      1.34841       -1.7108599      18173.635    
    955000   0.97837369     0.0023323615  -0.0030344442   20.090915      18.63803       1.4528849     -1.7452953      18138.229    
    956000   0.8521423      0.0023323615  -0.00049838184  19.880229      18.614797      1.2654313     -1.8548048      18171.508    
    957000   0.9985294      0.0023323615   0.000219856    20.482958      19.000142      1.4828162     -1.5506005      18234.086    
    958000   1.1103613      0.0023323615   0.00076960195  20.442514      18.793628      1.6488865     -1.7559065      18045.648    
    959000   0.91244643     0.0023323615   0.00099971889  20.171712      18.816729      1.354983      -1.7724818      17953.545    
    960000   1.0313824      0.0023323615  -0.0025782119   20.25281       18.721207      1.5316029     -1.8078899      17978.252    
    961000   1.0421842      0.0023323615  -0.0045972202   20.070732      18.523089      1.5476435     -1.9630176      18053.083    
    962000   0.91647344     0.0023323615  -0.0016576085   20.0538        18.692837      1.3609631     -1.9843351      18117.073    
    963000   1.0242383      0.0023323615   0.0027860714   20.261658      18.740664      1.5209939     -1.8310318      18275.773    
    964000   1.0680058      0.0023323615   0.00072687945  20.082547      18.496559      1.5859885     -2.0148331      18172.981    
    965000   1.1433557      0.0023323615  -0.0036878178   20.552753      18.85487       1.6978833     -1.6807972      18236.188    
    966000   0.86762805     0.0023323615  -0.0026327443   19.999729      18.711301      1.2884277     -1.9300872      18227.62     
    967000   1.0584872      0.0023323615  -0.0010768251   19.980514      18.40866       1.5718535     -2.0102872      18254.525    
    968000   1.2079361      0.0023323615  -0.0019480504   20.405854      18.612069      1.793785      -1.7724789      18257.003    
    969000   0.93382846     0.0023323615  -0.0033079558   20.011725      18.624989      1.3867353     -1.8125806      18327.186    
    970000   1.1336109      0.0023323615  -0.006779227    20.216224      18.532812      1.6834122     -2.0693022      18264.887    
    971000   1.0857285      0.0023323615  -0.0029685901   20.185155      18.572849      1.6123068     -1.9653449      18155.824    
    972000   0.83293555     0.0023323615   0.0027377995   19.837741      18.600831      1.2369093     -1.9234922      18068.963    
    973000   1.0401458      0.0023323615   0.0035058484   20.367153      18.822536      1.5446165     -1.7089207      18002.857    
    974000   0.94248968     0.0023323615   0.0015960112   20.0819        18.682303      1.3995972     -1.7555376      18041.806    
    975000   0.95384733     0.0023323615  -0.001034356    19.904957      18.488493      1.4164633     -2.093452       18076.414    
    976000   0.91966521     0.0023323615  -0.00035771262  19.975525      18.609822      1.3657028     -1.8565916      18100.051    
    977000   0.93707002     0.0023323615   0.00012763321  20.145593      18.754044      1.391549      -1.878339       18161.804    
    978000   0.92819414     0.0023323615   0.0013953339   20.079161      18.700793      1.3783683     -1.7888048      18185.636    
    979000   0.88598359     0.0023323615  -0.0028417602   20.252673      18.936988      1.3156856     -1.6860581      18262.017    
    980000   1.1076261      0.0023323615  -0.00063669982  20.429331      18.784506      1.6448247     -1.6931731      18221.617    
    981000   1.0811879      0.0023323615   0.0017403695   20.282554      18.67699       1.605564      -1.7899491      18088.325    
    982000   1.0904846      0.0023323615  -0.00064203768  20.340501      18.721131      1.6193696     -1.8051724      18027.702    
    983000   1.0296572      0.0023323615  -0.0021227331   20.258411      18.72937       1.5290409     -1.6289865      18036.693    
    984000   1.0464423      0.0023323615  -0.0021167841   19.972949      18.418983      1.5539668     -2.0109335      18013.198    
    985000   0.95216396     0.0023323615  -0.0007608216   20.243978      18.830014      1.4139635     -1.6772035      17925.214    
    986000   0.94380233     0.0023323615   0.002207336    19.979143      18.577596      1.4015465     -1.830391       18156.637    
    987000   0.9299603      0.0023323615   0.0054877424   20.143503      18.762512      1.380991      -1.7858006      18235.316    
    988000   0.8638991      0.0023323615   0.0028510665   20.17876       18.89587       1.2828902     -1.6999986      18078.689    
    989000   1.0088516      0.0023323615  -0.0020093764   20.217321      18.719177      1.4981447     -1.7466718      18037.851    
    990000   0.86822379     0.0023323615  -0.0030895716   19.755949      18.466636      1.2893123     -2.0697548      18138.186    
    991000   0.93106463     0.0023323615   0.0049264554   20.023459      18.640828      1.382631      -1.9094947      18187.859    
    992000   0.89642532     0.0023323615  -0.0046478379   20.015545      18.684353      1.3311916     -1.9284336      18068.639    
    993000   1.0034191      0.0023323615  -0.003634923    20.045104      18.555027      1.4900774     -2.0573064      18279.157    
    994000   0.88518048     0.0023323615   0.0044523597   19.796945      18.482452      1.314493      -1.9620968      18294.066    
    995000   1.0797258      0.0023323615  -0.00055914584  20.148795      18.545402      1.6033929     -1.9363204      18217.054    
    996000   1.0435792      0.0023323615  -0.0028397611   20.055581      18.505866      1.5497151     -1.9608241      18032.819    
    997000   1.0206069      0.0023323615   0.000787263    20.157057      18.641455      1.5156012     -1.8569806      18139.03     
    998000   1.0864541      0.0023323615   0.0047957407   20.065538      18.452153      1.6133843     -1.9247222      18038.01     
    999000   0.94244165     0.0023323615  -0.00064102519  19.856423      18.456898      1.3995259     -1.9070873      18141.621    
   1000000   1.0680954      0.0023323615   0.0019694547   20.165205      18.579083      1.5861217     -2.0066925      18175.79     
Loop time of 55.3497 on 1 procs for 1000000 steps with 100 atoms

Performance: 7804922.863 tau/day, 18066.951 timesteps/s
99.4% CPU use with 1 MPI tasks x 1 OpenMP threads

MPI task timing breakdown:
Section |  min time  |  avg time  |  max time  |%varavg| %total
---------------------------------------------------------------
Pair    | 46.368     | 46.368     | 46.368     |   0.0 | 83.77
Bond    | 1.2933     | 1.2933     | 1.2933     |   0.0 |  2.34
Neigh   | 3.7947     | 3.7947     | 3.7947     |   0.0 |  6.86
Comm    | 1.385      | 1.385      | 1.385      |   0.0 |  2.50
Output  | 0.22036    | 0.22036    | 0.22036    |   0.0 |  0.40
Modify  | 1.9396     | 1.9396     | 1.9396     |   0.0 |  3.50
Other   |            | 0.3491     |            |       |  0.63

Nlocal:            100 ave         100 max         100 min
Histogram: 1 0 0 0 0 0 0 0 0 0
Nghost:            326 ave         326 max         326 min
Histogram: 1 0 0 0 0 0 0 0 0 0
Neighs:           4851 ave        4851 max        4851 min
Histogram: 1 0 0 0 0 0 0 0 0 0

Total # of neighbors = 4851
Ave neighs/atom = 48.51
Ave special neighs/atom = 1.98
Neighbor list builds = 97815
Dangerous builds = 79416

write_data      ${outputfile_assembled} nofix nocoeff
write_data      7_assembled.data nofix nocoeff
System init for write_data ...
Generated 0 of 6 mixed pair_coeff terms from geometric mixing rule

Total wall time: 0:00:56
