LAMMPS (23 Jun 2022 - Update 1)
OMP_NUM_THREADS environment is not set. Defaulting to 1 thread. (src/comm.cpp:98)
  using 1 OpenMP thread(s) per MPI task


variable        runtime equal 1000000
variable		subsample_rate equal 1000

variable		outputfile_created string '3_created.data'
variable		outputfile_relaxed string '5_relaxed.data'
variable		outputfile_selfasb string '6_a_self_assemble.lammpstrj'
variable		outputfile_trajlin string '6_b_trajlin.data'
variable		outputfile_assembled string '7_assembled.data'

units           lj
atom_style      full
dimension       3
boundary        p p p
timestep        0.005

read_data       ${outputfile_created}
read_data       3_created.data
Reading data file ...
  orthogonal box = (0 0 0) to (35 35 35)
  1 by 1 by 1 MPI processor grid
  reading atoms ...
  100 atoms
  reading velocities ...
  100 velocities
  scanning bonds ...
  1 = max bonds/atom
  reading bonds ...
  99 bonds
Finding 1-2 1-3 1-4 neighbors ...
  special bond factors lj:    0        0        0       
  special bond factors coul:  0        0        0       
     2 = max # of 1-2 neighbors
     2 = max # of 1-3 neighbors
     4 = max # of 1-4 neighbors
     6 = max # of special neighbors
  special bonds CPU = 0.001 seconds
  read_data CPU = 0.008 seconds

bond_style      fene
bond_coeff      * 30.0 1.5 1.0 1.0
special_bonds   fene
Finding 1-2 1-3 1-4 neighbors ...
  special bond factors lj:    0        1        1       
  special bond factors coul:  0        1        1       
     2 = max # of 1-2 neighbors
     6 = max # of special neighbors
  special bonds CPU = 0.000 seconds

variable        Temp equal 1.0
variable        velSeed equal 926458

velocity        all create ${Temp} ${velSeed}
velocity        all create 1 ${velSeed}
velocity        all create 1 926458

### Output
thermo_style    custom step temp density press etotal pe ke epair spcpu
thermo          1000

###########################################################################
# Soft relaxation (to remove overlaps of particles)
######################################################################

pair_style      soft 1.0
pair_coeff      * * 0.0
variable        prefactor equal ramp(0,300)
fix             rampSoft all adapt 1 pair soft a * * v_prefactor

minimize        0.0 1.0e-8 1000 100000
WARNING: Using 'neigh_modify every 1 delay 0 check yes' setting during minimization (src/min.cpp:187)
Generated 0 of 6 mixed pair_coeff terms from geometric mixing rule
Neighbor list info ...
  update every 1 steps, delay 0 steps, check yes
  max neighbors/atom: 2000, page size: 100000
  master list distance cutoff = 1.3
  ghost atom cutoff = 1.3
  binsize = 0.65, bins = 54 54 54
  1 neighbor lists, perpetual/occasional/extra = 1 0 0
  (1) pair soft, perpetual
      attributes: half, newton on
      pair build: half/bin/newton
      stencil: half/bin/3d
      bin: standard
WARNING: Communication cutoff 1.3 is shorter than a bond length based estimate of 1.7550000000000001. This may lead to errors. (src/comm.cpp:727)
Per MPI rank memory allocation (min/avg/max) = 8.346 | 8.346 | 8.346 Mbytes
   Step          Temp         Density         Press          TotEng         PotEng         KinEng         E_pair         S/CPU     
         0   1              0.0023323615  -0.0039617958   21.524174      20.039174      1.485          0              0            
       362   1              0.0023323615   0.0023090379   21.485548      20.000548      1.485          0              68253.453    
Loop time of 0.00530609 on 1 procs for 362 steps with 100 atoms

99.3% CPU use with 1 MPI tasks x 1 OpenMP threads

Minimization stats:
  Stopping criterion = force tolerance
  Energy initial, next-to-last, final = 
      20.0391741078675   20.0005480767337   20.0005480767337
  Force two-norm initial, final = 11.878422 7.9509778e-09
  Force max component initial, final = 6.6117807 1.3572772e-09
  Final line search alpha, max atom move = 1 1.3572772e-09
  Iterations, force evaluations = 362 738

MPI task timing breakdown:
Section |  min time  |  avg time  |  max time  |%varavg| %total
---------------------------------------------------------------
Pair    | 0.00021385 | 0.00021385 | 0.00021385 |   0.0 |  4.03
Bond    | 0.0023336  | 0.0023336  | 0.0023336  |   0.0 | 43.98
Neigh   | 0.0015728  | 0.0015728  | 0.0015728  |   0.0 | 29.64
Comm    | 0.0001916  | 0.0001916  | 0.0001916  |   0.0 |  3.61
Output  | 0          | 0          | 0          |   0.0 |  0.00
Modify  | 0          | 0          | 0          |   0.0 |  0.00
Other   |            | 0.0009943  |            |       | 18.74

Nlocal:            100 ave         100 max         100 min
Histogram: 1 0 0 0 0 0 0 0 0 0
Nghost:             20 ave          20 max          20 min
Histogram: 1 0 0 0 0 0 0 0 0 0
Neighs:              0 ave           0 max           0 min
Histogram: 1 0 0 0 0 0 0 0 0 0

Total # of neighbors = 0
Ave neighs/atom = 0
Ave special neighs/atom = 1.98
Neighbor list builds = 17
Dangerous builds = 0

fix             nvtSoft all nvt temp ${Temp} ${Temp} 0.5
fix             nvtSoft all nvt temp 1 ${Temp} 0.5
fix             nvtSoft all nvt temp 1 1 0.5
run             100000
Generated 0 of 6 mixed pair_coeff terms from geometric mixing rule
WARNING: Communication cutoff 1.3 is shorter than a bond length based estimate of 1.7550000000000001. This may lead to errors. (src/comm.cpp:727)
Per MPI rank memory allocation (min/avg/max) = 7.221 | 7.221 | 7.221 Mbytes
   Step          Temp         Density         Press          TotEng         PotEng         KinEng         E_pair         S/CPU     
       362   1              0.0023323615   0.0023090379   21.485548      20.000548      1.485          0              0            
      1000   0.90989032     0.0023323615  -0.0021940042   21.776974      20.425787      1.3511871      0.00036425437  79138.939    
      2000   0.86546688     0.0023323615   0.0034714157   21.677128      20.39191       1.2852183      0.0025814786   77955.344    
      3000   0.98199538     0.0023323615   0.0028144228   21.866132      20.407869      1.4582631      0.0011756043   74445.208    
      4000   1.004495       0.0023323615  -0.0014058211   21.945624      20.453949      1.4916751      0.011986179    74834.347    
      5000   1.1222705      0.0023323615   0.0044495116   21.986385      20.319813      1.6665718      0.0050317639   74127.199    
      6000   1.0538243      0.0023323615   0.0023957538   21.985713      20.420784      1.564929       0.012100514    75632.644    
      7000   1.0210598      0.0023323615  -0.00038820026  21.904665      20.388391      1.5162738      0              77583.419    
      8000   0.94819751     0.0023323615   0.0024943091   21.747889      20.339816      1.4080733      0              77403.047    
      9000   0.92364502     0.0023323615   0.0020053029   21.724166      20.352554      1.3716129      1.7780894e-05  76265.155    
     10000   0.86685188     0.0023323615   0.00078277366  21.644879      20.357604      1.287275       0.0098636418   76707.076    
     11000   1.0057103      0.0023323615   0.00010113276  21.8558        20.362321      1.4934798      0.020705341    76349.329    
     12000   0.97901664     0.0023323615  -0.0026996968   21.871206      20.417366      1.4538397      0.0052928539   75822.07     
     13000   0.97718436     0.0023323615  -6.1641422e-06  21.963706      20.512587      1.4511188      0.025022446    76112.554    
     14000   1.0530014      0.0023323615  -0.0009993112   21.947994      20.384287      1.5637071      0.0020860456   75346.833    
     15000   0.99094527     0.0023323615   0.0011068478   21.895146      20.423592      1.4715537      0.0015091113   76185.751    
     16000   0.91285091     0.0023323615  -0.00025424173  21.87524       20.519657      1.3555836      0.0047853639   75755.315    
     17000   0.82806978     0.0023323615  -0.00054698156  21.701984      20.472301      1.2296836      0              76162.211    
     18000   1.043278       0.0023323615  -6.6143919e-05  22.003299      20.454031      1.5492679      0.0034319132   76729.777    
     19000   1.0879249      0.0023323615  -0.0017804642   21.998985      20.383416      1.6155685      0.015376175    75319.371    
     20000   1.1144506      0.0023323615   0.0025198298   22.190904      20.535944      1.6549592      0              76505.41     
     21000   1.0427751      0.0023323615   0.0011345349   22.099492      20.550971      1.548521       0.00040047813  76729.483    
     22000   1.0586695      0.0023323615   0.0017882747   22.05673       20.484606      1.5721242      0              76246.739    
     23000   1.0058426      0.0023323615  -0.0055245362   21.954628      20.460951      1.4936763      0.0027619031   75318.01     
     24000   0.98273442     0.0023323615   0.0015147357   21.862067      20.402707      1.4593606      0              74619.242    
     25000   0.95835343     0.0023323615   0.0017808774   21.937761      20.514606      1.4231548      0.00020839942  75493.754    
     26000   0.93993778     0.0023323615  -0.0021777292   21.884849      20.489042      1.3958076      0.0088889834   76399.47     
     27000   0.9308188      0.0023323615  -0.00011239942  21.842252      20.459986      1.3822659      0.021612409    75555.585    
     28000   1.0149581      0.0023323615   0.0041996387   21.906846      20.399633      1.5072129      0.0064059022   75789.201    
     29000   0.92841138     0.0023323615  -2.5398808e-05  21.987185      20.608494      1.3786909      0.0046112484   75925.999    
     30000   1.021043       0.0023323615   0.001589158    22.097958      20.581709      1.5162489      0.016799508    73251.825    
     31000   1.0465985      0.0023323615  -0.0021744286   22.037917      20.483718      1.5541987      0.0057879149   74401.258    
     32000   0.98907108     0.0023323615  -0.0015558606   22.044089      20.575318      1.4687705      0.009448173    75586.773    
     33000   1.0918536      0.0023323615  -0.0025643847   22.039275      20.417873      1.6214025      0              74648.592    
     34000   0.99801543     0.0023323615   0.0016279766   21.932339      20.450286      1.4820529      0.017384617    77217.954    
     35000   1.0352271      0.0023323615  -0.0052971711   22.076004      20.538692      1.5373122      0.00010473809  75701.883    
     36000   1.1141579      0.0023323615  -0.00093279925  22.222491      20.567966      1.6545245      0.00033678641  76713.972    
     37000   1.0369415      0.0023323615   0.00013065175  22.217841      20.677983      1.5398581      0.013788831    75976.515    
     38000   1.0515596      0.0023323615   0.0021717558   22.070766      20.5092        1.561566       0.0067894678   76112.375    
     39000   1.0238495      0.0023323615   0.00026414509  22.040141      20.519725      1.5204165      0.00044464649  68256.795    
     40000   1.0749111      0.0023323615  -0.0026849368   22.039327      20.443084      1.596243       0.012651334    72595.603    
     41000   0.99070886     0.0023323615  -0.0030385564   22.03241       20.561207      1.4712027      0.00092855646  77344.934    
     42000   0.95315224     0.0023323615   0.0019788197   21.965263      20.549832      1.4154311      0.020233689    75125.661    
     43000   1.0644183      0.0023323615  -0.0011168725   22.287172      20.706511      1.5806611      0.039694129    75370.559    
     44000   1.0253747      0.0023323615  -0.006676522    22.066233      20.543552      1.5226814      0              74420.565    
     45000   0.94179556     0.0023323615  -0.0047206018   21.970644      20.572077      1.3985664      0.019869988    74652.504    
     46000   1.0083495      0.0023323615  -0.0017646918   21.972114      20.474715      1.497399       0.00026040605  75173.246    
     47000   0.98767959     0.0023323615  -0.00080218158  22.091674      20.62497       1.4667042      0.024266258    75027.119    
     48000   1.1473449      0.0023323615  -0.0025885687   22.080512      20.376705      1.7038072      0.00065962995  75411.96     
     49000   1.0679312      0.0023323615   0.0017688272   21.970482      20.384604      1.5858779      0.014142422    76442.541    
     50000   0.9581935      0.0023323615   0.0014398836   21.955202      20.532284      1.4229173      0.0055011948   75932.992    
     51000   1.0215759      0.0023323615  -0.00093292688  21.934681      20.41764       1.5170402      0              75536.546    
     52000   0.98079591     0.0023323615   0.0040701936   21.977374      20.520892      1.4564819      0.0020862422   76404.093    
     53000   1.0090927      0.0023323615   0.0013324753   22.095438      20.596935      1.4985027      0              75425.691    
     54000   0.97519627     0.0023323615   0.0013260734   22.070151      20.621984      1.4481665      0.026885444    76414.859    
     55000   1.1805087      0.0023323615  -0.001586238    22.424088      20.671033      1.7530554      0.024690954    76197.675    
     56000   0.98387121     0.0023323615   0.0037155145   22.104425      20.643376      1.4610487      0.01435493     75829.441    
     57000   1.0723812      0.0023323615  -0.0037916262   22.122726      20.53024       1.592486       0.013635549    76181.102    
     58000   1.0152349      0.0023323615   0.00021908047  22.082827      20.575203      1.5076238      0.00077375639  75374.883    
     59000   1.1424502      0.0023323615  -0.0052108657   22.30072       20.604182      1.6965385      0.013308184    76867.401    
     60000   1.0359703      0.0023323615  -0.00097887545  22.188218      20.649802      1.538416       0.00011346294  75050.025    
     61000   1.1646839      0.0023323615  -0.002085017    22.239945      20.51039       1.7295556      0.012918477    77206.252    
     62000   1.101836       0.0023323615   0.0010338878   22.171386      20.53516       1.6362265      0.001396566    76170.518    
     63000   0.96616435     0.0023323615   0.00097550571  21.903821      20.469067      1.4347541      0.013027663    77525.63     
     64000   1.0068907      0.0023323615  -0.0020278726   22.061652      20.566419      1.4952327      0.013750276    75883.986    
     65000   0.98723233     0.0023323615   0.0022441476   22.031073      20.565033      1.46604        0.0066686189   76752.492    
     66000   1.0273881      0.0023323615  -0.0003515278   22.183579      20.657908      1.5256713      0              74471.592    
     67000   0.96528212     0.0023323615  -0.00014822656  21.9396        20.506156      1.4334439      0.010365557    76852.538    
     68000   1.069702       0.0023323615   9.4754668e-05  22.081119      20.492611      1.5885075      0.00049153926  73793.44     
     69000   1.1229502      0.0023323615   0.0011504079   22.200329      20.532748      1.6675811      0.0068454249   76772.567    
     70000   1.0062775      0.0023323615  -0.00085311964  22.094021      20.599699      1.4943221      0.013222355    75233.138    
     71000   1.0906935      0.0023323615   0.00015260357  22.145362      20.525682      1.6196798      0.018338513    75948.419    
     72000   1.010401       0.0023323615  -6.0487182e-06  22.154105      20.653659      1.5004455      0.0013793953   74401.756    
     73000   1.1177599      0.0023323615  -0.0034084797   22.254435      20.594562      1.6598735      0.00011231735  77713.175    
     74000   0.9768019      0.0023323615   0.00016143893  22.07312       20.622569      1.4505508      0.0084515956   75007.67     
     75000   1.1360996      0.0023323615   0.002159116    22.161595      20.474487      1.6871079      0.0089909162   76235.271    
     76000   0.97379329     0.0023323615  -0.00068458621  21.988928      20.542845      1.446083       0              75209.668    
     77000   0.94876793     0.0023323615  -0.0016073976   21.923496      20.514575      1.4089204      0.017745108    75224.293    
     78000   0.83947996     0.0023323615  -0.00062768559  21.726727      20.480099      1.2466277      0.0054510099   76106.692    
     79000   1.0090614      0.0023323615  -0.00080262643  22.068192      20.569736      1.4984562      0.00023011166  76844.554    
     80000   1.1217643      0.0023323615  -0.0038177864   22.367902      20.702082      1.66582        0.032902439    75887.038    
     81000   1.0240158      0.0023323615   0.00023547123  22.031597      20.510933      1.5206635      0.0068767308   75542.263    
     82000   1.003236       0.0023323615  -0.0022802982   21.894199      20.404393      1.4898055      0.019136282    73904.084    
     83000   1.0554159      0.0023323615   0.004011718    22.104562      20.537269      1.5672927      0.0080869707   73891.005    
     84000   0.83527346     0.0023323615  -0.0034122221   21.874648      20.634267      1.2403811      0.0030083664   75666.421    
     85000   1.036002       0.0023323615   0.0013573923   21.962923      20.42446       1.5384629      0.015709144    76707.193    
     86000   0.9432002      0.0023323615  -0.0032183248   21.913588      20.512936      1.4006523      0.013730309    76545.127    
     87000   0.95566008     0.0023323615  -0.00049614223  21.91653       20.497375      1.4191552      0.0035862035   75529.91     
     88000   0.93373351     0.0023323615  -0.00097093893  21.870485      20.483891      1.3865943      0.0018212145   75236.772    
     89000   0.9684944      0.0023323615  -0.00047342045  21.973429      20.535215      1.4382142      0.00087524744  75542.999    
     90000   0.98293324     0.0023323615  -0.0032204602   22.050919      20.591263      1.4596559      0.015353933    76936.31     
     91000   1.0832827      0.0023323615   0.0048517083   22.11977       20.511095      1.6086749      0.0052867789   77858.42     
     92000   0.85899662     0.0023323615  -0.0013049519   21.765697      20.490087      1.27561        0.0024124001   76386.55     
     93000   0.96176266     0.0023323615  -4.4223672e-05  21.874222      20.446004      1.4282176      0.0045653365   77304.671    
     94000   0.96019503     0.0023323615   0.00024459347  21.944954      20.519064      1.4258896      3.8053462e-05  76792.707    
     95000   0.94702149     0.0023323615  -0.0033658915   21.86315       20.456823      1.4063269      0              77423.645    
     96000   0.91119348     0.0023323615  -0.0013197298   21.825018      20.471896      1.3531223      0.00043282989  76139.78     
     97000   1.0016687      0.0023323615  -0.0019514304   22.013024      20.525546      1.487478       0.0048369955   75537.915    
     98000   1.02143        0.0023323615  -0.0057874974   22.177965      20.661142      1.5168235      0              74381.518    
     99000   1.032786       0.0023323615   0.0018228259   21.975336      20.441649      1.5336871      7.1595851e-05  77651.568    
    100000   1.0594928      0.0023323615   0.0036169719   22.011024      20.437677      1.5733468      0.00032948157  75876.541    
    100362   1.1904942      0.0023323615  -0.00089755607  22.316856      20.548972      1.7678839      0.00063845255  74714.598    
Loop time of 1.31975 on 1 procs for 100000 steps with 100 atoms

Performance: 32733490.925 tau/day, 75771.970 timesteps/s
99.1% CPU use with 1 MPI tasks x 1 OpenMP threads

MPI task timing breakdown:
Section |  min time  |  avg time  |  max time  |%varavg| %total
---------------------------------------------------------------
Pair    | 0.049558   | 0.049558   | 0.049558   |   0.0 |  3.76
Bond    | 0.1272     | 0.1272     | 0.1272     |   0.0 |  9.64
Neigh   | 0.80498    | 0.80498    | 0.80498    |   0.0 | 61.00
Comm    | 0.057527   | 0.057527   | 0.057527   |   0.0 |  4.36
Output  | 0.0019583  | 0.0019583  | 0.0019583  |   0.0 |  0.15
Modify  | 0.24525    | 0.24525    | 0.24525    |   0.0 | 18.58
Other   |            | 0.03327    |            |       |  2.52

Nlocal:            100 ave         100 max         100 min
Histogram: 1 0 0 0 0 0 0 0 0 0
Nghost:             60 ave          60 max          60 min
Histogram: 1 0 0 0 0 0 0 0 0 0
Neighs:             36 ave          36 max          36 min
Histogram: 1 0 0 0 0 0 0 0 0 0

Total # of neighbors = 36
Ave neighs/atom = 0.36
Ave special neighs/atom = 1.98
Neighbor list builds = 9821
Dangerous builds = 8265
unfix           nvtSoft
unfix           rampSoft
reset_timestep  0

write_data      ${outputfile_relaxed}
write_data      5_relaxed.data
System init for write_data ...
Generated 0 of 6 mixed pair_coeff terms from geometric mixing rule
WARNING: Communication cutoff 1.3 is shorter than a bond length based estimate of 1.7550000000000001. This may lead to errors. (src/comm.cpp:727)
WARNING: Not all mixed pair coeffs generated from mixing. Use write_data with 'pair ij' option to store all pair coeffs. (src/write_data.cpp:309)

###########################################################################
# Full LJ with Coulomb
######################################################################

# Cutoffs and parameters:
# - Values: Marcel Verkade's Bachelor Thesis
# - Mapping to atom groups: Patrick Onck's paper
# - 1: aliphatic, 2: aromatic, 3: anion, 4: cation
# pair_style	lj/cut/coul/cut <lj_cut_global> <coul_cut_global>
# pair_coeff	<type_1>  <type_2>  <eps>  <sigma>  <r_cut_lj>  <r_cut_coul>

# Problem: Onck's model is much more complex, and Marcel has no sigma reported
# Using sigma=1 randomly

variable		glob_ljeps equal 1.0
variable		glob_ljsig 	equal 1.0
variable		glob_coulcut equal 10.0
variable		att_ljcut equal 2.50
variable		rep_ljcut equal 1.12

pair_style		lj/cut/coul/cut 						${att_ljcut} 	${glob_coulcut}
pair_style		lj/cut/coul/cut 						2.5 	${glob_coulcut}
pair_style		lj/cut/coul/cut 						2.5 	10
pair_coeff		1 1 	${glob_ljeps} 	${glob_ljsig}	${att_ljcut} 	${glob_coulcut}
pair_coeff		1 1 	1 	${glob_ljsig}	${att_ljcut} 	${glob_coulcut}
pair_coeff		1 1 	1 	1	${att_ljcut} 	${glob_coulcut}
pair_coeff		1 1 	1 	1	2.5 	${glob_coulcut}
pair_coeff		1 1 	1 	1	2.5 	10
pair_coeff		1 2 	${glob_ljeps} 	${glob_ljsig}	${att_ljcut} 	${glob_coulcut}
pair_coeff		1 2 	1 	${glob_ljsig}	${att_ljcut} 	${glob_coulcut}
pair_coeff		1 2 	1 	1	${att_ljcut} 	${glob_coulcut}
pair_coeff		1 2 	1 	1	2.5 	${glob_coulcut}
pair_coeff		1 2 	1 	1	2.5 	10
pair_coeff		1 3 	${glob_ljeps} 	${glob_ljsig}	${rep_ljcut} 	${glob_coulcut}
pair_coeff		1 3 	1 	${glob_ljsig}	${rep_ljcut} 	${glob_coulcut}
pair_coeff		1 3 	1 	1	${rep_ljcut} 	${glob_coulcut}
pair_coeff		1 3 	1 	1	1.12 	${glob_coulcut}
pair_coeff		1 3 	1 	1	1.12 	10
pair_coeff		1 4 	${glob_ljeps} 	${glob_ljsig}	${rep_ljcut} 	${glob_coulcut}
pair_coeff		1 4 	1 	${glob_ljsig}	${rep_ljcut} 	${glob_coulcut}
pair_coeff		1 4 	1 	1	${rep_ljcut} 	${glob_coulcut}
pair_coeff		1 4 	1 	1	1.12 	${glob_coulcut}
pair_coeff		1 4 	1 	1	1.12 	10
pair_coeff		2 2 	${glob_ljeps} 	${glob_ljsig}	${att_ljcut} 	${glob_coulcut}
pair_coeff		2 2 	1 	${glob_ljsig}	${att_ljcut} 	${glob_coulcut}
pair_coeff		2 2 	1 	1	${att_ljcut} 	${glob_coulcut}
pair_coeff		2 2 	1 	1	2.5 	${glob_coulcut}
pair_coeff		2 2 	1 	1	2.5 	10
pair_coeff		2 3 	${glob_ljeps} 	${glob_ljsig}	${rep_ljcut} 	${glob_coulcut}
pair_coeff		2 3 	1 	${glob_ljsig}	${rep_ljcut} 	${glob_coulcut}
pair_coeff		2 3 	1 	1	${rep_ljcut} 	${glob_coulcut}
pair_coeff		2 3 	1 	1	1.12 	${glob_coulcut}
pair_coeff		2 3 	1 	1	1.12 	10
pair_coeff		2 4 	${glob_ljeps} 	${glob_ljsig}	${att_ljcut} 	${glob_coulcut}
pair_coeff		2 4 	1 	${glob_ljsig}	${att_ljcut} 	${glob_coulcut}
pair_coeff		2 4 	1 	1	${att_ljcut} 	${glob_coulcut}
pair_coeff		2 4 	1 	1	2.5 	${glob_coulcut}
pair_coeff		2 4 	1 	1	2.5 	10
pair_coeff		3 3 	${glob_ljeps} 	${glob_ljsig}	${rep_ljcut} 	${glob_coulcut}
pair_coeff		3 3 	1 	${glob_ljsig}	${rep_ljcut} 	${glob_coulcut}
pair_coeff		3 3 	1 	1	${rep_ljcut} 	${glob_coulcut}
pair_coeff		3 3 	1 	1	1.12 	${glob_coulcut}
pair_coeff		3 3 	1 	1	1.12 	10
pair_coeff		3 4 	${glob_ljeps} 	${glob_ljsig}	${att_ljcut} 	${glob_coulcut}
pair_coeff		3 4 	1 	${glob_ljsig}	${att_ljcut} 	${glob_coulcut}
pair_coeff		3 4 	1 	1	${att_ljcut} 	${glob_coulcut}
pair_coeff		3 4 	1 	1	2.5 	${glob_coulcut}
pair_coeff		3 4 	1 	1	2.5 	10
pair_coeff		4 4 	${glob_ljeps} 	${glob_ljsig}	${rep_ljcut} 	${glob_coulcut}
pair_coeff		4 4 	1 	${glob_ljsig}	${rep_ljcut} 	${glob_coulcut}
pair_coeff		4 4 	1 	1	${rep_ljcut} 	${glob_coulcut}
pair_coeff		4 4 	1 	1	1.12 	${glob_coulcut}
pair_coeff		4 4 	1 	1	1.12 	10


fix             noDriftRot 	all momentum 10 linear 1 1 1 angular
fix             nvt1 		all nvt temp ${Temp} ${Temp} 0.5
fix             nvt1 		all nvt temp 1 ${Temp} 0.5
fix             nvt1 		all nvt temp 1 1 0.5

# dump          assemble 	all custom 1000 				${outputfile_selfasb} id type xu yu zu vx vy vz
dump            lindump 	all custom ${subsample_rate} 	${outputfile_trajlin} id type xu yu zu vx vy vz
dump            lindump 	all custom 1000 	${outputfile_trajlin} id type xu yu zu vx vy vz
dump            lindump 	all custom 1000 	6_b_trajlin.data id type xu yu zu vx vy vz

run             ${runtime}
run             1000000
Generated 0 of 6 mixed pair_coeff terms from geometric mixing rule
Neighbor list info ...
  update every 1 steps, delay 10 steps, check yes
  max neighbors/atom: 2000, page size: 100000
  master list distance cutoff = 10.3
  ghost atom cutoff = 10.3
  binsize = 5.15, bins = 7 7 7
  1 neighbor lists, perpetual/occasional/extra = 1 0 0
  (1) pair lj/cut/coul/cut, perpetual
      attributes: half, newton on
      pair build: half/bin/newton
      stencil: half/bin/3d
      bin: standard
Per MPI rank memory allocation (min/avg/max) = 7.712 | 7.712 | 7.712 Mbytes
   Step          Temp         Density         Press          TotEng         PotEng         KinEng         E_pair         S/CPU     
         0   1.1904942      0.0023323615  -0.0017566264   21.829366      20.061482      1.7678839     -0.48685182     0            
      1000   1.0910688      0.0023323615  -0.0016562474   21.032648      19.412411      1.6202372     -0.95599721     32840.526    
      2000   1.0704207      0.0023323615   0.0015967667   21.057767      19.468192      1.5895747     -0.89256525     29809.382    
      3000   1.0784551      0.0023323615  -0.0003223457   20.905242      19.303736      1.6015059     -1.1831026      24777.892    
      4000   1.0233262      0.0023323615   0.0014470732   20.490203      18.970563      1.5196394     -1.5885268      20036.763    
      5000   1.0003043      0.0023323615   0.00067398994  20.361582      18.87613       1.4854519     -1.8016616      18153.642    
      6000   0.99381534     0.0023323615  -0.0031136117   19.846978      18.371162      1.4758158     -2.2193065      17942.64     
      7000   1.0219797      0.0023323615  -0.00091838292  20.145555      18.627915      1.5176398     -1.8577806      17998.361    
      8000   0.98146427     0.0023323615   0.0048621578   19.878761      18.421287      1.4574744     -2.025121       18215.738    
      9000   0.92126116     0.0023323615  -9.4481457e-06  19.922406      18.554333      1.3680728     -1.9360591      18028.281    
     10000   0.98451438     0.0023323615   0.0017711806   19.838979      18.376975      1.4620039     -2.0937811      18051.627    
     11000   0.92683856     0.0023323615   0.0074429268   19.557772      18.181417      1.3763553     -2.3774918      17905.557    
     12000   1.1013027      0.0023323615  -0.00025077623  20.367254      18.73182       1.6354345     -1.8051233      18010.871    
     13000   0.92879683     0.0023323615   2.5022592e-05  20.336505      18.957241      1.3792633     -1.5904291      18253.724    
     14000   1.0449829      0.0023323615   0.0011250908   20.283662      18.731863      1.5517995     -1.841568       18044.183    
     15000   1.1106989      0.0023323615   0.001678542    20.472437      18.82305       1.6493879     -1.6954262      18089.197    
     16000   1.1266437      0.0023323615   0.0025868825   20.477575      18.804509      1.673066      -1.7240795      18283.975    
     17000   0.91424323     0.0023323615  -0.0024586959   19.862373      18.504722      1.3576512     -1.9703792      17901.729    
     18000   1.1000991      0.0023323615  -0.0033139332   20.226059      18.592412      1.6336472     -2.0569557      17729.14     
     19000   1.0579256      0.0023323615  -0.0024595993   20.356775      18.785755      1.5710196     -1.7648069      17883.366    
     20000   1.0582978      0.0023323615   0.0008974242   20.113253      18.54168       1.5715723     -1.9926553      17764.803    
     21000   0.89351185     0.0023323615   0.0021576309   19.969005      18.64214       1.3268651     -1.8597169      17795.408    
     22000   0.92140804     0.0023323615  -0.001312467    19.521081      18.15279       1.3682909     -2.2191774      17778.504    
     23000   1.1148118      0.0023323615   0.0015479996   20.484348      18.828852      1.6554955     -1.7792672      18002.253    
     24000   0.95215211     0.0023323615   0.0056381967   19.783419      18.369473      1.4139459     -2.1840734      17747.045    
     25000   1.1469698      0.0023323615   0.002314145    20.106094      18.402844      1.7032502     -2.0714151      17899.915    
     26000   1.1004624      0.0023323615   0.0054083858   20.195439      18.561252      1.6341867     -1.9885053      17838.77     
     27000   0.99569813     0.0023323615  -0.0029714085   19.649677      18.171065      1.4786117     -2.2339035      17831.625    
     28000   1.009308       0.0023323615  -0.0010109567   19.973678      18.474856      1.4988223     -2.1165172      17786.352    
     29000   0.98926819     0.0023323615  -0.00067501997  19.933784      18.464721      1.4690633     -2.1457548      17901.53     
     30000   0.92343727     0.0023323615  -0.0018063534   19.874655      18.503351      1.3713043     -2.1107426      17958.917    
     31000   1.0071006      0.0023323615   8.4046168e-05  20.121417      18.625873      1.4955444     -2.0079751      17878.475    
     32000   0.98170232     0.0023323615   0.0017004004   20.07475       18.616922      1.4578279     -1.9272602      17772.167    
     33000   1.0670092      0.0023323615  -0.0011710999   20.046013      18.461505      1.5845086     -2.0232397      17808.01     
     34000   1.0372359      0.0023323615  -0.0028626157   20.074838      18.534543      1.5402953     -1.9887871      17787.759    
     35000   1.0957845      0.0023323615  -0.0021350281   20.194101      18.566861      1.62724       -1.8995459      17839.631    
     36000   1.1276462      0.0023323615  -0.0017285882   20.317595      18.64304       1.6745546     -1.8144207      17852.829    
     37000   1.0924397      0.0023323615   0.0055783559   20.178772      18.556499      1.6222729     -1.8949972      17670.203    
     38000   1.2056304      0.0023323615   0.001456938    20.615981      18.82562       1.7903611     -1.6955798      17711.485    
     39000   1.1348731      0.0023323615  -0.0036764834   20.47085       18.785564      1.6852865     -1.8640242      17657.612    
     40000   0.99417674     0.0023323615   0.002834719    20.174769      18.698417      1.4763525     -1.9786023      17639.225    
     41000   0.81334439     0.0023323615  -0.00036448368  19.854105      18.646289      1.2078164     -1.7591081      17777.586    
     42000   0.89517669     0.0023323615  -0.00052489918  19.925882      18.596545      1.3293374     -1.9476967      17804.217    
     43000   0.91020731     0.0023323615  -0.0023626126   20.052724      18.701066      1.3516579     -1.8559787      17649.222    
     44000   0.99707137     0.0023323615  -0.00039985133  20.014113      18.533462      1.480651      -1.9686863      17836.057    
     45000   1.1911362      0.0023323615  -0.00063528331  20.485515      18.716678      1.7688373     -1.7967018      17869.116    
     46000   1.0422025      0.0023323615  -0.0031722098   20.25599       18.708319      1.5476707     -1.789554       17758.937    
     47000   0.89263509     0.0023323615  -0.0050292268   20.122484      18.796921      1.3255631     -1.741866       17785.452    
     48000   1.0207442      0.0023323615  -0.002188762    20.365693      18.849887      1.5158052     -1.5509028      17904.93     
     49000   1.1022623      0.0023323615   0.00055676787  20.202072      18.565212      1.6368596     -1.943409       17840.642    
     50000   1.0868173      0.0023323615  -0.00050899877  20.155286      18.541362      1.6139237     -2.0381961      17802.556    
     51000   1.0417656      0.0023323615  -0.0016420235   19.840389      18.293367      1.5470219     -2.2054726      17649.518    
     52000   0.91436768     0.0023323615   0.0042236098   19.897216      18.53938       1.357836      -2.0108169      17863.075    
     53000   0.88821311     0.0023323615   0.0030784571   19.728305      18.409309      1.3189965     -2.1110364      17852.576    
     54000   0.8879527      0.0023323615   0.0031661099   19.681239      18.362629      1.3186098     -2.1123704      17742.657    
     55000   1.0508323      0.0023323615   0.003578978    19.946328      18.385842      1.560486      -2.0409511      17821.097    
     56000   1.1002411      0.0023323615  -0.0016526566   20.359885      18.726027      1.633858      -1.785104       17725.579    
     57000   0.93943997     0.0023323615   0.004302611    20.070978      18.67591       1.3950684     -1.8536678      17690.763    
     58000   0.98253171     0.0023323615  -0.0029020537   20.132335      18.673276      1.4590596     -1.9016251      17834.882    
     59000   1.0865355      0.0023323615   0.0022804959   19.943031      18.329525      1.6135052     -2.2807143      17865.725    
     60000   1.0289296      0.0023323615   0.00028705455  20.170317      18.642356      1.5279604     -1.889854       17748.892    
     61000   0.9730651      0.0023323615  -0.00333109     20.207698      18.762696      1.4450017     -1.8030372      17888.757    
     62000   0.84303615     0.0023323615  -0.0014444972   19.681862      18.429953      1.2519087     -1.989698       17707.014    
     63000   0.85791661     0.0023323615   0.0017786552   19.837995      18.563989      1.2740062     -1.9891273      16767.189    
     64000   1.0278253      0.0023323615   0.0039097804   19.675652      18.149331      1.5263205     -2.2609042      17673.304    
     65000   0.91957331     0.0023323615  -0.0028126076   19.997612      18.632046      1.3655664     -1.8331862      17652.833    
     66000   0.89100779     0.0023323615   0.00094289575  19.778842      18.455696      1.3231466     -1.9971296      17610.671    
     67000   1.0283431      0.0023323615   0.0038605599   19.953044      18.425954      1.5270895     -1.9741735      17586.989    
     68000   1.0221569      0.0023323615  -0.00048151354  20.327208      18.809305      1.517903      -1.6640331      17616.57     
     69000   1.0341204      0.0023323615  -0.005411473    20.295942      18.760274      1.5356688     -1.7172451      17604.195    
     70000   1.1004578      0.0023323615   0.0028013656   20.517728      18.883548      1.6341799     -1.6031643      17384.007    
     71000   0.91110476     0.0023323615   0.0031407994   19.847704      18.494714      1.3529906     -1.9509955      17596.147    
     72000   0.92029856     0.0023323615  -0.0029617745   20.167081      18.800437      1.3666434     -1.758828       17626.111    
     73000   1.0013885      0.0023323615  -0.0012866851   19.938435      18.451373      1.4870619     -2.0639966      17557.825    
     74000   0.95295719     0.0023323615  -0.0010647567   20.037843      18.622702      1.4151414     -1.8757192      17645.231    
     75000   1.0499079      0.0023323615  -0.0062513078   19.870305      18.311192      1.5591132     -2.1751516      17708.865    
     76000   0.84760553     0.0023323615  -0.00017328129  19.824158      18.565464      1.2586942     -1.986333       17726.329    
     77000   1.1028451      0.0023323615  -0.00061608738  20.039342      18.401617      1.637725      -2.0379371      17551.878    
     78000   1.00295        0.0023323615   0.00015427199  19.857193      18.367812      1.4893807     -2.1802376      17520.714    
     79000   0.95583924     0.0023323615  -0.0010429072   20.270058      18.850637      1.4194213     -1.8227271      17675.078    
     80000   1.0229454      0.0023323615   0.0016484118   20.209867      18.690793      1.5190739     -1.8686135      17914.938    
     81000   0.98109149     0.0023323615  -0.0020742792   19.938229      18.481308      1.4569209     -2.0006525      17904.391    
     82000   1.047848       0.0023323615  -0.0027416994   20.235928      18.679874      1.5560543     -1.9779523      17743.351    
     83000   1.0326477      0.0023323615   0.0015410621   20.108698      18.575216      1.5334818     -1.9636462      17668.442    
     84000   0.97472075     0.0023323615   0.0023841907   20.03779       18.59033       1.4474603     -1.9322486      17746.339    
     85000   1.1281959      0.0023323615  -0.0024099962   19.864471      18.1891        1.6753709     -2.1854091      17815.638    
     86000   0.88673826     0.0023323615   0.001338975    19.819112      18.502306      1.3168063     -2.0164116      17798.575    
     87000   0.95268082     0.0023323615  -0.0015210366   20.109867      18.695136      1.414731      -1.9425242      17759.743    
     88000   0.99956984     0.0023323615  -0.0029343845   20.257316      18.772955      1.4843612     -1.7193355      17956.862    
     89000   0.97428064     0.0023323615  -0.0039555737   20.190624      18.743817      1.4468067     -1.832512       17799.172    
     90000   1.1613238      0.0023323615  -0.0005244886   20.428234      18.703669      1.7245658     -1.8307695      17931.551    
     91000   0.97589604     0.0023323615  -0.0017018777   19.911741      18.462535      1.4492056     -2.0750432      17859.588    
     92000   1.0846609      0.0023323615  -0.001817623    20.045768      18.435047      1.6107215     -2.1003606      17786.995    
     93000   1.0077805      0.0023323615  -0.0016038627   20.029959      18.533405      1.4965541     -1.979954       17872.655    
     94000   0.90748722     0.0023323615   0.0020621818   19.722521      18.374902      1.3476185     -2.1412209      17762.236    
     95000   0.92060737     0.0023323615  -0.0012074312   19.826968      18.459866      1.3671019     -1.96077        17601.69     
     96000   0.9107446      0.0023323615   0.0001802227   19.645734      18.293278      1.3524557     -2.1869712      17612.715    
     97000   0.93576068     0.0023323615   0.004111859    19.751811      18.362206      1.3896046     -2.0381849      17651.837    
     98000   1.1030807      0.0023323615   0.0022650526   20.338612      18.700538      1.6380748     -1.885288       17803.687    
     99000   1.00618        0.0023323615  -0.0024547425   19.869594      18.375416      1.4941774     -2.0647391      17833.084    
    100000   0.89406779     0.0023323615  -0.00068805003  19.814816      18.487125      1.3276907     -2.0208204      17821.027    
    101000   0.99919725     0.0023323615   0.0070725622   19.932688      18.44888       1.4838079     -1.9628585      17852.634    
    102000   0.92459165     0.0023323615  -0.0043647881   20.094325      18.721306      1.3730186     -1.8104607      17775.75     
    103000   1.0387843      0.0023323615   0.0024973939   19.878249      18.335655      1.5425947     -2.180066       17700.9      
    104000   1.0721967      0.0023323615   0.0036025255   20.040626      18.448414      1.592212      -2.161661       17666.547    
    105000   1.0395446      0.0023323615  -0.00042167952  20.549035      19.005312      1.5437237     -1.6613954      17862.525    
    106000   1.0988834      0.0023323615  -0.0011035782   19.907191      18.275349      1.6318419     -2.0897466      17830.842    
    107000   0.97381409     0.0023323615   0.00085952256  20.324208      18.878094      1.4461139     -1.6402326      17783.059    
    108000   1.0908758      0.0023323615   0.0041549224   20.309045      18.689095      1.6199506     -1.8680151      17780.74     
    109000   0.964008       0.0023323615   0.0010599089   20.055677      18.624126      1.4315519     -1.8932217      17834.853    
    110000   1.0327808      0.0023323615   0.0011450016   20.148086      18.614407      1.5336795     -1.9303596      17723.936    
    111000   1.108037       0.0023323615   0.0011683338   19.987569      18.342134      1.6454349     -2.1355751      17695.515    
    112000   0.98860946     0.0023323615  -0.003070636    20.029626      18.561541      1.468085      -2.0321074      17669.587    
    113000   0.9363666      0.0023323615  -0.00069197651  19.690391      18.299887      1.3905044     -2.1762343      17664.987    
    114000   0.9942112      0.0023323615  -0.00032998922  19.798811      18.322408      1.4764036     -2.2637413      17683.533    
    115000   1.0603789      0.0023323615  -0.00049927391  19.911562      18.336899      1.5746627     -2.1176626      17552.622    
    116000   1.048654       0.0023323615  -0.00087332095  20.048912      18.491661      1.5572512     -2.0406715      17617.223    
    117000   0.91923464     0.0023323615   0.001230653    19.70554       18.340477      1.3650634     -2.0738846      17735.731    
    118000   1.0248703      0.0023323615  -0.0027730635   19.891183      18.369251      1.5219324     -2.1896491      17752.901    
    119000   1.1732636      0.0023323615   0.0013406397   20.486539      18.744242      1.7422965     -1.8630751      17689.114    
    120000   1.0145817      0.0023323615   0.0059491284   20.090166      18.583512      1.5066539     -1.9926297      17759.699    
    121000   1.1817         0.0023323615  -0.0020572463   20.260202      18.505378      1.7548245     -1.9996234      17698.298    
    122000   0.92799992     0.0023323615  -0.003584884    19.778702      18.400623      1.3780799     -2.0730195      17810.485    
    123000   0.94965631     0.0023323615  -0.0017793389   20.190167      18.779927      1.4102396     -1.9014066      17891.569    
    124000   1.1294145      0.0023323615  -0.0002989874   20.152907      18.475726      1.6771805     -2.0686602      17688.738    
    125000   0.95023406     0.0023323615   0.00012425715  19.841282      18.430184      1.4110976     -2.1188912      17847.686    
    126000   1.0054212      0.0023323615  -0.0006430384   19.881504      18.388454      1.4930504     -2.2404295      17713.528    
    127000   0.98988533     0.0023323615   0.0033456994   20.048277      18.578297      1.4699797     -1.990024       17870.05     
    128000   1.0502146      0.0023323615   0.0039089181   20.118374      18.558805      1.5595686     -2.000733       17636.963    
    129000   0.95285361     0.0023323615   0.0036195649   19.857221      18.442234      1.4149876     -2.0868691      17737.184    
    130000   0.88555732     0.0023323615  -0.0045076247   19.879101      18.564048      1.3150526     -1.9911053      17680.967    
    131000   1.0633791      0.0023323615   0.0014718347   20.034755      18.455637      1.5791179     -2.087463       17572.625    
    132000   0.93479447     0.0023323615  -0.00095389653  19.980781      18.592611      1.3881698     -1.9968966      17627.662    
    133000   0.98279498     0.0023323615  -0.0051918315   20.045054      18.585603      1.4594506     -2.0016539      17875.139    
    134000   1.2567276      0.0023323615  -0.0050342734   20.338435      18.472194      1.8662405     -2.0701802      17840.996    
    135000   0.99051859     0.0023323615  -0.00011382662  19.966542      18.495621      1.4709201     -2.1383385      17643.126    
    136000   0.96198659     0.0023323615   0.0034163935   19.672284      18.243734      1.4285501     -2.2136869      17683.843    
    137000   0.92300973     0.0023323615   0.0012629998   19.903364      18.532695      1.3706695     -2.0988655      17670.4      
    138000   1.006531       0.0023323615  -0.001992253    19.932146      18.437448      1.4946985     -2.063373       17587.395    
    139000   0.96058203     0.0023323615  -0.0016840058   19.733092      18.306628      1.4264643     -2.1725332      17771.474    
    140000   0.89761112     0.0023323615  -0.00052456547  19.911226      18.578273      1.3329525     -2.0402431      17763.27     
    141000   1.0230791      0.0023323615   0.0023166878   20.044265      18.524993      1.5192725     -2.0135142      17677.698    
    142000   1.1470967      0.0023323615   0.0048409094   20.088042      18.384603      1.7034386     -2.1089334      17699.246    
    143000   0.94948669     0.0023323615  -0.0025239436   19.950732      18.540744      1.4099877     -2.0080758      17805.224    
    144000   0.97947491     0.0023323615   0.0021105566   20.030837      18.576317      1.4545202     -1.9601162      17882.908    
    145000   1.0851558      0.0023323615  -0.00073629028  20.12445       18.512994      1.6114564     -2.0326559      17789.813    
    146000   0.98883446     0.0023323615   0.0031317301   20.035367      18.566947      1.4684192     -1.9103388      17851.667    
    147000   0.96770342     0.0023323615   0.0018394149   20.105399      18.66836       1.4370396     -1.9168948      17805.173    
    148000   1.0496705      0.0023323615   0.003249224    19.990581      18.43182       1.5587606     -2.1157133      17701.82     
    149000   1.0736826      0.0023323615  -0.0029697761   20.154326      18.559908      1.5944187     -2.0177229      17935.469    
    150000   0.91581405     0.0023323615  -0.0057396987   20.122821      18.762837      1.3599839     -1.8433152      17775.823    
    151000   1.1143848      0.0023323615   0.0045124206   19.990103      18.335241      1.6548614     -2.2059644      17739.11     
    152000   0.96816922     0.0023323615   0.00052216361  19.783204      18.345472      1.4377313     -2.1063072      17586.778    
    153000   0.87012689     0.0023323615   0.0021640711   19.563896      18.271757      1.2921384     -2.1081378      17685.914    
    154000   0.96223934     0.0023323615   0.0019879007   19.995581      18.566656      1.4289254     -2.0384801      17650.667    
    155000   1.1062395      0.0023323615  -0.0011348603   20.114477      18.471711      1.6427656     -2.0384533      17769.332    
    156000   0.90954592     0.0023323615  -0.0018027121   19.749981      18.399305      1.3506757     -2.108042       17820.024    
    157000   1.0931519      0.0023323615   0.00440746     20.087155      18.463824      1.6233305     -2.0499664      17975.995    
    158000   0.93200043     0.0023323615  -0.0036992501   20.191385      18.807365      1.3840206     -1.7790945      17799.705    
    159000   0.96075179     0.0023323615  -0.001113471    19.981448      18.554732      1.4267164     -1.9911038      17824.155    
    160000   0.98055361     0.0023323615  -0.0033957984   19.785503      18.329381      1.4561221     -2.0520009      17797.03     
    161000   0.91781828     0.0023323615   0.0036271248   19.749411      18.386451      1.3629601     -2.1754598      17836.998    
    162000   0.96750937     0.0023323615  -0.00012028089  20.185387      18.748635      1.4367514     -1.8002955      17802.985    
    163000   0.99013356     0.0023323615  -0.0016670656   20.238361      18.768013      1.4703483     -1.7386086      17701.493    
    164000   0.94618321     0.0023323615   0.0045920392   20.17793       18.772848      1.4050821     -1.9487862      17875.401    
    165000   1.0398641      0.0023323615  -0.0017879291   20.148179      18.603981      1.5441982     -1.9273447      17823.42     
    166000   1.0589775      0.0023323615   0.0013693981   19.88267       18.310089      1.5725816     -2.1146405      17920.094    
    167000   0.95962814     0.0023323615  -0.0023082478   20.110126      18.685078      1.4250478     -1.8377528      17890.21     
    168000   0.90119413     0.0023323615  -0.0022501914   19.843559      18.505286      1.3382733     -1.9714686      17993.198    
    169000   1.0181434      0.0023323615  -0.0017628607   19.803911      18.291968      1.5119429     -2.2005445      17918.244    
    170000   1.0446833      0.0023323615   0.0038403434   20.132991      18.581637      1.5513548     -1.9713242      17928.781    
    171000   1.1203826      0.0023323615   4.7865191e-06  19.899628      18.23586       1.6637682     -2.2732211      17896.802    
    172000   0.92047359     0.0023323615  -0.00054268215  19.762131      18.395228      1.3669033     -2.0701394      17879.077    
    173000   0.95804323     0.0023323615  -0.0015862759   19.995567      18.572873      1.4226942     -1.8834763      17834.321    
    174000   1.0289157      0.0023323615  -0.004199917    20.094269      18.56633       1.5279398     -1.9503152      17875.955    
    175000   1.0560552      0.0023323615  -0.0010771876   20.158317      18.590075      1.568242      -1.9875714      17857.987    
    176000   0.89268754     0.0023323615   0.0022212685   19.88015       18.554509      1.325641      -2.0337017      17849.767    
    177000   1.0727161      0.0023323615  -0.00056020192  20.166839      18.573856      1.5929834     -1.9032437      17863.123    
    178000   0.97301397     0.0023323615  -0.00026730846  19.694266      18.249341      1.4449257     -2.2179122      17847.411    
    179000   1.016028       0.0023323615   0.0017942535   20.069684      18.560883      1.5088016     -1.8914476      17844.412    
    180000   0.92727089     0.0023323615  -0.0014883925   19.870711      18.493714      1.3769973     -1.9396559      17859.94     
    181000   0.88223891     0.0023323615  -0.00089400096  19.488902      18.178777      1.3101248     -2.2504512      17800.677    
    182000   1.2195383      0.0023323615  -0.0020119486   20.164212      18.353197      1.8110143     -2.2060907      17705.638    
    183000   1.1192362      0.0023323615  -0.0011243913   20.215488      18.553423      1.6620657     -2.0177646      17559.795    
    184000   0.88230489     0.0023323615  -0.00024101094  20.060217      18.749994      1.3102228     -1.8663969      17715.858    
    185000   1.0528933      0.0023323615  -0.00079314912  19.973484      18.409938      1.5635466     -2.1926963      17669.781    
    186000   1.0802139      0.0023323615   0.0019423793   20.024091      18.419974      1.6041176     -2.169181       17653.717    
    187000   0.93634466     0.0023323615   0.0038627018   19.981204      18.590732      1.3904718     -2.0581723      17752.904    
    188000   1.0188407      0.0023323615  -0.0010822513   19.963113      18.450134      1.5129784     -2.1156475      17723.493    
    189000   1.0738452      0.0023323615   0.00068469151  20.405039      18.810379      1.5946601     -1.8313162      17766.669    
    190000   0.86990817     0.0023323615  -0.00029778634  19.513488      18.221674      1.2918136     -2.2679257      17677.36     
    191000   0.97593676     0.0023323615  -0.0021755306   19.938032      18.488766      1.4492661     -2.0480841      17700.781    
    192000   1.0044304      0.0023323615  -0.001091468    20.106143      18.614564      1.4915792     -2.0240505      17796.703    
    193000   0.99511647     0.0023323615   0.0023364731   20.203965      18.726217      1.477748      -1.8583466      17901.372    
    194000   0.87424154     0.0023323615   0.0032077561   20.004833      18.706584      1.2982487     -1.7454659      17945.75     
    195000   1.0870192      0.0023323615  -0.00020977406  19.850743      18.23652       1.6142235     -2.2021892      17913.799    
    196000   0.98519397     0.0023323615  -0.003367231    20.045163      18.58215       1.463013      -1.9348887      17826.084    
    197000   0.98716259     0.0023323615   0.0032850206   19.963551      18.497615      1.4659364     -2.013283       17914.369    
    198000   0.92202745     0.0023323615   0.00037494146  20.098123      18.728912      1.3692108     -1.7723065      17886.045    
    199000   1.0137642      0.0023323615   0.0013415149   19.904888      18.399448      1.5054399     -2.0654358      17870.28     
    200000   0.92946563     0.0023323615   0.0034455494   19.887415      18.507159      1.3802565     -2.0496412      17805.522    
    201000   1.0387563      0.0023323615   0.00083615886  20.151486      18.608933      1.5425531     -1.913961       18004.669    
    202000   0.90832543     0.0023323615  -0.0019516179   19.840423      18.49156       1.3488633     -1.9741134      17947.376    
    203000   0.95326316     0.0023323615   0.00084651738  19.906685      18.491089      1.4155958     -2.1369528      17847.408    
    204000   1.1479975      0.0023323615  -0.0021823712   20.249443      18.544667      1.7047762     -1.9250424      17791.688    
    205000   0.98007873     0.0023323615  -0.0030874215   19.759207      18.303791      1.4554169     -2.1157996      17604.179    
    206000   0.97077207     0.0023323615  -0.00095128339  19.873699      18.432103      1.4415965     -2.0839142      17777.051    
    207000   0.88458932     0.0023323615   0.0025430363   19.623537      18.309922      1.3136151     -2.1196085      17789.414    
    208000   1.0548321      0.0023323615   0.0020242299   20.27047       18.704045      1.5664257     -1.806905       17852.148    
    209000   1.05892        0.0023323615  -0.0023146946   20.323373      18.750876      1.5724962     -1.8613565      17926.792    
    210000   1.1136918      0.0023323615   0.00080775648  20.003149      18.349317      1.6538323     -2.0965343      17961.144    
    211000   1.2024488      0.0023323615   0.0044445089   20.099567      18.31393       1.7856365     -2.0841665      17859.633    
    212000   1.0280194      0.0023323615  -0.0026332912   20.293324      18.766715      1.5266088     -1.8400348      17951.844    
    213000   0.88049989     0.0023323615   0.0058485204   19.885137      18.577595      1.3075423     -1.971921       17900.47     
    214000   0.97158789     0.0023323615   0.0016441089   20.108824      18.666016      1.442808      -1.9055953      17773.072    
    215000   0.90237026     0.0023323615   0.00070601301  19.852132      18.512112      1.3400198     -1.9794017      17784.08     
    216000   1.0192693      0.0023323615   0.0012417908   19.733747      18.220132      1.5136149     -2.2121058      17681.33     
    217000   0.8688089      0.0023323615   0.0028242788   19.449659      18.159478      1.2901812     -2.2656399      17748.658    
    218000   0.89576893     0.0023323615  -0.00027709618  19.717196      18.386979      1.3302169     -2.1681619      17600.783    
    219000   0.86588667     0.0023323615   0.0044029517   19.932262      18.64642       1.2858417     -1.8541841      17706.929    
    220000   0.88371605     0.0023323615   0.0012335404   19.704878      18.39256       1.3123183     -2.1934037      17674.621    
    221000   0.99442691     0.0023323615   0.0031203088   20.082118      18.605394      1.476724      -1.9702435      17714.666    
    222000   1.1337611      0.0023323615  -0.0017186735   20.41408       18.730445      1.6836353     -1.7856575      17653.533    
    223000   0.84831783     0.0023323615   0.00047181997  19.813426      18.553674      1.259752      -1.9170081      17804.179    
    224000   1.0483769      0.0023323615  -0.0027763986   20.233668      18.676829      1.5568398     -1.9203439      17966.708    
    225000   0.98895857     0.0023323615   0.0070371821   20.059752      18.591148      1.4686035     -1.9285028      17795.64     
    226000   1.072047       0.0023323615   0.0034766096   19.728732      18.136742      1.5919899     -2.4125036      17727.729    
    227000   0.97965293     0.0023323615   0.00098090054  20.114875      18.66009       1.4547846     -1.9601635      17693.216    
    228000   1.0806111      0.0023323615   0.0027734812   20.054392      18.449684      1.6047075     -2.1468137      17882.706    
    229000   0.76986484     0.0023323615  -0.0042634154   19.740736      18.597487      1.1432493     -2.0027289      17908.339    
    230000   0.81338825     0.0023323615   0.0051935596   19.8518        18.643918      1.2078816     -2.0225564      17722.325    
    231000   0.93451594     0.0023323615   0.0020679681   19.844092      18.456336      1.3877562     -1.930327       17651.535    
    232000   1.1066836      0.0023323615   0.001908297    19.998026      18.354601      1.6434251     -2.1031014      17728.211    
    233000   0.91479846     0.0023323615  -0.0011616984   20.085573      18.727097      1.3584757     -1.8613267      17682.292    
    234000   1.0556791      0.0023323615   0.0023159539   19.986468      18.418785      1.5676834     -2.0425935      17621.963    
    235000   1.1682305      0.0023323615  -0.00061333314  20.194506      18.459684      1.7348223     -2.0645843      17736.695    
    236000   1.0169624      0.0023323615   0.0031565256   19.728758      18.218569      1.5101891     -2.2771347      17646.317    
    237000   1.1632226      0.0023323615   0.00023592543  20.270886      18.543501      1.7273856     -2.021088       17558.063    
    238000   1.0657551      0.0023323615   0.0011168996   20.167979      18.585333      1.5826463     -1.9072925      17714.506    
    239000   0.75209745     0.0023323615  -0.00046171825  19.732156      18.615292      1.1168647     -1.9640071      17710.398    
    240000   0.99370122     0.0023323615   0.00016189312  19.957966      18.48232       1.4756463     -1.9856011      17658.808    
    241000   0.91312889     0.0023323615  -0.00078380239  19.809847      18.453851      1.3559964     -2.0345426      17673.832    
    242000   1.0483447      0.0023323615  -0.00075366087  19.987262      18.43047       1.5567918     -2.065928       17601.938    
    243000   0.97700752     0.0023323615   0.00032055065  19.961479      18.510623      1.4508562     -1.9945994      17700.542    
    244000   1.0771599      0.0023323615   0.00015286798  20.150914      18.551331      1.5995824     -1.8885776      17545.591    
    245000   0.92045287     0.0023323615   0.00014138086  19.954787      18.587914      1.3668725     -1.7936444      17607.819    
    246000   0.94282844     0.0023323615   0.0014120846   19.859219      18.459119      1.4001002     -1.9437004      17880.48     
    247000   0.90398001     0.0023323615   0.0045369916   19.779917      18.437507      1.3424103     -2.0966244      17799.432    
    248000   0.96446437     0.0023323615   0.00025427009  20.04855       18.61632       1.4322296     -1.8553885      17814.557    
    249000   1.0496651      0.0023323615   0.0022137179   19.80717       18.248417      1.5587526     -2.2739169      17705.899    
    250000   1.0892017      0.0023323615  -0.0012733956   20.53357       18.916105      1.6174646     -1.7493289      17669.956    
    251000   1.0244993      0.0023323615  -0.004011706    19.952873      18.431492      1.5213815     -2.0703126      17684.3      
    252000   0.94773416     0.0023323615   0.0020262256   20.018519      18.611134      1.4073852     -1.7971724      17878.35     
    253000   0.92130911     0.0023323615   0.00076910884  19.839751      18.471607      1.368144      -1.9595567      17919.112    
    254000   1.1358485      0.0023323615   0.003709715    20.161699      18.474964      1.686735      -2.0195711      17709.66     
    255000   0.90716589     0.0023323615   0.00018200258  19.877662      18.530521      1.3471414     -2.0005607      17694.85     
    256000   0.9033076      0.0023323615  -0.0012962079   20.08071       18.739299      1.3414118     -1.8712158      17831.797    
    257000   0.92197188     0.0023323615   0.00045125521  20.078287      18.709159      1.3691282     -1.8789013      17617.115    
    258000   1.0727336      0.0023323615   0.00090591238  20.26741       18.674401      1.5930094     -1.8606784      17656.646    
    259000   1.1005219      0.0023323615   0.001652828    20.214875      18.5806        1.634275      -1.893831       17668.648    
    260000   1.0744736      0.0023323615   0.0013585581   20.110112      18.514519      1.5955933     -1.8517808      17742.128    
    261000   1.1360667      0.0023323615   0.0033562989   20.276481      18.589422      1.687059      -2.0408426      17827.122    
    262000   1.0350802      0.0023323615  -0.00076721389  20.043039      18.505945      1.5370941     -2.0021247      17783.734    
    263000   0.98828399     0.0023323615  -0.0019012695   20.016742      18.549141      1.4676017     -1.9315981      17935.437    
    264000   0.97653049     0.0023323615   0.00041415676  20.031754      18.581606      1.4501478     -1.9943365      17641.501    
    265000   1.0297364      0.0023323615  -0.0027563886   19.895296      18.366137      1.5291586     -2.0794581      17629.284    
    266000   0.94237543     0.0023323615  -0.0023204284   19.904676      18.505248      1.3994275     -1.985988       17699.309    
    267000   0.99331704     0.0023323615   0.0002138311   20.149074      18.673998      1.4750758     -1.8719004      17675.3      
    268000   1.0624828      0.0023323615   0.0020744061   20.183334      18.605547      1.5777869     -1.9533377      17854.601    
    269000   1.0216404      0.0023323615   0.0010304778   20.013176      18.49604       1.517136      -2.0033319      17905.515    
    270000   0.90522063     0.0023323615  -0.0018139971   19.871812      18.527559      1.3442526     -1.9556576      17870.937    
    271000   0.96993328     0.0023323615  -0.00091381712  19.656248      18.215897      1.4403509     -2.2965921      17902.75     
    272000   1.0718786      0.0023323615  -0.0012837464   19.969576      18.377836      1.5917397     -2.0797022      17914.42     
    273000   1.180145       0.0023323615  -0.0037845038   20.183181      18.430666      1.7525153     -2.1199632      17910.903    
    274000   0.85419288     0.0023323615  -0.00058304267  19.815715      18.547239      1.2684764     -1.9423002      17998.653    
    275000   0.96730965     0.0023323615   0.0041307188   20.031005      18.59455       1.4364548     -1.9366446      17927.542    
    276000   1.0629895      0.0023323615   0.0023622155   19.930542      18.352002      1.5785395     -2.0625824      17869.177    
    277000   0.97702465     0.0023323615   0.0029869828   19.742831      18.29195       1.4508816     -2.1643599      17774.376    
    278000   0.95676499     0.0023323615  -0.00045336365  19.975238      18.554442      1.420796      -1.8738153      17822.516    
    279000   0.97717083     0.0023323615   0.00018994627  20.020372      18.569274      1.4510987     -1.9114254      17857.588    
    280000   1.1539156      0.0023323615  -0.0015586289   20.343955      18.63039       1.7135647     -1.8500902      17969.447    
    281000   0.89595823     0.0023323615  -2.051399e-05   19.920185      18.589687      1.330498      -1.9415696      17899.78     
    282000   0.89174264     0.0023323615   0.0038710683   19.641009      18.316771      1.3242378     -2.1786023      17894.736    
    283000   1.0017903      0.0023323615   0.0038556903   20.033351      18.545693      1.4876586     -2.0002843      17786.716    
    284000   0.94916275     0.0023323615   0.0048159997   19.73339       18.323883      1.4095067     -2.2202085      17711.768    
    285000   1.1672407      0.0023323615  -0.00088872602  20.094427      18.361075      1.7333525     -2.1899748      17678.44     
    286000   1.0405571      0.0023323615   0.00063501249  20.00136       18.456133      1.5452272     -1.991392       17785.303    
    287000   0.9700758      0.0023323615   0.00084098295  19.663167      18.222605      1.4405626     -2.2903284      17569.349    
    288000   1.0897009      0.0023323615  -0.0010243105   20.128515      18.510309      1.6182058     -1.9935344      17583.256    
    289000   0.99944982     0.0023323615   0.0061572404   20.069364      18.585181      1.484183      -2.0399056      17774.088    
    290000   1.0656948      0.0023323615  -0.0020855543   20.063649      18.481092      1.5825568     -1.9814509      17648.039    
    291000   1.0161537      0.0023323615   0.0018844136   20.021593      18.512604      1.5089882     -2.0336467      17829.45     
    292000   0.93969388     0.0023323615  -0.0013125917   19.900932      18.505487      1.3954454     -2.1067601      17759.831    
    293000   0.9966081      0.0023323615  -0.0040492463   20.147849      18.667886      1.479963      -1.9820615      17789.541    
    294000   1.1111798      0.0023323615  -0.0034221041   20.05614       18.406038      1.650102      -2.0795298      17709.304    
    295000   1.0003045      0.0023323615  -0.0006338307   20.162253      18.6768        1.4854522     -1.877938       17793.937    
    296000   0.99046848     0.0023323615  -0.0028503593   20.024739      18.553893      1.4708457     -2.0361955      17730.306    
    297000   1.0426707      0.0023323615  -0.0021994026   19.892694      18.344328      1.548366      -2.1990288      17672.734    
    298000   0.98011762     0.0023323615   0.004302772    20.095762      18.640287      1.4554747     -1.99228        17642.459    
    299000   1.0055937      0.0023323615   0.00024726298  19.857155      18.363849      1.4933067     -2.1624265      17705.019    
    300000   1.1877999      0.0023323615   0.0034437845   20.004638      18.240755      1.7638828     -2.169187       17613.061    
    301000   1.0704784      0.0023323615   0.0038131335   20.043713      18.454053      1.5896604     -2.1192059      17687.845    
    302000   0.93406873     0.0023323615   0.0041865207   19.855997      18.468905      1.3870921     -1.9127168      17753.734    
    303000   1.0578092      0.0023323615   0.0035581159   19.942441      18.371594      1.5708467     -2.1809066      17879.324    
    304000   1.0599361      0.0023323615   0.0027187584   20.279608      18.705603      1.574005      -1.7997103      18006.293    
    305000   0.97234919     0.0023323615   0.0020512342   20.206892      18.762953      1.4439385     -1.6999208      17743.666    
    306000   0.91483013     0.0023323615   0.0001078572   20.207987      18.849465      1.3585227     -1.6744256      17930.392    
    307000   1.0721175      0.0023323615   0.0049310651   19.791298      18.199204      1.5920945     -2.2371949      17867.67     
    308000   0.96685897     0.0023323615  -0.0030921143   20.040398      18.604613      1.4357856     -1.9819993      17860.726    
    309000   0.89258854     0.0023323615   0.00028266278  19.960995      18.635501      1.325494      -1.9952129      17855.729    
    310000   0.93341804     0.0023323615  -0.00053658346  19.948926      18.5628        1.3861258     -1.8461726      17952.302    
    311000   1.0049221      0.0023323615  -0.00042151065  20.07226       18.579951      1.4923094     -1.8915543      17934.625    
    312000   0.97077729     0.0023323615   0.0013678189   19.991973      18.550368      1.4416043     -2.0586849      17765.976    
    313000   1.1100671      0.0023323615  -0.0022387975   19.896633      18.248184      1.6484496     -2.1562998      17842.929    
    314000   0.92007037     0.0023323615   0.0019173073   20.068916      18.702611      1.3663045     -1.917579       17750.312    
    315000   0.97761374     0.0023323615   0.0038401704   20.067151      18.615395      1.4517564     -1.8791309      17822.401    
    316000   0.92124084     0.0023323615  -0.0028327687   19.900034      18.531992      1.3680426     -2.0139917      17781.412    
    317000   1.0916711      0.0023323615  -0.0049309565   20.324307      18.703175      1.6211316     -1.9718246      17860.457    
    318000   0.97390654     0.0023323615  -0.0011296826   19.957154      18.510903      1.4462512     -2.0679521      17773.056    
    319000   1.0908011      0.0023323615  -0.0013705244   19.926636      18.306796      1.6198397     -2.1706398      17720.296    
    320000   0.98170218     0.0023323615  -0.00088874337  19.919344      18.461516      1.4578277     -2.1645962      17963.016    
    321000   1.047541       0.0023323615  -0.0015733338   20.186053      18.630454      1.5555984     -1.8621518      17856.195    
    322000   1.0342443      0.0023323615  -0.0017805093   20.159193      18.62334       1.5358527     -1.859639       17907.526    
    323000   0.97296355     0.0023323615   0.0013917437   19.65912       18.214269      1.4448509     -2.2171513      17653.345    
    324000   0.83573446     0.0023323615  -0.00011911476  19.951472      18.710406      1.2410657     -1.8364024      17812.408    
    325000   1.0880183      0.0023323615   0.0013670206   20.425509      18.809802      1.6157072     -1.7879344      17900.467    
    326000   0.96737491     0.0023323615  -0.0043279807   19.745785      18.309233      1.4365517     -2.1619084      17763.412    
    327000   0.99522757     0.0023323615   0.0032318609   19.845283      18.36737       1.4779129     -2.1009591      17836.906    
    328000   0.90167241     0.0023323615  -0.00095473124  19.988444      18.649461      1.3389835     -1.8918582      17825.25     
    329000   1.1196336      0.0023323615   0.0038083131   20.466175      18.803519      1.6626559     -1.9031672      17849.588    
    330000   1.0622193      0.0023323615  -0.0010334477   20.230432      18.653036      1.5773956     -1.8093122      17974.363    
    331000   1.0518439      0.0023323615  -0.0018165735   20.03544       18.473452      1.5619883     -1.9969822      17854.148    
    332000   0.9736587      0.0023323615   0.0016102978   19.726496      18.280613      1.4458832     -2.3025243      17669.818    
    333000   1.0006218      0.0023323615  -0.0017180856   19.974818      18.488894      1.4859234     -2.0983649      17779.632    
    334000   0.95066186     0.0023323615  -0.001291152    19.978264      18.566531      1.4117329     -1.9964584      17670.831    
    335000   1.1062981      0.0023323615   0.00096543134  20.243833      18.600981      1.6428527     -2.080449       17632.644    
    336000   0.98789249     0.0023323615  -0.0029443678   19.709437      18.242417      1.4670204     -2.1265775      17603.366    
    337000   1.0089904      0.0023323615   7.1742205e-05  20.113867      18.615516      1.4983507     -1.9639497      17575.784    
    338000   1.0156817      0.0023323615  -0.0014304572   19.772093      18.263806      1.5082873     -2.1596122      17515.162    
    339000   1.0537618      0.0023323615  -0.00041081778  19.862843      18.298007      1.5648362     -2.205268       17542.158    
    340000   0.92196944     0.0023323615   0.0002745846   19.515058      18.145934      1.3691246     -2.2552922      17908.326    
    341000   0.9657574      0.0023323615  -0.0010638613   19.91086       18.47671       1.4341497     -1.9623345      17996.306    
    342000   0.96570158     0.0023323615  -0.0010550914   19.839463      18.405396      1.4340668     -2.0127639      17987.498    
    343000   1.0205822      0.0023323615  -0.0013195072   19.886991      18.371427      1.5155645     -2.0768325      17840.709    
    344000   1.0590555      0.0023323615  -0.0017305953   20.208803      18.636106      1.5726974     -1.9003608      17929.954    
    345000   1.0513186      0.0023323615  -0.0025877211   19.809328      18.24812       1.5612082     -2.1368938      17841.146    
    346000   0.96266848     0.0023323615   0.0027136336   19.763693      18.33413       1.4295627     -2.0713388      17948.912    
    347000   0.99921884     0.0023323615  -0.0029646923   20.090923      18.607083      1.48384       -1.9425729      17981.419    
    348000   1.0170688      0.0023323615   0.0012495415   20.031325      18.520978      1.5103472     -1.9366587      17903.421    
    349000   1.133713       0.0023323615  -0.00085104276  20.26198       18.578417      1.6835638     -1.9066648      17916.022    
    350000   0.97533419     0.0023323615  -0.0062352838   20.028374      18.580003      1.4483713     -1.9296829      17944.947    
    351000   0.92718058     0.0023323615  -0.00042864616  19.667951      18.291088      1.3768632     -2.2935859      17803.883    
    352000   0.97151857     0.0023323615   0.0035801518   20.141254      18.698549      1.4427051     -1.8658017      17922.443    
    353000   1.0513574      0.0023323615   0.00010025653  19.807812      18.246546      1.5612658     -2.2081401      17809.535    
    354000   0.93145687     0.0023323615  -0.00053322947  19.820008      18.436795      1.3832134     -2.0389007      17756.103    
    355000   0.99319558     0.0023323615  -0.002112401    20.064799      18.589904      1.4748954     -1.9862868      17870.895    
    356000   1.0340481      0.0023323615   0.0036369725   19.906263      18.370701      1.5355614     -2.1342776      17861.432    
    357000   1.0383858      0.0023323615   0.0029659407   20.184004      18.642001      1.5420029     -1.7682942      17964.962    
    358000   1.0336361      0.0023323615   0.00029844942  19.850442      18.315493      1.5349495     -2.0910323      18014.788    
    359000   0.91813859     0.0023323615  -0.0014206914   19.697273      18.333837      1.3634358     -2.189893       17864.287    
    360000   1.0275294      0.0023323615   0.0045534258   20.135594      18.609713      1.5258811     -1.8909129      17880.153    
    361000   1.0804035      0.0023323615  -0.005748575    20.303232      18.698833      1.6043993     -1.9747242      17863.471    
    362000   0.9810824      0.0023323615  -0.0023637321   19.783033      18.326126      1.4569074     -2.1138067      17867.977    
    363000   1.0263886      0.0023323615   0.0021608356   19.944277      18.42009       1.5241871     -1.9763785      17992.388    
    364000   1.0603903      0.0023323615   0.0011335116   20.170746      18.596067      1.5746796     -1.9177         17914.295    
    365000   1.0128668      0.0023323615   7.770127e-05   20.155752      18.651645      1.5041072     -1.8476076      18059.394    
    366000   0.8577101      0.0023323615  -0.00063247649  19.705982      18.432283      1.2736995     -2.066157       18179.865    
    367000   0.86400936     0.0023323615   0.0003309478   19.812472      18.529418      1.2830539     -2.0711426      17970.15     
    368000   0.90636014     0.0023323615   8.0879479e-05  19.907768      18.561823      1.3459448     -2.1015337      17851.293    
    369000   0.95260456     0.0023323615  -0.0025635927   19.829541      18.414923      1.4146178     -2.221571       17969.726    
    370000   1.0513393      0.0023323615   0.00072492171  20.181977      18.620738      1.5612389     -2.0108733      18009.022    
    371000   0.93149059     0.0023323615   0.0015874767   20.078206      18.694942      1.3832635     -2.0133542      18127.945    
    372000   0.96838938     0.0023323615   0.0025839152   20.137595      18.699537      1.4380582     -1.7635466      18007.43     
    373000   1.0155409      0.0023323615  -0.00041331794  20.039176      18.531098      1.5080783     -1.9909311      17960.197    
    374000   0.9372673      0.0023323615  -0.0016027277   19.961698      18.569856      1.3918419     -1.9338221      17808.886    
    375000   0.79523316     0.0023323615   0.0022885323   19.865222      18.684301      1.1809212     -1.8511638      17962.405    
    376000   1.0425109      0.0023323615  -0.00074762838  19.817832      18.269704      1.5481287     -2.1544249      17947.808    
    377000   0.86759333     0.0023323615  -0.0022053525   19.749319      18.460943      1.2883761     -1.9951945      17890.575    
    378000   0.78255347     0.0023323615  -0.0036682124   19.830799      18.668707      1.1620919     -1.8957071      18111.382    
    379000   0.8976912      0.0023323615   0.0014638787   19.804946      18.471874      1.3330714     -2.1969255      18084.962    
    380000   1.0533746      0.0023323615   0.00041255966  19.840408      18.276147      1.5642612     -2.1618094      17881.182    
    381000   0.99757643     0.0023323615  -0.0015277679   20.048627      18.567226      1.481401      -2.0772712      17811.985    
    382000   0.93667104     0.0023323615  -0.0015952273   20.057722      18.666765      1.3909565     -2.0833436      17839.813    
    383000   1.0092444      0.0023323615   0.0041783516   19.97238       18.473652      1.4987279     -2.0895729      17867.955    
    384000   1.0034201      0.0023323615   0.00010098334  19.864127      18.374048      1.4900789     -2.1319189      17940.799    
    385000   1.0329704      0.0023323615   0.0047244402   20.153837      18.619876      1.5339611     -1.9492184      17843.062    
    386000   0.93568899     0.0023323615  -0.0030444809   20.043476      18.653978      1.3894981     -1.8984184      17830.154    
    387000   1.1672634      0.0023323615  -0.0061318139   20.507807      18.774421      1.7333862     -1.7827354      18034.412    
    388000   0.93564143     0.0023323615  -0.0030916258   19.894277      18.504849      1.3894275     -1.955889       18027.162    
    389000   1.0631514      0.0023323615   0.00044746842  20.302882      18.724102      1.5787798     -1.8642314      17958.103    
    390000   1.0196255      0.0023323615  -0.0025443453   20.005995      18.491851      1.5141438     -2.0979613      17976.166    
    391000   0.89712918     0.0023323615   0.0027080596   19.792183      18.459947      1.3322368     -2.0137815      17861.48     
    392000   0.92297065     0.0023323615  -0.0026431027   19.842406      18.471794      1.3706114     -1.9414522      18000.746    
    393000   1.0578041      0.0023323615  -0.0025851684   19.915641      18.344802      1.570839      -2.2684262      17920.753    
    394000   1.0137084      0.0023323615  -0.0062121147   20.247082      18.741725      1.505357      -1.8169733      17912.829    
    395000   0.96050545     0.0023323615  -0.0016828164   19.707131      18.28078       1.4263506     -2.125389       18025.654    
    396000   0.90763081     0.0023323615  -0.0060578341   19.704973      18.357141      1.3478318     -2.1731546      18061.106    
    397000   1.0114406      0.0023323615   0.00094752788  20.54791       19.045921      1.5019893     -1.6022373      18232.138    
    398000   1.028821       0.0023323615  -0.0031310271   20.162044      18.634244      1.5277992     -1.8907696      18075        
    399000   1.1074397      0.0023323615  -0.0014287102   20.119044      18.474496      1.6445479     -1.9733427      18071.056    
    400000   1.1000498      0.0023323615   0.0014374701   19.895667      18.262093      1.633574      -2.2185043      18149.578    
    401000   0.8778769      0.0023323615  -0.0029903832   20.062417      18.75877       1.3036472     -1.7720842      18048.578    
    402000   0.885117       0.0023323615  -0.00083277734  19.853468      18.53907       1.3143988     -2.0113863      18156.538    
    403000   0.92916533     0.0023323615   0.00098930643  19.624533      18.244723      1.3798105     -2.201857       18045.087    
    404000   1.0843019      0.0023323615   0.00088891991  20.214297      18.604109      1.6101883     -1.9404934      17975.742    
    405000   0.94324641     0.0023323615  -0.002400445    20.081474      18.680753      1.4007209     -1.843714       17987.284    
    406000   1.0854732      0.0023323615  -0.0039092395   20.157459      18.545532      1.6119277     -2.0725324      17984.559    
    407000   0.99171815     0.0023323615  -0.0020299525   20.07999       18.607289      1.4727015     -1.9783123      17887.013    
    408000   0.91311903     0.0023323615  -0.00014840467  19.92387       18.567889      1.3559818     -1.9836926      17938.912    
    409000   1.09545        0.0023323615  -0.0020992047   20.269432      18.642689      1.6267433     -1.9014967      18086.578    
    410000   1.0163855      0.0023323615  -0.00068441363  20.113195      18.603862      1.5093325     -1.9830944      18009.909    
    411000   1.0895976      0.0023323615  -0.0038757865   20.134268      18.516215      1.6180524     -2.1813314      17932.457    
    412000   0.98230448     0.0023323615   0.0033109005   19.953554      18.494832      1.4587221     -2.0538012      17952.008    
    413000   0.99148319     0.0023323615  -0.0017047949   20.026198      18.553845      1.4723525     -2.0253388      18066.225    
    414000   1.020218       0.0023323615  -0.0014745638   20.234814      18.719791      1.5150238     -1.9401098      17994.253    
    415000   0.93782474     0.0023323615   0.0016890431   20.236373      18.843703      1.3926697     -1.7463224      18136.426    
    416000   0.80936469     0.0023323615   0.0019131317   19.675906      18.474         1.2019066     -2.0525346      18063.645    
    417000   1.0675122      0.0023323615  -0.00090724334  20.191748      18.606493      1.5852557     -1.8491172      17895.352    
    418000   0.95031994     0.0023323615  -0.0018402968   20.129452      18.718227      1.4112251     -1.8558851      18047.491    
    419000   0.95091351     0.0023323615  -0.0010829801   20.111782      18.699676      1.4121066     -1.844449       18121.481    
    420000   0.9304061      0.0023323615   0.00091152446  19.942195      18.560542      1.3816531     -1.9515311      18127.236    
    421000   1.029751       0.0023323615   0.0032508985   20.019338      18.490158      1.5291802     -1.9923618      17989.683    
    422000   1.0290724      0.0023323615  -0.00049898911  19.439727      17.911554      1.5281724     -2.49712        17840.323    
    423000   1.1057023      0.0023323615  -0.0023171732   20.176199      18.534231      1.641968      -1.9940792      17938.171    
    424000   0.85929068     0.0023323615  -0.0027602055   19.49876       18.222713      1.2760467     -2.216876       17797.852    
    425000   0.96960624     0.0023323615  -0.0056176156   20.049339      18.609473      1.4398653     -2.03685        17800.372    
    426000   0.97732323     0.0023323615  -0.0027140648   19.788987      18.337662      1.451325      -2.2460175      17972.344    
    427000   0.99726253     0.0023323615   0.0021798652   20.073084      18.592149      1.4809349     -1.892139       17984.4      
    428000   0.92510413     0.0023323615   0.0031223739   19.997735      18.623955      1.3737796     -1.975888       17988.386    
    429000   1.033379       0.0023323615   0.0015430273   19.949246      18.414678      1.5345678     -2.0778782      17948.047    
    430000   0.96957435     0.0023323615   0.00049025557  19.914976      18.475158      1.4398179     -2.1190373      17951.375    
    431000   1.0934543      0.0023323615  -0.00038821523  19.922248      18.298469      1.6237796     -2.0995991      17905.091    
    432000   0.93805935     0.0023323615  -0.0015214009   20.036263      18.643245      1.3930181     -1.9247077      17892.776    
    433000   1.0050383      0.0023323615   0.0051928597   20.023126      18.530644      1.4924819     -1.9613403      17945.511    
    434000   0.99186899     0.0023323615  -0.0029225257   20.045296      18.572371      1.4729254     -2.0147797      18021.547    
    435000   1.070843       0.0023323615  -0.001943116    20.130145      18.539943      1.5902019     -1.951852       18002.389    
    436000   0.94416735     0.0023323615  -0.0062389697   19.748911      18.346822      1.4020885     -2.1590103      18028.598    
    437000   1.1490866      0.0023323615  -0.0055084234   20.198692      18.492299      1.7063937     -2.017576       17968.94     
    438000   0.90682346     0.0023323615   0.00051331083  19.758381      18.411748      1.3466328     -2.0504714      17950.598    
    439000   0.82374153     0.0023323615   0.0036032207   19.833928      18.610672      1.2232562     -1.7745384      17918.845    
    440000   0.98801745     0.0023323615   0.0016227261   20.0733        18.606094      1.4672059     -1.9208741      17942.634    
    441000   1.0519421      0.0023323615  -0.0013154589   19.948517      18.386383      1.5621341     -2.0276396      17942.485    
    442000   0.96337225     0.0023323615  -0.001321119    19.994179      18.563571      1.4306078     -1.9424194      18042.399    
    443000   1.1598464      0.0023323615   0.0012397887   20.125816      18.403444      1.7223719     -2.0999548      17951.269    
    444000   0.92698312     0.0023323615   0.00076597012  20.237197      18.860627      1.3765699     -1.7170355      18170.926    
    445000   1.0487135      0.0023323615   0.00074948614  20.072943      18.515604      1.5573395     -2.0522701      18077.533    
    446000   1.0634269      0.0023323615  -0.00080933831  20.126157      18.546969      1.5791889     -2.0007089      18297.62     
    447000   1.034823       0.0023323615  -0.0022634464   20.189288      18.652575      1.5367122     -1.834853       18416.496    
    448000   1.0340434      0.0023323615   0.0019225538   19.892394      18.35684       1.5355544     -2.1272986      18588.797    
    449000   1.0432123      0.0023323615   0.0015964318   20.105978      18.556808      1.5491702     -1.9844994      18428.227    
    450000   0.96095901     0.0023323615   0.00052588927  19.80626       18.379235      1.4270241     -2.1551655      18491.18     
    451000   0.95689708     0.0023323615  -0.001472878    19.941526      18.520534      1.4209922     -1.9251748      18469.163    
    452000   0.87929758     0.0023323615  -0.0019870118   20.296344      18.990587      1.3057569     -1.6433213      18319.147    
    453000   1.0011696      0.0023323615   0.00024931416  20.109943      18.623206      1.4867369     -1.933001       18535.556    
    454000   1.1910396      0.0023323615   0.0050462982   20.129459      18.360765      1.7686938     -2.1907873      18614.988    
    455000   0.99918174     0.0023323615   4.1571873e-05  19.926565      18.44278       1.4837849     -2.1407884      18557.246    
    456000   0.91808575     0.0023323615   0.0016014042   19.491496      18.128138      1.3633573     -2.1398795      18483.404    
    457000   0.93329838     0.0023323615  -0.0044913631   20.087458      18.70151       1.3859481     -1.8483724      18442.592    
    458000   1.0926693      0.0023323615   0.0017647804   19.952423      18.329809      1.6226139     -2.0779214      18484.903    
    459000   0.99218487     0.0023323615   0.0035367842   20.108597      18.635203      1.4733945     -2.0127335      18447.957    
    460000   0.87181789     0.0023323615   0.0048727608   19.610672      18.316022      1.2946496     -2.1725763      18560.028    
    461000   1.1130524      0.0023323615   3.7589388e-06  20.276293      18.62341       1.6528828     -1.9444942      18487.091    
    462000   1.1577066      0.0023323615   0.0035163186   20.06136       18.342166      1.7191943     -2.1791961      18294.233    
    463000   1.0990571      0.0023323615   0.0028378347   20.342319      18.710219      1.6320998     -1.7784345      18201.537    
    464000   1.0971594      0.0023323615  -0.0013225813   20.023519      18.394237      1.6292817     -2.1210615      18084.202    
    465000   1.0101053      0.0023323615   0.00054283449  19.985674      18.485667      1.5000064     -1.9380853      17993.448    
    466000   1.1746069      0.0023323615   0.00311982     20.278767      18.534475      1.7442912     -1.9218136      18029.715    
    467000   1.0180868      0.0023323615  -6.71179e-06    19.862507      18.350648      1.511859      -2.1756041      18024.124    
    468000   1.0326534      0.0023323615   0.00083359559  20.04888       18.51539       1.5334903     -1.9953772      18072.967    
    469000   0.82252514     0.0023323615  -0.0024758322   19.755055      18.533605      1.2214498     -1.8616039      18014.7      
    470000   1.0468876      0.0023323615   0.0025200852   19.912401      18.357773      1.5546281     -2.0785799      18029.897    
    471000   0.87113362     0.0023323615   0.00036671638  19.824098      18.530465      1.2936334     -1.9746638      18172.342    
    472000   0.93186288     0.0023323615   0.0027408674   19.847363      18.463547      1.3838164     -2.0804525      17920.386    
    473000   0.91329066     0.0023323615   0.0024008917   19.493686      18.137449      1.3562366     -2.2675468      17882.918    
    474000   1.1650031      0.0023323615   0.00017099942  20.112646      18.382617      1.7300295     -2.1233209      17845.577    
    475000   0.93611242     0.0023323615   0.0019230817   19.759164      18.369037      1.3901269     -2.1200701      17993.066    
    476000   0.87224078     0.0023323615  -0.005337062    19.908079      18.612801      1.2952776     -1.8885099      18074.384    
    477000   0.9585235      0.0023323615   0.0014190932   19.741442      18.318034      1.4234074     -2.2091912      18017.246    
    478000   1.0357543      0.0023323615   0.0024797153   20.040032      18.501937      1.5380951     -1.9580349      17911.55     
    479000   1.0196324      0.0023323615  -0.0057347593   20.081123      18.566969      1.514154      -1.9473818      18049.061    
    480000   0.97925243     0.0023323615   0.0018470897   20.000617      18.546427      1.4541899     -1.9104435      18133.204    
    481000   0.9515762      0.0023323615  -0.0029586787   19.785892      18.372801      1.4130907     -2.0828403      18302.314    
    482000   0.97470119     0.0023323615   0.0016227438   20.099044      18.651613      1.4474313     -1.9449736      18074.597    
    483000   0.90401664     0.0023323615   0.0048869812   19.913332      18.570867      1.3424647     -1.8785957      18096.176    
    484000   1.0189533      0.0023323615  -0.0016582073   19.779334      18.266188      1.5131457     -2.143482       17960.494    
    485000   0.87824683     0.0023323615   0.0017222656   19.76367       18.459474      1.3041965     -1.9347132      18224.794    
    486000   0.87073962     0.0023323615  -0.0038046107   20.147281      18.854232      1.2930483     -1.6417864      18389.43     
    487000   0.99728187     0.0023323615  -0.00046906686  20.122833      18.64187       1.4809636     -1.8812733      18291.95     
    488000   1.0763204      0.0023323615  -0.0009799291   20.099346      18.50101       1.5983357     -1.9613659      18291.601    
    489000   1.0020096      0.0023323615   2.7320681e-05  19.889661      18.401677      1.4879842     -2.0124762      18271.862    
    490000   1.016241       0.0023323615   0.0013074322   19.896842      18.387724      1.5091179     -2.0013561      18095.408    
    491000   1.0172832      0.0023323615  -0.0029237033   20.257041      18.746376      1.5106656     -1.7604674      18120.599    
    492000   0.99235966     0.0023323615  -0.00093146528  19.845501      18.371847      1.4736541     -2.126832       18183.542    
    493000   1.0396846      0.0023323615   0.0012926803   20.107591      18.56366       1.5439317     -2.089633       18057.054    
    494000   0.92683732     0.0023323615  -0.0016889146   19.862179      18.485825      1.3763534     -2.0452812      18045.625    
    495000   1.013711       0.0023323615   0.0016405165   20.138445      18.633084      1.5053608     -1.9380789      18044.111    
    496000   0.91399383     0.0023323615   0.0017876864   19.762691      18.40541       1.3572808     -2.0470761      18043.857    
    497000   0.94502488     0.0023323615  -0.00063043707  19.939808      18.536446      1.403362      -2.0293145      18004.912    
    498000   0.99912166     0.0023323615   0.0014764274   19.889573      18.405877      1.4836957     -2.0387635      18206.63     
    499000   0.97916175     0.0023323615   0.00058361796  20.149194      18.695139      1.4540552     -1.8082166      18195.826    
    500000   1.1822204      0.0023323615   0.0036093978   20.582253      18.826656      1.7555973     -1.8079129      18484.637    
    501000   1.0581202      0.0023323615  -0.00062503789  20.372274      18.800966      1.5713085     -1.6410488      18459.384    
    502000   1.054455       0.0023323615  -0.0012671574   20.340089      18.774223      1.5658657     -1.6928651      18274.645    
    503000   1.0001955      0.0023323615   0.0040267452   20.102708      18.617418      1.4852903     -1.8938844      18467.83     
    504000   1.0155135      0.0023323615  -0.00094501247  20.105263      18.597225      1.5080375     -1.9263359      18350.762    
    505000   0.84076886     0.0023323615   0.00061370139  19.949743      18.701201      1.2485418     -1.8492764      18254.903    
    506000   0.97865548     0.0023323615   0.0026677126   19.653625      18.200322      1.4533034     -2.2179197      18024.398    
    507000   0.92351907     0.0023323615  -0.0018062506   20.022453      18.651027      1.3714258     -1.9815471      18154.233    
    508000   0.9772039      0.0023323615   0.0055336629   20.042822      18.591675      1.4511478     -1.8198401      18189.46     
    509000   1.1008528      0.0023323615  -0.0003962997   20.136805      18.502039      1.6347664     -2.0566005      18229.414    
    510000   0.9332176      0.0023323615   0.0024904341   20.152706      18.766877      1.3858281     -1.7004843      18309.499    
    511000   0.98978515     0.0023323615  -0.00040710478  19.916426      18.446595      1.469831      -2.2410904      18132.008    
    512000   0.89837364     0.0023323615   0.00044110328  19.776049      18.441964      1.3340849     -2.0322262      18177.574    
    513000   0.91270554     0.0023323615   0.0015516928   19.893067      18.537699      1.3553677     -2.0160113      18107.239    
    514000   0.99902368     0.0023323615  -0.00081307443  20.073765      18.590215      1.4835502     -1.9149393      18167.609    
    515000   0.7939311      0.0023323615  -0.0044087685   19.580021      18.401034      1.1789877     -2.2171429      18031.581    
    516000   0.96497382     0.0023323615  -0.0042262753   19.937267      18.504281      1.4329861     -2.0200228      17934.819    
    517000   1.1611482      0.0023323615   0.0028588509   20.126615      18.40231       1.7243051     -2.0337357      17985.469    
    518000   0.90162062     0.0023323615   0.0018312914   20.263676      18.924769      1.3389066     -1.6922305      17983.548    
    519000   0.86050768     0.0023323615  -0.0029586052   19.747718      18.469864      1.2778539     -1.9180263      18106.605    
    520000   0.98547572     0.0023323615  -0.0021119196   19.987271      18.52384       1.4634314     -1.9873976      18017.952    
    521000   1.0329258      0.0023323615  -0.0013299312   20.22701       18.693115      1.5338949     -1.8198716      18140.065    
    522000   0.90564952     0.0023323615   0.0013353896   19.939547      18.594657      1.3448895     -1.901614       18169.745    
    523000   1.0844819      0.0023323615  -0.00056275732  19.829945      18.21949       1.6104556     -2.2485007      18238.918    
    524000   1.0939642      0.0023323615  -0.0034656891   20.343791      18.719254      1.6245369     -1.910897       18216.199    
    525000   1.1357128      0.0023323615  -0.0013021969   20.305878      18.619344      1.6865335     -1.9251056      18066.477    
    526000   0.90485237     0.0023323615   0.0013605019   19.876953      18.533247      1.3437058     -1.9849866      18053.148    
    527000   1.1492435      0.0023323615   0.006171037    20.191198      18.484572      1.7066266     -2.0576821      18073.913    
    528000   0.97879284     0.0023323615   0.0041704345   20.208641      18.755134      1.4535074     -1.7183524      17986.953    
    529000   1.0157026      0.0023323615   0.0014892651   19.799822      18.291504      1.5083183     -2.2159367      17884.34     
    530000   1.093885       0.0023323615  -0.00083552915  20.419591      18.795172      1.6244192     -1.7967673      17955.147    
    531000   0.92542057     0.0023323615  -0.0045767548   19.835343      18.461093      1.3742495     -2.0082782      17905.762    
    532000   1.0754043      0.0023323615   0.0027139966   20.284342      18.687366      1.5969753     -1.8712013      17904.439    
    533000   0.88725918     0.0023323615  -0.00084900764  19.959298      18.641718      1.3175799     -1.8740742      18123.135    
    534000   0.98517447     0.0023323615   0.0010253518   20.082832      18.619848      1.4629841     -1.8497221      18073.786    
    535000   0.84017037     0.0023323615   0.0030151867   19.905453      18.6578        1.247653      -1.8397804      18065.182    
    536000   1.1107002      0.0023323615  -0.0004967243   20.327843      18.678453      1.6493898     -1.7831904      18193.369    
    537000   0.96677927     0.0023323615   3.2241942e-05  19.813744      18.378077      1.4356672     -2.1299996      18245.646    
    538000   1.0216466      0.0023323615   0.0015443046   20.022946      18.505801      1.5171452     -2.0929821      18113.401    
    539000   1.1012975      0.0023323615  -0.0024325232   20.08205       18.446624      1.6354268     -2.1077137      18143.949    
    540000   0.89621979     0.0023323615  -0.0038891001   19.873297      18.54241       1.3308864     -2.0602919      18086.424    
    541000   0.89604523     0.0023323615   0.00033558572  19.787302      18.456675      1.3306272     -2.0749925      17909.432    
    542000   0.98852846     0.0023323615  -0.00053927474  19.933742      18.465777      1.4679648     -2.0726995      17960.265    
    543000   0.90418508     0.0023323615   0.004004266    19.829997      18.487282      1.3427148     -2.1638576      17981.921    
    544000   1.0172435      0.0023323615   0.0027256452   20.202057      18.69145       1.5106065     -1.9515775      17891.987    
    545000   0.97030695     0.0023323615   0.0015162248   19.944397      18.503491      1.4409058     -1.9001789      17862.122    
    546000   1.036566       0.0023323615   0.0010936237   20.15117       18.61187       1.5393006     -2.0218688      17727.257    
    547000   0.9302084      0.0023323615   0.0015619934   19.819711      18.438352      1.3813595     -2.1368576      17760.65     
    548000   1.0133601      0.0023323615   0.00029354338  20.018643      18.513803      1.5048397     -1.9122641      17651.756    
    549000   1.0263398      0.0023323615   0.00059754767  20.097044      18.572929      1.5241146     -1.934224       17815.972    
    550000   0.89825774     0.0023323615  -0.00015225045  19.896828      18.562915      1.3339127     -1.965391       17894.161    
    551000   1.039123       0.0023323615  -0.0004382628   19.95019       18.407092      1.5430977     -2.1178409      17600.057    
    552000   1.0535369      0.0023323615  -0.0018832621   20.235009      18.670507      1.5645023     -1.8437399      17777.839    
    553000   0.86758588     0.0023323615  -0.0029137542   19.757288      18.468923      1.288365      -2.1002478      17701.494    
    554000   1.0287342      0.0023323615  -0.00080954963  20.089629      18.561959      1.5276702     -1.8929488      17777.304    
    555000   0.97178953     0.0023323615  -0.0049894661   20.062469      18.619362      1.4431075     -1.8423502      17643.977    
    556000   0.91998915     0.0023323615   9.7526747e-05  19.554966      18.188783      1.3661839     -2.3671832      17552.517    
    557000   0.89435555     0.0023323615  -0.0022512433   19.870612      18.542494      1.328118      -2.0224976      17626.096    
    558000   1.1580333      0.0023323615  -0.00060601822  20.055961      18.336282      1.7196794     -2.2770066      17670.021    
    559000   0.81339567     0.0023323615   0.0022008853   19.635715      18.427822      1.2078926     -2.1532683      17679.373    
    560000   0.98145988     0.0023323615  -0.0023204583   19.852962      18.395494      1.4574679     -2.070292       17692.846    
    561000   0.98080349     0.0023323615  -0.00024837206  19.872241      18.415748      1.4564932     -1.9887836      17913.89     
    562000   1.0704498      0.0023323615   0.0019976913   20.024064      18.434446      1.589618      -2.0031587      17841.679    
    563000   1.0228398      0.0023323615   7.6483891e-05  19.996679      18.477762      1.5189171     -2.0516743      17792.962    
    564000   1.0385944      0.0023323615   0.0040406913   20.072648      18.530335      1.5423127     -2.0148021      17858.636    
    565000   1.0050358      0.0023323615   0.0033140339   19.874187      18.381708      1.4924781     -2.1769602      17745.723    
    566000   0.95594506     0.0023323615   0.0025877012   19.734522      18.314944      1.4195784     -2.0763965      17779.568    
    567000   0.95205778     0.0023323615  -0.00026832616  19.921703      18.507897      1.4138058     -1.9956176      17611.64     
    568000   0.98914339     0.0023323615   0.0042716182   19.976803      18.507925      1.4688779     -1.9522617      17742.102    
    569000   0.8770441      0.0023323615  -0.0048524771   19.785626      18.483215      1.3024105     -2.1702815      17796.563    
    570000   0.99192871     0.0023323615  -0.00023505096  19.859461      18.386447      1.4730141     -2.1871851      17715.845    
    571000   1.0231531      0.0023323615  -0.0027357402   20.000971      18.481589      1.5193824     -2.0874303      17674.183    
    572000   0.91681676     0.0023323615   0.0031612324   19.639185      18.277712      1.3614729     -2.1276592      17718.597    
    573000   0.99934627     0.0023323615   0.00060682081  19.967662      18.483633      1.4840292     -2.0522211      17562.734    
    574000   1.0692061      0.0023323615  -0.0038131953   20.373382      18.785611      1.5877711     -1.8318812      17647.05     
    575000   1.128188       0.0023323615   0.0024203165   20.255702      18.580343      1.6753592     -1.9752905      17868.409    
    576000   0.87422374     0.0023323615  -9.4446832e-05  19.888525      18.590303      1.2982222     -1.9258487      17781.016    
    577000   0.94614285     0.0023323615  -0.0011545887   19.849846      18.444824      1.4050221     -1.9716508      17847.616    
    578000   1.1065486      0.0023323615   0.0014628849   20.213746      18.570522      1.6432247     -1.9965789      17748.273    
    579000   0.92117602     0.0023323615  -0.0044993744   20.03418       18.666233      1.3679464     -1.9207653      17560.123    
    580000   1.0522219      0.0023323615  -0.0012397689   20.235784      18.673234      1.5625496     -1.9063685      17633.451    
    581000   1.215255       0.0023323615   0.0014199579   20.335828      18.531174      1.8046537     -2.0100147      17652.215    
    582000   1.1269239      0.0023323615   0.0022678966   19.824114      18.150632      1.6734819     -2.3094978      17518.491    
    583000   1.0297761      0.0023323615  -0.00054798338  20.246281      18.717063      1.5292175     -1.797932       17685.66     
    584000   1.2383155      0.0023323615   0.0003034844   20.267492      18.428594      1.8388985     -2.0611036      17721.388    
    585000   0.95000446     0.0023323615   0.0023594655   19.898091      18.487335      1.4107566     -2.0641434      17842.338    
    586000   0.8735308      0.0023323615  -0.0009194159   19.897628      18.600435      1.2971932     -2.0091926      17889.841    
    587000   0.91076274     0.0023323615  -0.0011494421   19.756018      18.403535      1.3524827     -1.9125956      17941.153    
    588000   0.98007514     0.0023323615   0.0068533987   19.968248      18.512837      1.4554116     -2.0219451      17784.631    
    589000   1.0064581      0.0023323615  -0.0007413206   20.04712       18.55253       1.4945902     -2.0227086      17786.526    
    590000   1.103677       0.0023323615   0.0013224474   19.939448      18.300487      1.6389603     -2.2286225      17731.953    
    591000   0.97172024     0.0023323615  -0.0019736052   19.677346      18.234341      1.4430045     -2.2360836      17702.407    
    592000   0.98818549     0.0023323615  -0.0029881725   19.967394      18.499938      1.4674555     -2.0306254      17670.625    
    593000   1.0311947      0.0023323615  -0.0025235804   20.040762      18.509438      1.5313241     -2.1070983      17840.939    
    594000   0.98600893     0.0023323615  -0.0019244288   19.880611      18.416387      1.4642233     -2.1651733      17711.171    
    595000   1.0180617      0.0023323615  -0.0051623666   19.907785      18.395963      1.5118217     -2.1475543      17674.393    
    596000   0.95780067     0.0023323615  -0.0014763093   20.096747      18.674413      1.422334      -1.8639525      17773.075    
    597000   0.93146833     0.0023323615  -0.0015943716   19.924902      18.541672      1.3832305     -2.0750385      17815.877    
    598000   0.87448611     0.0023323615  -0.00059065784  19.95043       18.651818      1.2986119     -1.8564399      17678.03     
    599000   1.0206465      0.0023323615   0.00038072528  20.110156      18.594496      1.51566       -1.8990032      17668.311    
    600000   1.0166445      0.0023323615   0.0032204513   20.112871      18.603154      1.5097171     -1.943471       17750.65     
    601000   1.1479512      0.0023323615   0.0014356639   20.387955      18.683247      1.7047076     -1.8864357      17807.8      
    602000   0.97869052     0.0023323615   0.00039482254  19.972633      18.519277      1.4533554     -1.8896633      17891.887    
    603000   0.91515307     0.0023323615  -0.0029554581   19.741943      18.382941      1.3590023     -2.0718303      17726.455    
    604000   1.0484505      0.0023323615  -0.001469668    20.106359      18.54941       1.556949      -2.0231629      17734.968    
    605000   0.95254324     0.0023323615  -0.0049639881   19.887082      18.472555      1.4145267     -2.0307887      17748.011    
    606000   0.99501557     0.0023323615  -0.001778853    19.877033      18.399435      1.4775981     -2.0626406      17747.279    
    607000   0.99762172     0.0023323615   0.0054664606   19.912351      18.430883      1.4814683     -2.043242       17855.885    
    608000   1.0544565      0.0023323615   0.00270527     20.103689      18.537821      1.5658679     -1.8508371      17777.19     
    609000   0.93059386     0.0023323615   0.0015458835   19.973866      18.591934      1.3819319     -1.8908445      17693.426    
    610000   1.0259878      0.0023323615  -0.00073067438  20.131271      18.607679      1.5235919     -1.8963937      17939.154    
    611000   0.95712486     0.0023323615   0.00059264386  20.072426      18.651095      1.4213304     -1.8033922      17923.408    
    612000   1.0436531      0.0023323615  -0.00074231857  20.154145      18.60432       1.5498249     -1.7999534      17846.658    
    613000   1.0318641      0.0023323615  -0.00040373435  19.990587      18.458269      1.5323181     -2.159297       17941.16     
    614000   0.82932816     0.0023323615  -0.0013126597   19.521491      18.289938      1.2315523     -2.1597451      17792.715    
    615000   1.1096006      0.0023323615  -0.00040066681  20.220162      18.572405      1.6477568     -1.8122548      17812.459    
    616000   0.99765391     0.0023323615  -0.00012211197  19.885035      18.403519      1.4815161     -2.0411354      17936.075    
    617000   1.1136954      0.0023323615  -0.0020411218   20.672886      19.019048      1.6538376     -1.5697475      17887.238    
    618000   0.89957443     0.0023323615  -0.0017117058   20.108184      18.772316      1.335868      -1.9378727      17963.559    
    619000   0.91155414     0.0023323615  -0.0024668704   19.989748      18.63609       1.3536579     -1.7655565      17954.469    
    620000   0.93040603     0.0023323615  -0.0027345783   20.117889      18.736236      1.381653      -1.6940033      17890.646    
    621000   0.96907023     0.0023323615  -0.00018798345  20.151049      18.71198       1.4390693     -1.8894354      17774.164    
    622000   1.005996       0.0023323615   0.0005727022   20.25491       18.761006      1.493904      -1.7637988      17799.905    
    623000   0.89412416     0.0023323615  -0.00057890682  20.164457      18.836682      1.3277744     -1.6992847      17911.922    
    624000   0.84304453     0.0023323615  -0.0020160505   19.824561      18.57264       1.2519211     -1.9611459      17856.722    
    625000   0.90282475     0.0023323615  -0.0020709485   19.779026      18.438331      1.3406948     -2.0908248      17722.325    
    626000   0.97823492     0.0023323615  -0.00072103987  19.868653      18.415974      1.4526789     -2.0302173      17586.431    
    627000   0.98757869     0.0023323615  -0.00070955825  19.903262      18.436708      1.4665544     -2.245149       17882.011    
    628000   0.98734468     0.0023323615   0.0014823689   20.151857      18.68565       1.4662069     -2.0206289      17895.274    
    629000   0.88679787     0.0023323615  -0.00027454396  19.599341      18.282446      1.3168948     -2.1673378      17661.261    
    630000   1.010565       0.0023323615   0.0019347046   20.155311      18.654622      1.500689      -2.0681916      17811.353    
    631000   0.93385715     0.0023323615   0.0052633868   19.888273      18.501495      1.3867779     -2.0895744      18010.744    
    632000   1.0223875      0.0023323615  -0.0036287551   20.21207       18.693824      1.5182455     -1.8226297      17905.036    
    633000   0.85227365     0.0023323615   0.00036929369  20.060769      18.795142      1.2656264     -1.7516574      17828.09     
    634000   0.99251259     0.0023323615  -0.00091519574  20.138265      18.664384      1.4738812     -1.8526455      17772.619    
    635000   0.91724501     0.0023323615   0.0012691618   19.813376      18.451267      1.3621088     -2.0411763      17577.834    
    636000   0.87460369     0.0023323615   0.0036874303   19.7807        18.481914      1.2987865     -2.0984418      17795.18     
    637000   1.0084551      0.0023323615  -0.0010722422   20.097001      18.599445      1.4975558     -1.8780359      17716.691    
    638000   0.91875542     0.0023323615  -0.0023635371   19.854654      18.490302      1.3643518     -1.9871679      17924.203    
    639000   0.93431047     0.0023323615  -0.0027639821   19.823398      18.435947      1.387451      -2.0308295      17932.322    
    640000   1.0665737      0.0023323615   0.00011871293  19.913695      18.329833      1.5838619     -2.1863677      17932.147    
    641000   0.90265711     0.0023323615  -0.00019882948  19.758331      18.417885      1.3404458     -2.0824361      17967.749    
    642000   1.0695192      0.0023323615  -0.0017941353   20.07605       18.487814      1.588236      -2.0128462      18015.786    
    643000   1.0664967      0.0023323615   0.0019726663   19.952638      18.368891      1.5837476     -2.1091633      18064.27     
    644000   0.97199039     0.0023323615   0.0012833214   20.282063      18.838657      1.4434057     -1.7677967      18051.056    
    645000   0.86809367     0.0023323615   0.0024785555   19.658434      18.369315      1.2891191     -2.0740402      18148.928    
    646000   0.99280653     0.0023323615  -0.0033578842   19.964224      18.489906      1.4743177     -2.1133145      17993.679    
    647000   0.91661977     0.0023323615  -0.0021342636   19.75945       18.39827       1.3611804     -2.0308789      17969.27     
    648000   0.91064445     0.0023323615   0.00049189893  19.765862      18.413555      1.352307      -2.0964434      17892.881    
    649000   1.00954        0.0023323615  -0.00050846149  19.964423      18.465257      1.4991669     -1.9949325      17905.371    
    650000   0.99360309     0.0023323615  -0.00034643746  19.87956       18.404059      1.4755006     -2.0981426      17895.906    
    651000   0.9852426      0.0023323615   0.00045096226  19.919917      18.456831      1.4630853     -1.9952765      17698.741    
    652000   0.92171815     0.0023323615   0.00081546924  19.881229      18.512477      1.3687514     -1.9645427      17709.905    
    653000   1.0370762      0.0023323615  -0.0027190508   20.113217      18.573159      1.5400582     -2.063777       17725.4      
    654000   1.1094802      0.0023323615   0.0048957078   20.446322      18.798744      1.6475781     -1.7670216      17626.448    
    655000   0.98233728     0.0023323615  -0.0029228785   19.935352      18.476581      1.4587709     -1.9498584      17720.783    
    656000   1.0144973      0.0023323615   0.00073379615  20.295891      18.789362      1.5065286     -1.8150497      17874.271    
    657000   0.90405676     0.0023323615   0.0010282115   19.838504      18.49598       1.3425243     -1.9791179      17810.164    
    658000   0.9847543      0.0023323615  -0.00087573009  20.046176      18.583816      1.4623601     -2.0140237      17760.918    
    659000   0.98387824     0.0023323615  -0.00045462939  20.169673      18.708614      1.4610592     -1.7902002      17792.28     
    660000   1.1612901      0.0023323615   0.0012411576   20.514324      18.789808      1.7245158     -1.6817367      17904.436    
    661000   0.89938549     0.0023323615  -0.0050458886   20.10056       18.764973      1.3355875     -1.7774814      17944.246    
    662000   0.96093291     0.0023323615   0.00058742718  19.914097      18.487112      1.4269854     -2.0863826      17808.699    
    663000   0.95333665     0.0023323615   0.00096435822  19.881992      18.466287      1.4157049     -2.0056357      17947.957    
    664000   0.96585491     0.0023323615  -0.0015635473   19.962715      18.528421      1.4342945     -1.9594506      17908.564    
    665000   1.0107852      0.0023323615   0.001787011    20.066072      18.565056      1.501016      -1.8393042      17973.962    
    666000   1.1506283      0.0023323615  -0.0014499748   20.353898      18.645215      1.708683      -1.9298325      17775        
    667000   1.0383291      0.0023323615  -0.0029114137   19.912534      18.370615      1.5419187     -2.2219807      17625.75     
    668000   1.0837635      0.0023323615   0.004149373    19.889578      18.280189      1.6093888     -2.2882144      17583.798    
    669000   0.97208811     0.0023323615  -0.0036464597   20.022056      18.578505      1.4435508     -1.9985597      17697.31     
    670000   0.87170841     0.0023323615   0.002677291    19.883739      18.589252      1.294487      -1.8580537      17593.393    
    671000   0.98595488     0.0023323615   0.0011675229   19.762354      18.298211      1.464143      -2.3196261      17655.8      
    672000   1.0458834      0.0023323615   0.0023642061   19.785305      18.232168      1.5531369     -2.2295459      17539.005    
    673000   0.88720012     0.0023323615   0.0028363055   19.892155      18.574663      1.3174922     -2.0399606      17511.996    
    674000   1.0437891      0.0023323615  -0.0023060993   20.065731      18.515704      1.5500268     -2.0880998      17577.05     
    675000   1.0691435      0.0023323615   0.0070889097   20.124543      18.536865      1.5876781     -1.9647106      17641.701    
    676000   0.95150422     0.0023323615   0.0033504474   19.897342      18.484358      1.4129838     -1.9949146      17649.796    
    677000   0.88516388     0.0023323615   0.00080992954  19.876084      18.561616      1.3144684     -1.9545517      17724.002    
    678000   1.0024012      0.0023323615  -0.00084736564  20.023211      18.534646      1.4885657     -2.075199       17632.423    
    679000   1.075934       0.0023323615  -0.0010714975   20.094864      18.497102      1.597762      -2.0272957      17659.011    
    680000   0.91964679     0.0023323615   0.0018377011   19.771728      18.406052      1.3656755     -2.0758199      17773.075    
    681000   0.90269106     0.0023323615  -0.00012715697  19.73362       18.393124      1.3404962     -2.088958       17678.7      
    682000   0.95938332     0.0023323615  -0.0019986428   19.849228      18.424544      1.4246842     -2.1596328      17599.061    
    683000   1.1253731      0.0023323615   0.0020252098   20.310156      18.638977      1.6711791     -1.9202078      17661.289    
    684000   0.87331223     0.0023323615  -0.0010101444   19.833439      18.536571      1.2968687     -1.9776351      17814.42     
    685000   1.0293138      0.0023323615   1.4804201e-06  20.10888       18.580349      1.528531      -1.9861466      17873.074    
    686000   0.9552881      0.0023323615  -0.0012648434   20.169011      18.750408      1.4186028     -1.8242742      17966.534    
    687000   0.98354514     0.0023323615  -0.0015951877   19.910851      18.450286      1.4605645     -2.0638936      17744.856    
    688000   0.84650903     0.0023323615   0.00017210971  19.92024       18.663174      1.2570659     -1.8091601      17809.096    
    689000   1.0516975      0.0023323615  -0.006359616    20.222585      18.660815      1.5617708     -1.938167       17764.44     
    690000   1.0794747      0.0023323615  -0.0046501371   19.956803      18.353783      1.60302       -2.1701034      17493.802    
    691000   0.97729149     0.0023323615  -0.0017916409   19.808475      18.357197      1.4512779     -2.0479585      17446.931    
    692000   1.0241645      0.0023323615   0.001708378    19.882627      18.361742      1.5208843     -2.1804686      17519.582    
    693000   1.1154238      0.0023323615  -0.0041555409   20.127096      18.470692      1.6564044     -2.0625159      17543.169    
    694000   1.1168331      0.0023323615   0.0023065168   20.18601       18.527513      1.6584971     -1.9710271      17607.611    
    695000   0.96538124     0.0023323615  -0.0038327603   20.278014      18.844422      1.4335911     -1.6835195      17717.125    
    696000   1.0513125      0.0023323615   0.002419073    19.912722      18.351523      1.5611991     -2.0964857      17691.174    
    697000   0.86466206     0.0023323615   0.00095823783  19.739156      18.455132      1.2840232     -1.9923664      17753.674    
    698000   1.0510439      0.0023323615  -0.0010488609   20.097197      18.536397      1.5608001     -1.9966333      17617.149    
    699000   1.058144       0.0023323615  -0.0026814853   19.876366      18.305022      1.5713439     -2.2484545      17819.07     
    700000   1.0269042      0.0023323615  -0.0040073043   20.230589      18.705636      1.5249528     -1.890097       17784.675    
    701000   0.91659616     0.0023323615  -0.0016606783   19.538404      18.177259      1.3611453     -2.2550061      18040.074    
    702000   1.0809074      0.0023323615  -0.0031491121   20.129623      18.524475      1.6051475     -2.0975601      17838.225    
    703000   0.98724896     0.0023323615  -0.0015905464   19.928943      18.462879      1.4660647     -1.9619691      17775.405    
    704000   1.0824737      0.0023323615  -0.00036229561  19.935976      18.328502      1.6074735     -2.1122191      17745.477    
    705000   1.0700971      0.0023323615   0.0024671209   20.181784      18.59269       1.5890941     -2.0222259      17739.627    
    706000   0.91541358     0.0023323615   0.0038755409   19.766457      18.407067      1.3593892     -2.0261282      17509.136    
    707000   0.96101075     0.0023323615   0.0012065421   20.182281      18.75518       1.427101      -1.8324025      17701.566    
    708000   0.9731086      0.0023323615  -4.4356381e-06  20.092245      18.647178      1.4450663     -1.7528295      17659.401    
    709000   1.1244479      0.0023323615   0.0061244434   20.300901      18.631096      1.6698052     -1.883126       17700.489    
    710000   1.145147       0.0023323615   0.00064322975  20.323883      18.62334       1.7005434     -1.9173034      17780.364    
    711000   0.93990753     0.0023323615   0.0026944253   19.94422       18.548458      1.3957627     -2.10712        17797.677    
    712000   0.99499907     0.0023323615   0.0026544543   20.234987      18.757413      1.4775736     -1.8672788      17697.752    
    713000   1.1177128      0.0023323615  -0.00069709894  20.502048      18.842245      1.6598036     -1.5988047      17898.605    
    714000   1.0504994      0.0023323615   0.0011465359   20.426569      18.866578      1.5599916     -1.6115538      17738.728    
    715000   1.0635593      0.0023323615   0.0053322264   20.280108      18.700723      1.5793855     -1.7676729      17758.198    
    716000   1.0257841      0.0023323615  -0.0022197562   20.15659       18.633301      1.5232894     -1.8558102      17810.358    
    717000   1.0498901      0.0023323615  -0.00077894269  20.167384      18.608297      1.5590867     -1.9447612      17869.225    
    718000   0.97653354     0.0023323615   0.00031639774  20.174982      18.72483       1.4501523     -1.8603112      17878.68     
    719000   1.0181972      0.0023323615   0.0010341483   19.85176       18.339737      1.5120228     -2.0434287      18036.426    
    720000   1.0547291      0.0023323615  -0.0014656797   19.901908      18.335635      1.5662727     -2.0488356      17847.702    
    721000   0.94675374     0.0023323615  -0.0023537251   19.886607      18.480678      1.4059293     -1.9267376      17863.849    
    722000   0.86311071     0.0023323615  -0.00016770319  19.452679      18.170959      1.2817194     -2.2607734      17647.54     
    723000   1.0069317      0.0023323615   0.0015437037   19.794053      18.29876       1.4952936     -2.2559284      17601.966    
    724000   0.90247149     0.0023323615   0.0011803156   19.572372      18.232202      1.3401702     -2.2760721      17457.291    
    725000   0.85883916     0.0023323615   0.004684196    19.951662      18.676285      1.2753762     -1.9795792      17610.167    
    726000   0.9853482      0.0023323615   0.00057834581  20.29664       18.833398      1.4632421     -1.8329535      17688.553    
    727000   0.97305444     0.0023323615  -0.00060260914  19.820428      18.375442      1.4449858     -2.1363851      17698.116    
    728000   0.91682427     0.0023323615   0.0020186101   19.84785       18.486366      1.361484      -2.0084018      17671.317    
    729000   0.99131078     0.0023323615  -0.004280685    20.331313      18.859217      1.4720965     -1.551098       17832.562    
    730000   0.97477636     0.0023323615   0.0013047385   19.941075      18.493532      1.4475429     -1.9790885      17790.584    
    731000   1.0320595      0.0023323615   0.0014424055   20.012719      18.48011       1.5326084     -2.1473147      17740.859    
    732000   1.1153472      0.0023323615   0.00013892757  20.29847       18.64218       1.6562905     -1.8216309      17887.068    
    733000   1.0132699      0.0023323615   0.0025410852   19.839365      18.334659      1.5047057     -2.2047166      17731.2      
    734000   1.0282867      0.0023323615   0.0011538718   20.080772      18.553766      1.5270058     -1.9588785      17684.99     
    735000   1.0838541      0.0023323615  -0.0030228955   20.025111      18.415588      1.6095233     -2.0826804      17604.586    
    736000   1.0727176      0.0023323615  -0.0027190673   20.006038      18.413053      1.5929857     -2.1577564      17598.04     
    737000   1.0309746      0.0023323615  -0.0018160411   19.825944      18.294947      1.5309973     -2.2586753      17762.84     
    738000   1.0255225      0.0023323615   0.00034086947  20.318235      18.795334      1.5229009     -1.9112838      17788.644    
    739000   1.0709371      0.0023323615   0.0038119132   19.778366      18.188025      1.5903416     -2.3795934      17788.063    
    740000   1.0063209      0.0023323615  -0.00046483241  19.993212      18.498826      1.4943866     -2.0387453      17712.478    
    741000   1.0090493      0.0023323615  -0.0016787866   19.922814      18.424376      1.4984382     -2.0982867      17756.817    
    742000   1.021453       0.0023323615   0.0014752025   19.923686      18.406828      1.5168577     -2.0875195      17700.027    
    743000   1.0671033      0.0023323615  -0.0015000979   20.061702      18.477054      1.5846484     -1.8947094      17761.263    
    744000   0.9279624      0.0023323615   0.001060406    19.804269      18.426245      1.3780242     -2.1038117      17768.149    
    745000   1.0742557      0.0023323615   0.0014164222   20.08883       18.49356       1.5952697     -1.9673158      17791.992    
    746000   0.99677947     0.0023323615   0.0015049967   19.796066      18.315848      1.4802175     -2.1675841      17720.997    
    747000   0.93532776     0.0023323615   0.0020755786   19.80155       18.412588      1.3889617     -2.0844578      17671.705    
    748000   1.1567728      0.0023323615   0.00023845588  20.071546      18.353739      1.7178075     -2.2088761      17690.613    
    749000   1.1081272      0.0023323615   0.00091899764  20.302815      18.657246      1.6455689     -1.9444191      17818.542    
    750000   1.0398951      0.0023323615   0.00023032885  19.981064      18.43682       1.5442442     -2.0803342      17798.439    
    751000   1.0889616      0.0023323615  -0.0017875808   20.066056      18.448948      1.6171079     -2.0984975      17759.989    
    752000   1.0183588      0.0023323615  -0.002627309    19.919603      18.40734       1.5122627     -2.125246       17792.763    
    753000   1.002579       0.0023323615  -0.0028302102   19.967099      18.478269      1.4888298     -2.0906041      17841.822    
    754000   0.92745825     0.0023323615   0.00026021267  19.909668      18.532393      1.3772755     -1.9736059      17850.328    
    755000   0.95784711     0.0023323615   0.0042694246   19.742177      18.319775      1.422403      -2.1800295      17810.727    
    756000   1.0575046      0.0023323615  -0.0029924702   19.85955       18.289155      1.5703943     -2.1667246      17715.04     
    757000   1.0537965      0.0023323615  -0.0005093802   19.854974      18.290086      1.5648878     -2.206799       17610.245    
    758000   0.95972215     0.0023323615  -0.0037460795   19.715939      18.290752      1.4251874     -2.2255653      17613.726    
    759000   0.99949842     0.0023323615  -0.001644284    19.931498      18.447242      1.4842552     -2.0760766      17795.288    
    760000   1.0785136      0.0023323615   0.00050189327  20.251523      18.64993       1.6015927     -1.8164008      17766.944    
    761000   0.95240268     0.0023323615  -0.0012901195   19.682624      18.268306      1.414318      -2.2318438      17699.23     
    762000   0.97425187     0.0023323615  -0.0016230889   20.13778       18.691016      1.446764      -1.9385771      17675.144    
    763000   1.0016328      0.0023323615   0.0025506403   20.183757      18.696332      1.4874247     -1.8891132      17813.915    
    764000   1.1026668      0.0023323615   7.7256813e-06  20.268941      18.63148       1.6374602     -1.934137       17693.376    
    765000   0.83618017     0.0023323615  -0.002054       19.573493      18.331765      1.2417276     -2.0950412      17769.054    
    766000   0.93306296     0.0023323615  -0.0033439805   19.901755      18.516156      1.3855985     -2.0248529      17697.335    
    767000   0.92527538     0.0023323615   0.0026916016   20.097448      18.723414      1.3740339     -1.8157899      17699.102    
    768000   0.98426393     0.0023323615   0.0080691697   20.115572      18.65394       1.4616319     -1.9289457      17542.926    
    769000   0.889355       0.0023323615  -0.00053009015  19.950353      18.629661      1.3206922     -1.846025       17696.215    
    770000   0.89230171     0.0023323615   0.0005782612   19.587595      18.262527      1.325068      -2.2427493      17700.979    
    771000   1.0332811      0.0023323615  -0.0025576231   20.19534       18.660918      1.5344224     -1.9296178      17674.8      
    772000   1.0197264      0.0023323615   0.0022441281   20.20075       18.686456      1.5142938     -1.9421584      17825.473    
    773000   1.0178875      0.0023323615  -0.00033379169  20.07742       18.565857      1.5115629     -1.9881029      17777.285    
    774000   0.99596894     0.0023323615   0.00026020008  19.893253      18.414239      1.4790139     -2.0192027      17783.028    
    775000   1.0271909      0.0023323615  -0.002020561    19.926827      18.401449      1.5253785     -2.1502462      17689.249    
    776000   0.9884608      0.0023323615   0.0045437053   19.755475      18.287611      1.4678643     -2.2216165      17667.791    
    777000   1.003214       0.0023323615   0.0028258037   20.192499      18.702726      1.4897728     -1.9020992      17639.64     
    778000   1.045606       0.0023323615   0.001245778    19.97018       18.417455      1.5527249     -2.1072153      17807.139    
    779000   1.0110418      0.0023323615   0.0002072093   20.011876      18.510479      1.5013971     -2.0569467      17725.592    
    780000   0.87760212     0.0023323615  -0.0059473345   20.218756      18.915517      1.3032391     -1.7565425      17789.833    
    781000   1.0403838      0.0023323615   0.0047911449   19.963445      18.418475      1.5449699     -2.1154263      17850.335    
    782000   1.0076431      0.0023323615  -0.004012997    20.24444       18.74809       1.49635       -1.8021095      17853.809    
    783000   1.02601        0.0023323615  -0.00049817208  19.817467      18.293842      1.5236248     -2.1868948      17759.003    
    784000   1.1348475      0.0023323615  -0.00063350025  20.237171      18.551922      1.6852485     -1.9738327      17785.271    
    785000   0.86815442     0.0023323615   0.0032688752   19.732481      18.443272      1.2892093     -2.0739414      17870.274    
    786000   1.1635377      0.0023323615   0.0013490161   20.128959      18.401105      1.7278535     -2.1057359      17771.854    
    787000   1.012962       0.0023323615   0.0055925092   20.047272      18.543023      1.5042485     -2.0713872      17776.975    
    788000   0.96563139     0.0023323615   5.9327132e-05  19.958648      18.524685      1.4339626     -2.0261868      17909.724    
    789000   1.0545874      0.0023323615   0.0023947182   20.34634       18.780278      1.5660623     -1.9094836      17896.824    
    790000   1.2277115      0.0023323615  -0.0015370038   20.241011      18.417859      1.8231516     -2.0546909      18002.623    
    791000   0.82848202     0.0023323615   0.0014467625   19.832917      18.602621      1.2302958     -1.925293       17958.998    
    792000   1.0266196      0.0023323615   6.6808892e-05  20.127067      18.602537      1.5245301     -1.9334796      17857.994    
    793000   1.0153781      0.0023323615   0.0046070743   19.896989      18.389153      1.5078365     -2.1840966      17938.248    
    794000   1.0168447      0.0023323615  -0.00093574833  19.700633      18.190619      1.5100143     -2.419114       17738.476    
    795000   0.98155033     0.0023323615  -0.0018556      19.98747       18.529868      1.4576022     -1.9376344      17837.632    
    796000   0.94614438     0.0023323615   0.0015317249   19.716386      18.311362      1.4050244     -2.1970927      17737.893    
    797000   0.96245956     0.0023323615  -0.00054087702  19.952509      18.523257      1.4292524     -1.9201455      17630.654    
    798000   0.97149087     0.0023323615  -0.00104714     19.892176      18.449512      1.4426639     -2.0107382      17727.084    
    799000   0.95977927     0.0023323615   0.002243091    19.965585      18.540313      1.4252722     -1.8895844      17886.097    
    800000   0.95567746     0.0023323615   0.00032763208  19.90862       18.489439      1.419181      -2.0927085      17645.865    
    801000   0.94611777     0.0023323615   0.0044940598   20.072785      18.6678        1.4049849     -1.8320656      17716.962    
    802000   1.0531764      0.0023323615   0.0030838362   20.192808      18.628841      1.5639669     -2.0251563      17809.7      
    803000   0.92267677     0.0023323615  -0.00064695894  20.026105      18.65593       1.370175      -1.7746566      17786.935    
    804000   0.84254786     0.0023323615   0.0009799858   19.579608      18.328424      1.2511836     -2.0248805      17817.55     
    805000   1.0152839      0.0023323615   0.001551291    19.843514      18.335818      1.5076966     -2.0254297      17649.088    
    806000   1.048257       0.0023323615  -0.0022142845   20.131033      18.574371      1.5566616     -1.9038078      17765.04     
    807000   0.81461919     0.0023323615   0.0024628946   19.756865      18.547155      1.2097095     -1.9294563      17674.615    
    808000   0.96160883     0.0023323615  -0.00012692182  20.131944      18.703954      1.4279891     -1.791274       17772.901    
    809000   0.93713437     0.0023323615  -0.0032732432   19.976304      18.584659      1.3916445     -1.9625203      17759.626    
    810000   0.9608908      0.0023323615   0.0018116666   19.715162      18.288239      1.4269228     -2.1519683      17608.077    
    811000   0.9611957      0.0023323615   0.0040435288   20.231265      18.80389       1.4273756     -1.7922949      17657.318    
    812000   0.96618092     0.0023323615   0.0011231189   19.91691       18.482131      1.4347787     -2.0048732      17811.979    
    813000   1.0263429      0.0023323615   0.0037494631   19.999328      18.475208      1.5241192     -2.0306634      17774.699    
    814000   1.0848876      0.0023323615   0.0046018549   20.121218      18.510159      1.6110581     -1.9983042      17754.603    
    815000   1.0398235      0.0023323615  -0.0025793801   19.868936      18.324798      1.5441379     -2.1719366      17611.218    
    816000   0.97642116     0.0023323615   0.0019990316   19.852932      18.402947      1.4499854     -2.1113083      17609.86     
    817000   1.0451655      0.0023323615   6.4737594e-05  20.117453      18.565383      1.5520708     -1.9090764      17599.055    
    818000   1.0094934      0.0023323615  -0.00076583243  20.032252      18.533154      1.4990978     -2.0365053      17587.677    
    819000   0.89389517     0.0023323615   0.0019051879   19.736387      18.408952      1.3274343     -2.1345314      17558.149    
    820000   0.98367771     0.0023323615   0.0019824887   19.607578      18.146816      1.4607614     -2.2153902      17722.143    
    821000   1.0772345      0.0023323615   0.0021042356   19.982663      18.382969      1.5996932     -2.1758148      17647.418    
    822000   0.97480816     0.0023323615  -0.0042407312   19.965468      18.517878      1.4475901     -1.9819364      17658.686    
    823000   1.0689916      0.0023323615  -0.0020078275   20.22667       18.639218      1.5874526     -2.0607407      17842.992    
    824000   1.0057445      0.0023323615  -0.0035925468   19.974486      18.480955      1.4935306     -2.0107199      17691.805    
    825000   1.1793718      0.0023323615  -0.0013812556   20.545469      18.794102      1.7513672     -1.8833625      17848.075    
    826000   0.98226332     0.0023323615  -0.0010019973   19.948454      18.489792      1.458661      -2.0232559      17732.75     
    827000   1.0139144      0.0023323615  -0.0060118974   20.018114      18.512451      1.5056629     -1.947874       17865.15     
    828000   0.93749122     0.0023323615   0.0014603828   19.991442      18.599267      1.3921745     -1.9990693      17672.581    
    829000   0.95242588     0.0023323615   0.0025348001   19.922761      18.508409      1.4143524     -2.0966886      17758.849    
    830000   0.96094588     0.0023323615  -0.0016537661   19.923195      18.49619       1.4270046     -2.0366625      17791.199    
    831000   1.0092167      0.0023323615   0.0013889935   19.933005      18.434318      1.4986868     -2.0068476      17779.277    
    832000   1.071888       0.0023323615  -0.0018652122   20.089776      18.498023      1.5917536     -2.0863752      17682.646    
    833000   1.1222558      0.0023323615  -0.0017273468   19.955189      18.288639      1.6665498     -2.2755457      17820.712    
    834000   1.0443492      0.0023323615   0.0032026766   19.617134      18.066276      1.5508586     -2.3757354      17845.238    
    835000   0.84798258     0.0023323615   0.0022663814   19.593616      18.334362      1.2592541     -2.0750095      17869.768    
    836000   1.0351933      0.0023323615   0.0011727528   20.152805      18.615543      1.537262      -1.999298       17853.838    
    837000   0.87130264     0.0023323615   0.0018151134   19.936698      18.642814      1.2938844     -1.755014       17749.731    
    838000   0.96746413     0.0023323615  -0.00047633405  19.940098      18.503414      1.4366842     -1.9184279      17787.807    
    839000   1.0495782      0.0023323615  -0.00050379471  20.168209      18.609585      1.5586236     -1.9183463      17762.704    
    840000   1.0607246      0.0023323615   0.0041380817   20.048877      18.473701      1.575176      -2.2072768      17761.886    
    841000   0.92192732     0.0023323615  -0.0022083711   19.829833      18.460771      1.3690621     -2.0228182      17773.037    
    842000   1.1384526      0.0023323615  -0.001401571    19.927727      18.237125      1.6906021     -2.2167936      17706.009    
    843000   1.0911819      0.0023323615  -0.0092217006   20.501759      18.881354      1.6204051     -1.8035315      17730.35     
    844000   0.96764418     0.0023323615  -0.0006522422   19.801784      18.364833      1.4369516     -2.2262303      17670.769    
    845000   0.9207583      0.0023323615   0.00052908848  19.90312       18.535794      1.3673261     -1.9208152      17631.956    
    846000   0.90562792     0.0023323615   0.00462293     19.802523      18.457666      1.3448575     -2.0741674      17934.435    
    847000   0.91758269     0.0023323615   0.00078334855  20.019057      18.656447      1.3626103     -1.9335027      18077.144    
    848000   0.96680103     0.0023323615  -0.0019375247   19.972637      18.536937      1.4356995     -2.0842198      17954.698    
    849000   0.90662532     0.0023323615   0.0018787725   19.34431       17.997972      1.3463386     -2.5110921      17931.931    
    850000   1.0191445      0.0023323615   0.0010473801   19.961841      18.448411      1.5134296     -2.0818465      17906        
    851000   1.062876       0.0023323615  -0.0027196905   19.919957      18.341586      1.5783709     -2.1364166      17867.475    
    852000   1.0644659      0.0023323615  -0.0022817602   20.01581       18.435078      1.5807319     -1.974206       17881.482    
    853000   0.90658781     0.0023323615  -0.0053024983   19.852662      18.506379      1.3462829     -2.0964113      17797.541    
    854000   1.0432048      0.0023323615   0.002605954    19.864004      18.314845      1.5491591     -2.2367352      17731.263    
    855000   0.9536071      0.0023323615   0.0066673155   19.840848      18.424742      1.4161065     -2.0664619      17651.725    
    856000   1.0103324      0.0023323615   0.00050792119  20.155158      18.654814      1.5003436     -1.9176142      17832.667    
    857000   0.91143411     0.0023323615  -0.0012248688   19.681729      18.328249      1.3534796     -2.1128349      17813.235    
    858000   0.98207064     0.0023323615  -7.4401345e-05  19.994548      18.536173      1.4583749     -2.0515538      17758.798    
    859000   0.90815151     0.0023323615  -0.0021876704   19.883125      18.53452       1.348605      -1.999806       17804.757    
    860000   0.89310309     0.0023323615  -0.0010595264   19.779324      18.453066      1.3262581     -2.1765418      17812.319    
    861000   1.0123256      0.0023323615  -0.003084655    19.867257      18.363953      1.5033034     -2.2714787      17793.832    
    862000   0.97729319     0.0023323615   0.00015776342  20.173361      18.722081      1.4512804     -1.8404776      17746.316    
    863000   1.0290929      0.0023323615  -4.8370965e-05  19.813551      18.285348      1.5282029     -2.188134       18030.962    
    864000   1.0636875      0.0023323615  -0.0010915935   20.131054      18.551478      1.5795759     -2.0976908      17948.222    
    865000   0.8707863      0.0023323615   0.0022308915   19.662613      18.369495      1.2931177     -2.1432161      17930.16     
    866000   1.0662707      0.0023323615   0.0015929591   20.162429      18.579017      1.583412      -1.81177        17959.444    
    867000   1.0180543      0.0023323615   0.0026707576   19.919003      18.407192      1.5118106     -2.0923904      17906.996    
    868000   0.98509316     0.0023323615  -0.00064177688  19.84536       18.382496      1.4628633     -2.0993616      17891.807    
    869000   1.0877119      0.0023323615  -0.0054306565   20.501224      18.885972      1.6152522     -1.6996693      17947.089    
    870000   0.96932175     0.0023323615  -0.0021989028   19.953186      18.513743      1.4394428     -1.9453998      17867.168    
    871000   0.99741137     0.0023323615   0.0013107299   20.000369      18.519213      1.4811559     -1.8690243      17812.491    
    872000   1.0825365      0.0023323615  -0.0012323013   19.936826      18.329259      1.6075667     -2.3064629      17953.332    
    873000   0.97905204     0.0023323615   0.0037672076   19.768371      18.314479      1.4538923     -2.2129038      17860.547    
    874000   1.069761       0.0023323615   0.00065975962  20.122215      18.53362       1.588595      -2.0381354      17925.735    
    875000   1.1099643      0.0023323615   0.0017054664   20.267378      18.619081      1.6482969     -1.9602868      18015.786    
    876000   0.91560341     0.0023323615  -0.0047860665   20.295083      18.935412      1.3596711     -1.7977135      17845.13     
    877000   1.0249995      0.0023323615   0.0025561115   19.814149      18.292025      1.5221243     -2.1591018      18045.707    
    878000   0.9188082      0.0023323615  -0.00072867279  19.773379      18.408948      1.3644302     -2.1005482      18268.023    
    879000   1.0697522      0.0023323615  -0.0027405108   20.240255      18.651673      1.5885821     -1.9469829      18141.117    
    880000   1.0236874      0.0023323615  -0.00073594346  20.265789      18.745613      1.5201758     -1.8271474      18133.342    
    881000   0.88651455     0.0023323615  -0.0024932975   19.863013      18.546539      1.3164741     -1.9410204      18029.897    
    882000   0.98230136     0.0023323615  -0.0014428001   19.757469      18.298752      1.4587175     -2.2700369      18079.485    
    883000   1.1743045      0.0023323615  -0.00060206039  19.967495      18.223653      1.7438422     -2.2227791      18009.61     
    884000   1.0177966      0.0023323615   0.0034115636   20.116111      18.604683      1.511428      -2.0178607      17988.078    
    885000   1.1062316      0.0023323615   0.00013335446  20.176775      18.534021      1.642754      -1.9612608      18091.181    
    886000   1.0523903      0.0023323615   0.0042759157   20.092157      18.529357      1.5627996     -1.9363406      17986.039    
    887000   1.0304847      0.0023323615  -0.0015512413   20.12876       18.59849       1.5302698     -1.9018289      18078.634    
    888000   0.80934655     0.0023323615   0.00083323037  19.791339      18.589459      1.2018796     -1.9534319      18191.764    
    889000   0.82870258     0.0023323615   0.0032710374   19.650875      18.420251      1.2306233     -2.0443081      18070.971    
    890000   1.0546713      0.0023323615   0.0016876438   20.020722      18.454535      1.5661869     -1.9942753      17859.789    
    891000   1.037267       0.0023323615   0.00098460149  19.962801      18.422459      1.5403414     -2.0572167      17723.921    
    892000   1.1114787      0.0023323615   0.0015610209   20.285215      18.634669      1.6505458     -1.9069311      17700.636    
    893000   1.0597207      0.0023323615  -0.00081765743  19.974584      18.400899      1.5736853     -2.0308166      17808.613    
    894000   1.0335939      0.0023323615  -0.0059617119   20.081922      18.547035      1.5348869     -1.9342599      17709.317    
    895000   1.0065173      0.0023323615  -0.0041050562   19.784882      18.290204      1.4946781     -2.1480204      17588.166    
    896000   0.97703918     0.0023323615   0.00067856813  19.564005      18.113102      1.4509032     -2.2761458      17566.663    
    897000   0.97916056     0.0023323615   0.00061479763  19.936776      18.482723      1.4540534     -1.9806978      17614.422    
    898000   1.0270332      0.0023323615  -0.0040163961   19.823848      18.298703      1.5251443     -2.1414023      17699.045    
    899000   1.0224852      0.0023323615  -0.00074088692  19.807062      18.288671      1.5183905     -2.2654111      17624.882    
    900000   1.0152595      0.0023323615  -0.0026916283   20.113314      18.605654      1.5076603     -2.0657999      17459.495    
    901000   1.2819623      0.0023323615  -0.0021368778   20.531379      18.627665      1.903714      -1.8743383      17674.158    
    902000   0.93424919     0.0023323615  -0.0065980111   20.096889      18.709529      1.3873601     -1.9170041      17796.408    
    903000   0.93420054     0.0023323615  -7.7289809e-05  19.760214      18.372927      1.3872878     -2.0831908      17676.578    
    904000   1.0763291      0.0023323615  -0.00010541704  20.343744      18.745395      1.5983487     -1.735255       17815.432    
    905000   1.0197928      0.0023323615   0.0038660759   20.37034       18.855948      1.5143923     -1.812203       17912.414    
    906000   0.95543591     0.0023323615  -0.0026000565   19.960792      18.54197       1.4188223     -1.99841        17621.13     
    907000   1.01681        0.0023323615   0.002020831    19.945009      18.435046      1.5099629     -2.0994363      17821.027    
    908000   1.1060642      0.0023323615   0.0033201648   19.932333      18.289828      1.6425053     -2.2507753      17918.048    
    909000   1.0160186      0.0023323615  -0.0031978555   19.858303      18.349515      1.5087877     -2.1164157      17796.665    
    910000   1.0570135      0.0023323615  -0.0041551565   19.878853      18.309188      1.569665      -2.2882275      17932.331    
    911000   0.99010168     0.0023323615   0.00036563507  20.074594      18.604293      1.470301      -1.9730381      17904.963    
    912000   1.1664185      0.0023323615   0.0021902534   20.104599      18.372467      1.7321315     -2.0782112      17911.186    
    913000   0.91549011     0.0023323615   0.00027420143  20.089645      18.730142      1.3595028     -1.8343554      17917.7      
    914000   1.047238       0.0023323615   0.0019579606   20.176072      18.620924      1.5551484     -1.9842816      17823.108    
    915000   1.1474269      0.0023323615   0.001129183    20.168064      18.464135      1.7039289     -1.9381387      18015.146    
    916000   0.98145119     0.0023323615  -0.0011239001   19.896758      18.439303      1.457455      -1.9740579      17839.284    
    917000   0.94815719     0.0023323615  -1.1009614e-05  19.717405      18.309391      1.4080134     -2.2321245      17900.608    
    918000   1.0554368      0.0023323615   0.00010395109  19.861274      18.293951      1.5673237     -2.2543056      17845.369    
    919000   0.9538894      0.0023323615  -0.0029116369   19.795418      18.378893      1.4165258     -2.0706802      17868.217    
    920000   1.0633633      0.0023323615  -6.9974305e-05  20.06415       18.485055      1.5790946     -1.9438466      17974.221    
    921000   0.95136434     0.0023323615   0.0016299221   19.898089      18.485313      1.412776      -2.2440609      17858.322    
    922000   0.95358298     0.0023323615   0.00047835467  20.003507      18.587436      1.4160707     -1.9275379      17876.006    
    923000   1.1294443      0.0023323615  -0.00068394967  19.945737      18.268513      1.6772248     -2.2341465      17775.091    
    924000   1.0419525      0.0023323615   0.0014055965   19.903544      18.356245      1.5472995     -2.1731172      17685.303    
    925000   1.0803854      0.0023323615   0.0014867788   20.142606      18.538234      1.6043722     -1.9448123      17813.041    
    926000   1.0721858      0.0023323615   0.00062395293  20.235877      18.643681      1.5921959     -1.9495579      17940.957    
    927000   0.98563605     0.0023323615   0.0059475309   19.990885      18.527216      1.4636695     -1.971208       17940.157    
    928000   1.0336118      0.0023323615  -1.9775376e-05  20.113822      18.578909      1.5349136     -1.8981603      17845.379    
    929000   1.1936515      0.0023323615   3.7232233e-05  20.419471      18.646898      1.7725725     -1.7587826      18039.406    
    930000   1.0147418      0.0023323615   0.0030334438   19.693463      18.186572      1.5068916     -2.1769253      17933.352    
    931000   0.98979728     0.0023323615   0.0023131981   20.230636      18.760787      1.469849      -1.9059971      17897.078    
    932000   0.91908949     0.0023323615  -0.00012935051  19.847599      18.482752      1.3648479     -2.0558565      17917.762    
    933000   1.0233496      0.0023323615  -0.0026814269   20.199924      18.68025       1.5196742     -1.8949164      17966.136    
    934000   1.0638775      0.0023323615   0.0011492524   20.152609      18.57275       1.5798581     -1.9817474      17892.317    
    935000   0.99273951     0.0023323615   0.003593459    20.010847      18.536629      1.4742182     -1.9234554      17965.414    
    936000   1.1510562      0.0023323615   0.0036289281   20.189359      18.48004       1.7093185     -2.0206484      17809.455    
    937000   1.0801639      0.0023323615  -0.000613997    20.105404      18.50136       1.6040433     -1.9814113      17815.514    
    938000   1.0465741      0.0023323615   0.00078278376  19.951431      18.397268      1.5541626     -2.1373694      17983.839    
    939000   0.9838237      0.0023323615   0.0047946955   19.983322      18.522344      1.4609782     -2.0009575      17902.705    
    940000   1.0086936      0.0023323615  -0.0053285566   20.051729      18.553819      1.4979099     -2.0515315      17884.741    
    941000   0.94660962     0.0023323615  -0.0060680435   20.160943      18.755227      1.4057153     -1.854753       17990.481    
    942000   1.0726027      0.0023323615   0.0046145625   20.378077      18.785263      1.592815      -1.7871416      17862.595    
    943000   0.97243532     0.0023323615   0.0011070767   19.95156       18.507494      1.4440665     -2.0116939      17908.342    
    944000   0.98839162     0.0023323615  -0.00041517101  20.056027      18.588265      1.4677616     -1.9209551      18021.326    
    945000   0.97153759     0.0023323615  -0.0022415859   20.053221      18.610487      1.4427333     -1.8568171      18148.499    
    946000   0.98296346     0.0023323615   0.0024397694   20.035762      18.576061      1.4597007     -1.9713589      18008.785    
    947000   0.97747643     0.0023323615   0.0046827188   19.991373      18.539821      1.4515525     -1.9851489      18054.752    
    948000   1.0031624      0.0023323615   0.0043887152   20.056841      18.567144      1.4896962     -2.0429645      18099.776    
    949000   1.2148586      0.0023323615  -0.0031409518   20.487631      18.683566      1.804065      -1.7750808      17958.184    
    950000   0.84826528     0.0023323615   0.00092121539  19.833255      18.573581      1.2596739     -1.9331112      17927.194    
    951000   1.1154473      0.0023323615   0.0035677281   20.109774      18.453334      1.6564392     -2.0371443      17919.438    
    952000   1.0322427      0.0023323615  -0.0020589498   19.956971      18.424091      1.5328804     -2.0219136      17834.455    
    953000   0.99108748     0.0023323615   0.00039829057  20.205037      18.733272      1.4717649     -1.7900166      17828.224    
    954000   0.94336015     0.0023323615  -0.00028729721  19.703926      18.303036      1.4008898     -2.093623       18056.8      
    955000   1.1416807      0.0023323615  -0.0052852368   19.899069      18.203673      1.6953958     -2.2125002      17988.179    
    956000   0.85195809     0.0023323615  -0.0048639701   19.777011      18.511853      1.2651578     -2.0968881      17943.024    
    957000   1.0125588      0.0023323615  -0.0019786363   19.695999      18.192349      1.5036498     -2.1465371      17940.566    
    958000   1.0043024      0.0023323615   0.0014553469   20.069272      18.577883      1.491389      -1.9432787      17807.682    
    959000   1.0137085      0.0023323615  -9.7269046e-05  20.076718      18.57136       1.5053571     -2.0017354      17914.736    
    960000   1.0936595      0.0023323615  -0.0028335986   20.107024      18.48294       1.6240844     -2.1195048      17787.299    
    961000   0.78962019     0.0023323615  -0.00055905473  19.783622      18.611036      1.172586      -1.861486       17776.367    
    962000   1.0712806      0.0023323615   0.004757115    20.014831      18.42398       1.5908518     -2.009559       18110.298    
    963000   0.8980942      0.0023323615  -0.0030469564   19.925873      18.592204      1.3336699     -1.8692795      18116.971    
    964000   0.80363084     0.0023323615   0.00013056088  19.995047      18.801655      1.1933918     -1.8220898      17853.451    
    965000   1.0567163      0.0023323615  -0.00035443189  20.090984      18.521761      1.5692237     -2.0270029      17900.83     
    966000   1.0032426      0.0023323615   1.6480082e-05  19.733505      18.24369       1.4898153     -2.2374399      17916.607    
    967000   0.93513851     0.0023323615  -0.0042553038   20.001442      18.612761      1.3886807     -1.9125662      17886.151    
    968000   1.1008503      0.0023323615  -0.0019387079   20.006972      18.372209      1.6347627     -2.0415971      17858.757    
    969000   0.99128335     0.0023323615  -0.0017292213   20.031486      18.55943       1.4720558     -2.0071467      17988.853    
    970000   0.98463837     0.0023323615  -0.0026009477   19.871119      18.408931      1.462188      -2.103213       17990.458    
    971000   1.0765735      0.0023323615   0.002532512    19.992044      18.393332      1.5987116     -2.0820091      17813.568    
    972000   1.0457057      0.0023323615  -0.0010352048   19.998734      18.445861      1.5528729     -2.0254345      17883.142    
    973000   0.88720811     0.0023323615   0.00077121897  19.72838       18.410876      1.317504      -2.1635222      17850.702    
    974000   1.1078252      0.0023323615   0.00014917072  20.011831      18.366711      1.6451204     -2.1146059      17840.081    
    975000   1.0656469      0.0023323615  -0.0027650758   20.201153      18.618668      1.5824857     -1.9754872      17809.802    
    976000   0.85523376     0.0023323615  -0.0013667873   19.821445      18.551423      1.2700221     -1.9086506      17971.68     
    977000   0.99441711     0.0023323615  -0.0031127137   19.965741      18.489032      1.4767094     -1.939265       17902.015    
    978000   0.98934641     0.0023323615   0.0011777443   20.059136      18.589957      1.4691794     -1.8937033      17952.641    
    979000   0.94567341     0.0023323615  -0.0023509094   19.963746      18.559421      1.404325      -2.0736212      17729.663    
    980000   0.9991708      0.0023323615   0.0017551725   19.949636      18.465867      1.4837686     -2.1268044      17837.406    
    981000   1.018122       0.0023323615  -0.0027985973   20.103672      18.59176       1.5119112     -1.9646851      17952.567    
    982000   0.9996001      0.0023323615  -0.0028014241   19.905488      18.421082      1.4844061     -2.0761337      17929.342    
    983000   1.0219543      0.0023323615  -0.00014252567  19.976872      18.45927       1.5176021     -2.152034       17850.357    
    984000   1.0430988      0.0023323615   0.0010568202   20.26333       18.714328      1.5490017     -1.7991168      17921.036    
    985000   1.0730848      0.0023323615   0.0037795703   20.342925      18.749394      1.593531      -1.8443754      17997.598    
    986000   0.8919109      0.0023323615   0.0012590997   19.662615      18.338127      1.3244877     -2.0880712      17787.474    
    987000   1.049301       0.0023323615   0.00081383635  19.947118      18.388906      1.558212      -2.0875414      17597.857    
    988000   0.96717508     0.0023323615   0.0024823522   19.658633      18.222378      1.436255      -2.294222       17683.78     
    989000   1.0284408      0.0023323615  -0.00012404145  20.183541      18.656307      1.5272346     -1.7618233      17671.445    
    990000   0.9537047      0.0023323615   0.00018795575  19.829209      18.412958      1.4162515     -2.0548911      17883.501    
    991000   1.0610969      0.0023323615  -0.0018318222   20.041487      18.465758      1.5757288     -1.9930512      17745.089    
    992000   1.146508       0.0023323615  -0.002440388    20.129191      18.426627      1.7025644     -2.0863737      17818.587    
    993000   0.93298287     0.0023323615  -0.0012606344   19.745999      18.360519      1.3854796     -2.3065429      17913.353    
    994000   0.95781173     0.0023323615  -0.0033859567   19.900752      18.478401      1.4223504     -2.0358001      17912.208    
    995000   1.0299797      0.0023323615  -0.00028777782  19.816758      18.287238      1.5295198     -2.1982422      17896.33     
    996000   0.98160723     0.0023323615  -0.0019406789   19.980671      18.522984      1.4576867     -2.0180689      17911.051    
    997000   0.98530741     0.0023323615  -0.0064943514   20.146823      18.683641      1.4631815     -1.889637       17970.855    
    998000   0.97233345     0.0023323615   0.00072906997  20.111572      18.667657      1.4439152     -1.9860658      18003.331    
    999000   0.94682318     0.0023323615   0.00073679775  19.742459      18.336427      1.4060324     -2.1324184      17979.407    
   1000000   0.93474377     0.0023323615  -0.0035673744   20.000553      18.612459      1.3880945     -1.9298376      17900.05     
Loop time of 55.9622 on 1 procs for 1000000 steps with 100 atoms

Performance: 7719490.737 tau/day, 17869.192 timesteps/s
99.4% CPU use with 1 MPI tasks x 1 OpenMP threads

MPI task timing breakdown:
Section |  min time  |  avg time  |  max time  |%varavg| %total
---------------------------------------------------------------
Pair    | 46.893     | 46.893     | 46.893     |   0.0 | 83.79
Bond    | 1.2603     | 1.2603     | 1.2603     |   0.0 |  2.25
Neigh   | 3.7823     | 3.7823     | 3.7823     |   0.0 |  6.76
Comm    | 1.5151     | 1.5151     | 1.5151     |   0.0 |  2.71
Output  | 0.21572    | 0.21572    | 0.21572    |   0.0 |  0.39
Modify  | 1.9438     | 1.9438     | 1.9438     |   0.0 |  3.47
Other   |            | 0.3522     |            |       |  0.63

Nlocal:            100 ave         100 max         100 min
Histogram: 1 0 0 0 0 0 0 0 0 0
Nghost:            292 ave         292 max         292 min
Histogram: 1 0 0 0 0 0 0 0 0 0
Neighs:           4851 ave        4851 max        4851 min
Histogram: 1 0 0 0 0 0 0 0 0 0

Total # of neighbors = 4851
Ave neighs/atom = 48.51
Ave special neighs/atom = 1.98
Neighbor list builds = 97774
Dangerous builds = 79128

write_data      ${outputfile_assembled} nofix nocoeff
write_data      7_assembled.data nofix nocoeff
System init for write_data ...
Generated 0 of 6 mixed pair_coeff terms from geometric mixing rule

Total wall time: 0:00:57
