LAMMPS (23 Jun 2022 - Update 1)
OMP_NUM_THREADS environment is not set. Defaulting to 1 thread. (src/comm.cpp:98)
  using 1 OpenMP thread(s) per MPI task


variable        runtime equal 1000000
variable		subsample_rate equal 1000

variable		outputfile_created string '3_created.data'
variable		outputfile_relaxed string '5_relaxed.data'
variable		outputfile_selfasb string '6_a_self_assemble.lammpstrj'
variable		outputfile_trajlin string '6_b_trajlin.data'
variable		outputfile_assembled string '7_assembled.data'

units           lj
atom_style      full
dimension       3
boundary        p p p
timestep        0.005

read_data       ${outputfile_created}
read_data       3_created.data
Reading data file ...
  orthogonal box = (0 0 0) to (35 35 35)
  1 by 1 by 1 MPI processor grid
  reading atoms ...
  100 atoms
  reading velocities ...
  100 velocities
  scanning bonds ...
  1 = max bonds/atom
  reading bonds ...
  99 bonds
Finding 1-2 1-3 1-4 neighbors ...
  special bond factors lj:    0        0        0       
  special bond factors coul:  0        0        0       
     2 = max # of 1-2 neighbors
     2 = max # of 1-3 neighbors
     4 = max # of 1-4 neighbors
     6 = max # of special neighbors
  special bonds CPU = 0.000 seconds
  read_data CPU = 0.005 seconds

bond_style      fene
bond_coeff      * 30.0 1.5 1.0 1.0
special_bonds   fene
Finding 1-2 1-3 1-4 neighbors ...
  special bond factors lj:    0        1        1       
  special bond factors coul:  0        1        1       
     2 = max # of 1-2 neighbors
     6 = max # of special neighbors
  special bonds CPU = 0.000 seconds

variable        Temp equal 1.0
variable        velSeed equal 926458

velocity        all create ${Temp} ${velSeed}
velocity        all create 1 ${velSeed}
velocity        all create 1 926458

### Output
thermo_style    custom step temp density press etotal pe ke epair spcpu
thermo          1000

###########################################################################
# Soft relaxation (to remove overlaps of particles)
######################################################################

pair_style      soft 1.0
pair_coeff      * * 0.0
variable        prefactor equal ramp(0,300)
fix             rampSoft all adapt 1 pair soft a * * v_prefactor

minimize        0.0 1.0e-8 1000 100000
WARNING: Using 'neigh_modify every 1 delay 0 check yes' setting during minimization (src/min.cpp:187)
Generated 0 of 6 mixed pair_coeff terms from geometric mixing rule
Neighbor list info ...
  update every 1 steps, delay 0 steps, check yes
  max neighbors/atom: 2000, page size: 100000
  master list distance cutoff = 1.3
  ghost atom cutoff = 1.3
  binsize = 0.65, bins = 54 54 54
  1 neighbor lists, perpetual/occasional/extra = 1 0 0
  (1) pair soft, perpetual
      attributes: half, newton on
      pair build: half/bin/newton
      stencil: half/bin/3d
      bin: standard
WARNING: Communication cutoff 1.3 is shorter than a bond length based estimate of 1.7550000000000001. This may lead to errors. (src/comm.cpp:727)
Per MPI rank memory allocation (min/avg/max) = 8.346 | 8.346 | 8.346 Mbytes
   Step          Temp         Density         Press          TotEng         PotEng         KinEng         E_pair         S/CPU     
         0   1              0.0023323615  -0.0039617958   21.524174      20.039174      1.485          0              0            
       362   1              0.0023323615   0.0023090379   21.485548      20.000548      1.485          0              70507.467    
Loop time of 0.00513649 on 1 procs for 362 steps with 100 atoms

98.9% CPU use with 1 MPI tasks x 1 OpenMP threads

Minimization stats:
  Stopping criterion = force tolerance
  Energy initial, next-to-last, final = 
      20.0391741078675   20.0005480767337   20.0005480767337
  Force two-norm initial, final = 11.878422 7.9509778e-09
  Force max component initial, final = 6.6117807 1.3572772e-09
  Final line search alpha, max atom move = 1 1.3572772e-09
  Iterations, force evaluations = 362 738

MPI task timing breakdown:
Section |  min time  |  avg time  |  max time  |%varavg| %total
---------------------------------------------------------------
Pair    | 0.00021399 | 0.00021399 | 0.00021399 |   0.0 |  4.17
Bond    | 0.0023293  | 0.0023293  | 0.0023293  |   0.0 | 45.35
Neigh   | 0.0014312  | 0.0014312  | 0.0014312  |   0.0 | 27.86
Comm    | 0.00019256 | 0.00019256 | 0.00019256 |   0.0 |  3.75
Output  | 0          | 0          | 0          |   0.0 |  0.00
Modify  | 0          | 0          | 0          |   0.0 |  0.00
Other   |            | 0.0009694  |            |       | 18.87

Nlocal:            100 ave         100 max         100 min
Histogram: 1 0 0 0 0 0 0 0 0 0
Nghost:             20 ave          20 max          20 min
Histogram: 1 0 0 0 0 0 0 0 0 0
Neighs:              0 ave           0 max           0 min
Histogram: 1 0 0 0 0 0 0 0 0 0

Total # of neighbors = 0
Ave neighs/atom = 0
Ave special neighs/atom = 1.98
Neighbor list builds = 17
Dangerous builds = 0

fix             nvtSoft all nvt temp ${Temp} ${Temp} 0.5
fix             nvtSoft all nvt temp 1 ${Temp} 0.5
fix             nvtSoft all nvt temp 1 1 0.5
run             100000
Generated 0 of 6 mixed pair_coeff terms from geometric mixing rule
WARNING: Communication cutoff 1.3 is shorter than a bond length based estimate of 1.7550000000000001. This may lead to errors. (src/comm.cpp:727)
Per MPI rank memory allocation (min/avg/max) = 7.221 | 7.221 | 7.221 Mbytes
   Step          Temp         Density         Press          TotEng         PotEng         KinEng         E_pair         S/CPU     
       362   1              0.0023323615   0.0023090379   21.485548      20.000548      1.485          0              0            
      1000   0.90989032     0.0023323615  -0.0021940042   21.776974      20.425787      1.3511871      0.00036425437  78763.585    
      2000   0.86546688     0.0023323615   0.0034714157   21.677128      20.39191       1.2852183      0.0025814786   78187.452    
      3000   0.98199538     0.0023323615   0.0028144228   21.866132      20.407869      1.4582631      0.0011756043   73080.125    
      4000   1.004495       0.0023323615  -0.0014058211   21.945624      20.453949      1.4916751      0.011986179    71433.653    
      5000   1.1222705      0.0023323615   0.0044495116   21.986385      20.319813      1.6665718      0.0050317639   73585.277    
      6000   1.0538243      0.0023323615   0.0023957538   21.985713      20.420784      1.564929       0.012100514    74730.289    
      7000   1.0210598      0.0023323615  -0.00038820026  21.904665      20.388391      1.5162738      0              77347.201    
      8000   0.94819751     0.0023323615   0.0024943091   21.747889      20.339816      1.4080733      0              77060.209    
      9000   0.92364502     0.0023323615   0.0020053029   21.724166      20.352554      1.3716129      1.7780894e-05  76300.413    
     10000   0.86685188     0.0023323615   0.00078277366  21.644879      20.357604      1.287275       0.0098636418   76614.979    
     11000   1.0057103      0.0023323615   0.00010113276  21.8558        20.362321      1.4934798      0.020705341    76474.688    
     12000   0.97901664     0.0023323615  -0.0026996968   21.871206      20.417366      1.4538397      0.0052928539   76118.052    
     13000   0.97718436     0.0023323615  -6.1641422e-06  21.963706      20.512587      1.4511188      0.025022446    76158.597    
     14000   1.0530014      0.0023323615  -0.0009993112   21.947994      20.384287      1.5637071      0.0020860456   75095.129    
     15000   0.99094527     0.0023323615   0.0011068478   21.895146      20.423592      1.4715537      0.0015091113   76179.634    
     16000   0.91285091     0.0023323615  -0.00025424173  21.87524       20.519657      1.3555836      0.0047853639   75957.949    
     17000   0.82806978     0.0023323615  -0.00054698156  21.701984      20.472301      1.2296836      0              76226.06     
     18000   1.043278       0.0023323615  -6.6143919e-05  22.003299      20.454031      1.5492679      0.0034319132   76574.604    
     19000   1.0879249      0.0023323615  -0.0017804642   21.998985      20.383416      1.6155685      0.015376175    75569.357    
     20000   1.1144506      0.0023323615   0.0025198298   22.190904      20.535944      1.6549592      0              76449.56     
     21000   1.0427751      0.0023323615   0.0011345349   22.099492      20.550971      1.548521       0.00040047813  76789.982    
     22000   1.0586695      0.0023323615   0.0017882747   22.05673       20.484606      1.5721242      0              76573.894    
     23000   1.0058426      0.0023323615  -0.0055245362   21.954628      20.460951      1.4936763      0.0027619031   75917.157    
     24000   0.98273442     0.0023323615   0.0015147357   21.862067      20.402707      1.4593606      0              76232.586    
     25000   0.95835343     0.0023323615   0.0017808774   21.937761      20.514606      1.4231548      0.00020839942  75855.769    
     26000   0.93993778     0.0023323615  -0.0021777292   21.884849      20.489042      1.3958076      0.0088889834   76417.014    
     27000   0.9308188      0.0023323615  -0.00011239942  21.842252      20.459986      1.3822659      0.021612409    75534.931    
     28000   1.0149581      0.0023323615   0.0041996387   21.906846      20.399633      1.5072129      0.0064059022   76266.022    
     29000   0.92841138     0.0023323615  -2.5398808e-05  21.987185      20.608494      1.3786909      0.0046112484   75750.133    
     30000   1.021043       0.0023323615   0.001589158    22.097958      20.581709      1.5162489      0.016799508    72898.858    
     31000   1.0465985      0.0023323615  -0.0021744286   22.037917      20.483718      1.5541987      0.0057879149   75948.644    
     32000   0.98907108     0.0023323615  -0.0015558606   22.044089      20.575318      1.4687705      0.009448173    75964.539    
     33000   1.0918536      0.0023323615  -0.0025643847   22.039275      20.417873      1.6214025      0              75120.728    
     34000   0.99801543     0.0023323615   0.0016279766   21.932339      20.450286      1.4820529      0.017384617    77425.743    
     35000   1.0352271      0.0023323615  -0.0052971711   22.076004      20.538692      1.5373122      0.00010473809  76246.617    
     36000   1.1141579      0.0023323615  -0.00093279925  22.222491      20.567966      1.6545245      0.00033678641  77217.65     
     37000   1.0369415      0.0023323615   0.00013065175  22.217841      20.677983      1.5398581      0.013788831    76157.141    
     38000   1.0515596      0.0023323615   0.0021717558   22.070766      20.5092        1.561566       0.0067894678   76833.194    
     39000   1.0238495      0.0023323615   0.00026414509  22.040141      20.519725      1.5204165      0.00044464649  75897.935    
     40000   1.0749111      0.0023323615  -0.0026849368   22.039327      20.443084      1.596243       0.012651334    74402.404    
     41000   0.99070886     0.0023323615  -0.0030385564   22.03241       20.561207      1.4712027      0.00092855646  77549.606    
     42000   0.95315224     0.0023323615   0.0019788197   21.965263      20.549832      1.4154311      0.020233689    75948.465    
     43000   1.0644183      0.0023323615  -0.0011168725   22.287172      20.706511      1.5806611      0.039694129    75911.619    
     44000   1.0253747      0.0023323615  -0.006676522    22.066233      20.543552      1.5226814      0              75217.588    
     45000   0.94179556     0.0023323615  -0.0047206018   21.970644      20.572077      1.3985664      0.019869988    75621.634    
     46000   1.0083495      0.0023323615  -0.0017646918   21.972114      20.474715      1.497399       0.00026040605  75621.234    
     47000   0.98767959     0.0023323615  -0.00080218158  22.091674      20.62497       1.4667042      0.024266258    75415.651    
     48000   1.1473449      0.0023323615  -0.0025885687   22.080512      20.376705      1.7038072      0.00065962995  75748.233    
     49000   1.0679312      0.0023323615   0.0017688272   21.970482      20.384604      1.5858779      0.014142422    76657.935    
     50000   0.9581935      0.0023323615   0.0014398836   21.955202      20.532284      1.4229173      0.0055011948   76447.509    
     51000   1.0215759      0.0023323615  -0.00093292688  21.934681      20.41764       1.5170402      0              76124.786    
     52000   0.98079591     0.0023323615   0.0040701936   21.977374      20.520892      1.4564819      0.0020862422   76822.906    
     53000   1.0090927      0.0023323615   0.0013324753   22.095438      20.596935      1.4985027      0              76208.72     
     54000   0.97519627     0.0023323615   0.0013260734   22.070151      20.621984      1.4481665      0.026885444    76974.573    
     55000   1.1805087      0.0023323615  -0.001586238    22.424088      20.671033      1.7530554      0.024690954    76404.198    
     56000   0.98387121     0.0023323615   0.0037155145   22.104425      20.643376      1.4610487      0.01435493     76014.811    
     57000   1.0723812      0.0023323615  -0.0037916262   22.122726      20.53024       1.592486       0.013635549    76536.14     
     58000   1.0152349      0.0023323615   0.00021908047  22.082827      20.575203      1.5076238      0.00077375639  76486.112    
     59000   1.1424502      0.0023323615  -0.0052108657   22.30072       20.604182      1.6965385      0.013308184    77426.768    
     60000   1.0359703      0.0023323615  -0.00097887545  22.188218      20.649802      1.538416       0.00011346294  75791.774    
     61000   1.1646839      0.0023323615  -0.002085017    22.239945      20.51039       1.7295556      0.012918477    78135.615    
     62000   1.101836       0.0023323615   0.0010338878   22.171386      20.53516       1.6362265      0.001396566    76928.77     
     63000   0.96616435     0.0023323615   0.00097550571  21.903821      20.469067      1.4347541      0.013027663    78103.509    
     64000   1.0068907      0.0023323615  -0.0020278726   22.061652      20.566419      1.4952327      0.013750276    76535.32     
     65000   0.98723233     0.0023323615   0.0022441476   22.031073      20.565033      1.46604        0.0066686189   76928        
     66000   1.0273881      0.0023323615  -0.0003515278   22.183579      20.657908      1.5256713      0              75123.674    
     67000   0.96528212     0.0023323615  -0.00014822656  21.9396        20.506156      1.4334439      0.010365557    77059.787    
     68000   1.069702       0.0023323615   9.4754668e-05  22.081119      20.492611      1.5885075      0.00049153926  74428.708    
     69000   1.1229502      0.0023323615   0.0011504079   22.200329      20.532748      1.6675811      0.0068454249   77224.102    
     70000   1.0062775      0.0023323615  -0.00085311964  22.094021      20.599699      1.4943221      0.013222355    75097.39     
     71000   1.0906935      0.0023323615   0.00015260357  22.145362      20.525682      1.6196798      0.018338513    76439.369    
     72000   1.010401       0.0023323615  -6.0487182e-06  22.154105      20.653659      1.5004455      0.0013793953   75071.35     
     73000   1.1177599      0.0023323615  -0.0034084797   22.254435      20.594562      1.6598735      0.00011231735  78020.057    
     74000   0.9768019      0.0023323615   0.00016143893  22.07312       20.622569      1.4505508      0.0084515956   75998.26     
     75000   1.1360996      0.0023323615   0.002159116    22.161595      20.474487      1.6871079      0.0089909162   76541.541    
     76000   0.97379329     0.0023323615  -0.00068458621  21.988928      20.542845      1.446083       0              75850.176    
     77000   0.94876793     0.0023323615  -0.0016073976   21.923496      20.514575      1.4089204      0.017745108    75923.451    
     78000   0.83947996     0.0023323615  -0.00062768559  21.726727      20.480099      1.2466277      0.0054510099   76551.578    
     79000   1.0090614      0.0023323615  -0.00080262643  22.068192      20.569736      1.4984562      0.00023011166  77074.255    
     80000   1.1217643      0.0023323615  -0.0038177864   22.367902      20.702082      1.66582        0.032902439    75994.321    
     81000   1.0240158      0.0023323615   0.00023547123  22.031597      20.510933      1.5206635      0.0068767308   75766.174    
     82000   1.003236       0.0023323615  -0.0022802982   21.894199      20.404393      1.4898055      0.019136282    75084.788    
     83000   1.0554159      0.0023323615   0.004011718    22.104562      20.537269      1.5672927      0.0080869707   74783.369    
     84000   0.83527346     0.0023323615  -0.0034122221   21.874648      20.634267      1.2403811      0.0030083664   75873.818    
     85000   1.036002       0.0023323615   0.0013573923   21.962923      20.42446       1.5384629      0.015709144    76675.427    
     86000   0.9432002      0.0023323615  -0.0032183248   21.913588      20.512936      1.4006523      0.013730309    76567.257    
     87000   0.95566008     0.0023323615  -0.00049614223  21.91653       20.497375      1.4191552      0.0035862035   75739.444    
     88000   0.93373351     0.0023323615  -0.00097093893  21.870485      20.483891      1.3865943      0.0018212145   75235.617    
     89000   0.9684944      0.0023323615  -0.00047342045  21.973429      20.535215      1.4382142      0.00087524744  75595.286    
     90000   0.98293324     0.0023323615  -0.0032204602   22.050919      20.591263      1.4596559      0.015353933    76770.139    
     91000   1.0832827      0.0023323615   0.0048517083   22.11977       20.511095      1.6086749      0.0052867789   77860.36     
     92000   0.85899662     0.0023323615  -0.0013049519   21.765697      20.490087      1.27561        0.0024124001   76759.332    
     93000   0.96176266     0.0023323615  -4.4223672e-05  21.874222      20.446004      1.4282176      0.0045653365   77426.882    
     94000   0.96019503     0.0023323615   0.00024459347  21.944954      20.519064      1.4258896      3.8053462e-05  76914.545    
     95000   0.94702149     0.0023323615  -0.0033658915   21.86315       20.456823      1.4063269      0              77596.146    
     96000   0.91119348     0.0023323615  -0.0013197298   21.825018      20.471896      1.3531223      0.00043282989  76202.32     
     97000   1.0016687      0.0023323615  -0.0019514304   22.013024      20.525546      1.487478       0.0048369955   75713.983    
     98000   1.02143        0.0023323615  -0.0057874974   22.177965      20.661142      1.5168235      0              74663.267    
     99000   1.032786       0.0023323615   0.0018228259   21.975336      20.441649      1.5336871      7.1595851e-05  77673.861    
    100000   1.0594928      0.0023323615   0.0036169719   22.011024      20.437677      1.5733468      0.00032948157  76140.818    
    100362   1.1904942      0.0023323615  -0.00089755607  22.316856      20.548972      1.7678839      0.00063845255  75644.309    
Loop time of 1.31344 on 1 procs for 100000 steps with 100 atoms

Performance: 32890769.603 tau/day, 76136.041 timesteps/s
99.4% CPU use with 1 MPI tasks x 1 OpenMP threads

MPI task timing breakdown:
Section |  min time  |  avg time  |  max time  |%varavg| %total
---------------------------------------------------------------
Pair    | 0.0494     | 0.0494     | 0.0494     |   0.0 |  3.76
Bond    | 0.12594    | 0.12594    | 0.12594    |   0.0 |  9.59
Neigh   | 0.80194    | 0.80194    | 0.80194    |   0.0 | 61.06
Comm    | 0.054053   | 0.054053   | 0.054053   |   0.0 |  4.12
Output  | 0.0011901  | 0.0011901  | 0.0011901  |   0.0 |  0.09
Modify  | 0.24836    | 0.24836    | 0.24836    |   0.0 | 18.91
Other   |            | 0.03255    |            |       |  2.48

Nlocal:            100 ave         100 max         100 min
Histogram: 1 0 0 0 0 0 0 0 0 0
Nghost:             60 ave          60 max          60 min
Histogram: 1 0 0 0 0 0 0 0 0 0
Neighs:             36 ave          36 max          36 min
Histogram: 1 0 0 0 0 0 0 0 0 0

Total # of neighbors = 36
Ave neighs/atom = 0.36
Ave special neighs/atom = 1.98
Neighbor list builds = 9821
Dangerous builds = 8265
unfix           nvtSoft
unfix           rampSoft
reset_timestep  0

write_data      ${outputfile_relaxed}
write_data      5_relaxed.data
System init for write_data ...
Generated 0 of 6 mixed pair_coeff terms from geometric mixing rule
WARNING: Communication cutoff 1.3 is shorter than a bond length based estimate of 1.7550000000000001. This may lead to errors. (src/comm.cpp:727)
WARNING: Not all mixed pair coeffs generated from mixing. Use write_data with 'pair ij' option to store all pair coeffs. (src/write_data.cpp:309)

###########################################################################
# Full LJ with Coulomb
######################################################################

# Cutoffs and parameters:
# - Values: Marcel Verkade's Bachelor Thesis
# - Mapping to atom groups: Patrick Onck's paper
# - 1: aliphatic, 2: aromatic, 3: anion, 4: cation
# pair_style	lj/cut/coul/cut <lj_cut_global> <coul_cut_global>
# pair_coeff	<type_1>  <type_2>  <eps>  <sigma>  <r_cut_lj>  <r_cut_coul>

# Problem: Onck's model is much more complex, and Marcel has no sigma reported
# Using sigma=1 randomly

variable		glob_ljeps equal 1.0
variable		glob_ljsig 	equal 1.0
variable		glob_coulcut equal 10.0
variable		att_ljcut equal 2.50
variable		rep_ljcut equal 1.12

pair_style		lj/cut/coul/cut 						${att_ljcut} 	${glob_coulcut}
pair_style		lj/cut/coul/cut 						2.5 	${glob_coulcut}
pair_style		lj/cut/coul/cut 						2.5 	10
pair_coeff		1 1 	${glob_ljeps} 	${glob_ljsig}	${att_ljcut} 	${glob_coulcut}
pair_coeff		1 1 	1 	${glob_ljsig}	${att_ljcut} 	${glob_coulcut}
pair_coeff		1 1 	1 	1	${att_ljcut} 	${glob_coulcut}
pair_coeff		1 1 	1 	1	2.5 	${glob_coulcut}
pair_coeff		1 1 	1 	1	2.5 	10
pair_coeff		1 2 	${glob_ljeps} 	${glob_ljsig}	${att_ljcut} 	${glob_coulcut}
pair_coeff		1 2 	1 	${glob_ljsig}	${att_ljcut} 	${glob_coulcut}
pair_coeff		1 2 	1 	1	${att_ljcut} 	${glob_coulcut}
pair_coeff		1 2 	1 	1	2.5 	${glob_coulcut}
pair_coeff		1 2 	1 	1	2.5 	10
pair_coeff		1 3 	${glob_ljeps} 	${glob_ljsig}	${rep_ljcut} 	${glob_coulcut}
pair_coeff		1 3 	1 	${glob_ljsig}	${rep_ljcut} 	${glob_coulcut}
pair_coeff		1 3 	1 	1	${rep_ljcut} 	${glob_coulcut}
pair_coeff		1 3 	1 	1	1.12 	${glob_coulcut}
pair_coeff		1 3 	1 	1	1.12 	10
pair_coeff		1 4 	${glob_ljeps} 	${glob_ljsig}	${rep_ljcut} 	${glob_coulcut}
pair_coeff		1 4 	1 	${glob_ljsig}	${rep_ljcut} 	${glob_coulcut}
pair_coeff		1 4 	1 	1	${rep_ljcut} 	${glob_coulcut}
pair_coeff		1 4 	1 	1	1.12 	${glob_coulcut}
pair_coeff		1 4 	1 	1	1.12 	10
pair_coeff		2 2 	${glob_ljeps} 	${glob_ljsig}	${att_ljcut} 	${glob_coulcut}
pair_coeff		2 2 	1 	${glob_ljsig}	${att_ljcut} 	${glob_coulcut}
pair_coeff		2 2 	1 	1	${att_ljcut} 	${glob_coulcut}
pair_coeff		2 2 	1 	1	2.5 	${glob_coulcut}
pair_coeff		2 2 	1 	1	2.5 	10
pair_coeff		2 3 	${glob_ljeps} 	${glob_ljsig}	${rep_ljcut} 	${glob_coulcut}
pair_coeff		2 3 	1 	${glob_ljsig}	${rep_ljcut} 	${glob_coulcut}
pair_coeff		2 3 	1 	1	${rep_ljcut} 	${glob_coulcut}
pair_coeff		2 3 	1 	1	1.12 	${glob_coulcut}
pair_coeff		2 3 	1 	1	1.12 	10
pair_coeff		2 4 	${glob_ljeps} 	${glob_ljsig}	${att_ljcut} 	${glob_coulcut}
pair_coeff		2 4 	1 	${glob_ljsig}	${att_ljcut} 	${glob_coulcut}
pair_coeff		2 4 	1 	1	${att_ljcut} 	${glob_coulcut}
pair_coeff		2 4 	1 	1	2.5 	${glob_coulcut}
pair_coeff		2 4 	1 	1	2.5 	10
pair_coeff		3 3 	${glob_ljeps} 	${glob_ljsig}	${rep_ljcut} 	${glob_coulcut}
pair_coeff		3 3 	1 	${glob_ljsig}	${rep_ljcut} 	${glob_coulcut}
pair_coeff		3 3 	1 	1	${rep_ljcut} 	${glob_coulcut}
pair_coeff		3 3 	1 	1	1.12 	${glob_coulcut}
pair_coeff		3 3 	1 	1	1.12 	10
pair_coeff		3 4 	${glob_ljeps} 	${glob_ljsig}	${att_ljcut} 	${glob_coulcut}
pair_coeff		3 4 	1 	${glob_ljsig}	${att_ljcut} 	${glob_coulcut}
pair_coeff		3 4 	1 	1	${att_ljcut} 	${glob_coulcut}
pair_coeff		3 4 	1 	1	2.5 	${glob_coulcut}
pair_coeff		3 4 	1 	1	2.5 	10
pair_coeff		4 4 	${glob_ljeps} 	${glob_ljsig}	${rep_ljcut} 	${glob_coulcut}
pair_coeff		4 4 	1 	${glob_ljsig}	${rep_ljcut} 	${glob_coulcut}
pair_coeff		4 4 	1 	1	${rep_ljcut} 	${glob_coulcut}
pair_coeff		4 4 	1 	1	1.12 	${glob_coulcut}
pair_coeff		4 4 	1 	1	1.12 	10


fix             noDriftRot 	all momentum 10 linear 1 1 1 angular
fix             nvt1 		all nvt temp ${Temp} ${Temp} 0.5
fix             nvt1 		all nvt temp 1 ${Temp} 0.5
fix             nvt1 		all nvt temp 1 1 0.5

# dump          assemble 	all custom 1000 				${outputfile_selfasb} id type xu yu zu vx vy vz
dump            lindump 	all custom ${subsample_rate} 	${outputfile_trajlin} id type xu yu zu vx vy vz
dump            lindump 	all custom 1000 	${outputfile_trajlin} id type xu yu zu vx vy vz
dump            lindump 	all custom 1000 	6_b_trajlin.data id type xu yu zu vx vy vz

run             ${runtime}
run             1000000
Generated 0 of 6 mixed pair_coeff terms from geometric mixing rule
Neighbor list info ...
  update every 1 steps, delay 10 steps, check yes
  max neighbors/atom: 2000, page size: 100000
  master list distance cutoff = 10.3
  ghost atom cutoff = 10.3
  binsize = 5.15, bins = 7 7 7
  1 neighbor lists, perpetual/occasional/extra = 1 0 0
  (1) pair lj/cut/coul/cut, perpetual
      attributes: half, newton on
      pair build: half/bin/newton
      stencil: half/bin/3d
      bin: standard
Per MPI rank memory allocation (min/avg/max) = 7.712 | 7.712 | 7.712 Mbytes
   Step          Temp         Density         Press          TotEng         PotEng         KinEng         E_pair         S/CPU     
         0   1.1904942      0.0023323615  -0.0011270076   22.052921      20.285037      1.7678839     -0.26329686     0            
      1000   1.0163425      0.0023323615   0.0013809196   21.379102      19.869834      1.5092685     -0.65350314     33548.785    
      2000   0.79833082     0.0023323615   0.0020808763   20.865299      19.679777      1.1855213     -0.74229932     30616.644    
      3000   1.039069       0.0023323615  -0.00083433772  21.163695      19.620677      1.5430175     -0.88455006     26471.888    
      4000   0.9784215      0.0023323615  -0.00053693563  20.782769      19.329813      1.4529559     -1.2038033      22495.606    
      5000   0.97067659     0.0023323615  -0.00012468545  20.517917      19.076463      1.4414547     -1.4010473      19717.846    
      6000   1.0536693      0.0023323615  -0.00065103644  20.826757      19.262058      1.5646989     -1.2635492      18474.508    
      7000   0.97498852     0.0023323615   0.0013463026   20.831574      19.383716      1.4478579     -1.1831672      18618.081    
      8000   0.98634544     0.0023323615  -0.00025984625  20.836918      19.372195      1.464723      -1.1521131      18776.191    
      9000   0.92845979     0.0023323615  -0.0020104094   20.638629      19.259866      1.3787628     -1.188129       19721.707    
     10000   1.0097596      0.0023323615   0.0028794448   20.9734        19.473907      1.4994931     -1.0317568      19319.55     
     11000   0.92066364     0.0023323615  -0.0013288004   20.695874      19.328688      1.3671855     -1.147403       19011.514    
     12000   1.0557642      0.0023323615  -0.0010918912   20.835498      19.267688      1.5678098     -1.3102314      18878.876    
     13000   1.0496438      0.0023323615   8.5193209e-06  20.67328       19.114559      1.558721      -1.3850087      18608.522    
     14000   1.2590592      0.0023323615  -0.0015367878   21.094617      19.224914      1.869703      -1.3739548      18726.604    
     15000   1.1098094      0.0023323615   0.0038021648   20.868381      19.220314      1.648067      -1.3088649      18649.386    
     16000   1.1283131      0.0023323615   0.0040144265   20.471662      18.796117      1.6755449     -1.6815667      18484.169    
     17000   0.98760466     0.0023323615   0.00023659607  20.888129      19.421536      1.4665929     -1.2528384      18502.755    
     18000   0.94514565     0.0023323615   0.0012424121   20.366137      18.962595      1.4035413     -1.4444427      18511.78     
     19000   1.0255047      0.0023323615  -0.002219768    21.005012      19.482138      1.5228744     -1.1491069      18646.919    
     20000   0.975063       0.0023323615   0.001495401    20.743802      19.295833      1.4479686     -1.3322689      18851.139    
     21000   0.85053455     0.0023323615  -0.0001649563   20.293616      19.030572      1.2630438     -1.4060528      18517.787    
     22000   0.98651545     0.0023323615  -0.00047768102  20.717861      19.252886      1.4649754     -1.3363647      18472.443    
     23000   1.0082375      0.0023323615   0.00023889552  20.552951      19.055718      1.4972327     -1.5220354      18447.094    
     24000   1.0762613      0.0023323615  -0.0034165231   20.803509      19.20526       1.5982481     -1.3787417      18438.636    
     25000   1.1891986      0.0023323615  -0.0007721658   20.875402      19.109442      1.7659599     -1.3842603      18472.518    
     26000   1.1695638      0.0023323615   0.0032445379   21.026291      19.289488      1.7368023     -1.436877       18707.641    
     27000   0.87918864     0.0023323615   0.0045136057   20.462388      19.156793      1.3055951     -1.3247197      18508.56     
     28000   1.0386096      0.0023323615  -0.0015082652   20.515826      18.97349       1.5423352     -1.5747478      18379.11     
     29000   0.92390872     0.0023323615  -0.00090044768  20.86893       19.496925      1.3720044     -1.1652842      18530.851    
     30000   1.0852728      0.0023323615  -0.00079865826  20.649154      19.037524      1.6116301     -1.5475293      18613.273    
     31000   1.0103136      0.0023323615  -0.0024890636   20.611722      19.111406      1.5003157     -1.4478815      18676.912    
     32000   0.94770916     0.0023323615  -0.00012325556  20.532484      19.125136      1.4073481     -1.3523829      18534.275    
     33000   0.97663894     0.0023323615  -0.00067606722  20.744993      19.294684      1.4503088     -1.254083       18562.218    
     34000   0.95695218     0.0023323615   2.5310975e-05  20.744631      19.323557      1.421074      -1.1719869      18627.831    
     35000   0.93694092     0.0023323615   0.00084734948  20.422788      19.03143       1.3913573     -1.3603656      18768.494    
     36000   1.0329651      0.0023323615  -0.002815512    20.678042      19.144089      1.5339532     -1.3564159      18656.232    
     37000   1.1599889      0.0023323615  -0.0033616525   20.986403      19.26382       1.7225835     -1.1870879      18590.717    
     38000   0.87192478     0.0023323615  -0.0039096811   20.42359       19.128781      1.2948083     -1.4559788      18478.537    
     39000   0.99213559     0.0023323615   0.0034793775   20.701237      19.227916      1.4733213     -1.4411833      18597.981    
     40000   0.92822449     0.0023323615  -0.00010354106  20.519038      19.140624      1.3784134     -1.2656278      18534.185    
     41000   1.0987422      0.0023323615   0.00026951407  20.878165      19.246533      1.6316322     -1.3541803      18458.515    
     42000   0.96164607     0.0023323615  -0.00069122698  20.524775      19.09673       1.4280444     -1.417503       18640.842    
     43000   0.96839568     0.0023323615  -0.00032287047  20.682951      19.244883      1.4380676     -1.2763172      18620.499    
     44000   1.037307       0.0023323615  -0.0014528474   20.763897      19.223496      1.540401      -1.3240526      18670.404    
     45000   0.97828457     0.0023323615  -0.0014465362   20.750688      19.297935      1.4527526     -1.2128143      18692.698    
     46000   0.9158787      0.0023323615   0.0017110015   20.62956       19.26948       1.3600799     -1.2829566      18737.007    
     47000   1.0905557      0.0023323615   0.0016680257   20.94509       19.325614      1.6194752     -1.2169072      18530.397    
     48000   1.0551994      0.0023323615  -0.0045585367   20.669047      19.102076      1.5669711     -1.5116066      18699.923    
     49000   0.97133876     0.0023323615  -0.00044287541  20.4788        19.036362      1.4424381     -1.4159101      18420.899    
     50000   1.1510365      0.0023323615  -0.0029998168   20.844291      19.135002      1.7092892     -1.4055675      18424.592    
     51000   1.1561949      0.0023323615  -0.0024734783   20.873172      19.156223      1.7169494     -1.4356274      18419.805    
     52000   1.0007957      0.0023323615  -0.0023374629   20.624704      19.138522      1.4861816     -1.2441714      18522.845    
     53000   0.9188863      0.0023323615   0.0024232636   20.438477      19.073931      1.3645462     -1.3500752      18466.021    
     54000   0.9996217      0.0023323615   0.0010262106   20.64854       19.164102      1.4844382     -1.258591       18618.078    
     55000   0.82490298     0.0023323615  -0.00040675201  20.250672      19.025691      1.2249809     -1.5136137      18433.616    
     56000   0.97457836     0.0023323615  -0.0011853917   20.422028      18.97478       1.4472489     -1.5198647      18439.716    
     57000   0.98450806     0.0023323615   0.0037146259   20.590371      19.128377      1.4619945     -1.5056123      18334.065    
     58000   1.0148364      0.0023323615   0.0010308058   20.601266      19.094234      1.5070321     -1.2984495      18378.654    
     59000   1.0606285      0.0023323615   0.00044910127  20.54677       18.971737      1.5750334     -1.4704427      18361.441    
     60000   1.0194634      0.0023323615  -0.00079353786  20.706829      19.192926      1.5139032     -1.3325873      18312.779    
     61000   0.97375667     0.0023323615  -0.000195419    20.45651       19.010481      1.4460287     -1.5244619      18364.431    
     62000   0.95242815     0.0023323615  -0.0027625755   20.684945      19.270589      1.4143558     -1.3066778      18451.909    
     63000   1.0233905      0.0023323615  -0.00096953259  20.777658      19.257923      1.519735      -1.1664222      18785.979    
     64000   1.0102707      0.0023323615   0.00014762728  20.6515        19.151248      1.500252      -1.3075666      18714.017    
     65000   1.1319044      0.0023323615  -0.0013195834   20.934025      19.253146      1.6808781     -1.316254       18560.789    
     66000   1.0737349      0.0023323615  -0.0022336108   21.096404      19.501908      1.5944964     -1.146271       18559.205    
     67000   1.2181327      0.0023323615  -0.0014568336   20.945334      19.136407      1.8089271     -1.3428755      18477.347    
     68000   1.0346475      0.0023323615   0.00039955245  20.696946      19.160495      1.5364516     -1.3779988      18471.311    
     69000   1.0957399      0.0023323615  -0.0013228485   21.00533       19.378156      1.6271737     -1.2186902      18544.061    
     70000   0.8892075      0.0023323615   0.0016042481   20.623402      19.302929      1.3204731     -1.2576416      18520.739    
     71000   0.92312831     0.0023323615   0.0051552213   20.59547       19.224625      1.3708455     -1.3893342      18617.432    
     72000   0.91243493     0.0023323615   0.0045528102   20.246334      18.891368      1.3549659     -1.6294011      18501.366    
     73000   1.1329194      0.0023323615  -0.0032839412   20.941177      19.258792      1.6823853     -1.3353678      18487.953    
     74000   1.0919363      0.0023323615  -0.00073137934  20.633485      19.011959      1.6215253     -1.5247656      18427.892    
     75000   1.08828        0.0023323615  -0.0022523745   20.744761      19.128665      1.6160959     -1.3272623      18334.718    
     76000   0.96766122     0.0023323615  -0.0016418105   20.523062      19.086085      1.4369769     -1.5352056      18411.215    
     77000   1.0629879      0.0023323615  -0.0032356474   20.884468      19.305931      1.578537      -1.2530859      18390.431    
     78000   0.99731027     0.0023323615   0.0037069006   20.641707      19.160701      1.4810058     -1.4364891      18373.498    
     79000   1.1456619      0.0023323615   0.0018463787   20.903195      19.201888      1.7013079     -1.275074       18430.536    
     80000   0.90853257     0.0023323615  -0.0027918857   20.4075        19.058329      1.3491709     -1.4386291      18201.717    
     81000   1.0450628      0.0023323615  -0.0021889768   20.843107      19.291189      1.5519182     -1.4390339      18419.499    
     82000   0.91611323     0.0023323615  -0.00050582388  20.638641      19.278213      1.3604281     -1.3295711      18605.813    
     83000   1.143041       0.0023323615   0.0014320986   20.831805      19.134389      1.6974158     -1.3299361      18407.759    
     84000   1.0048448      0.0023323615   0.0012684406   20.639276      19.147082      1.4921945     -1.419491       18436.984    
     85000   0.94527462     0.0023323615   0.00037730535  20.684819      19.281086      1.4037328     -1.353702       18373.812    
     86000   0.99378076     0.0023323615   0.0039933852   20.661359      19.185595      1.4757644     -1.2470258      18545.698    
     87000   1.1723735      0.0023323615   0.00044525862  20.725353      18.984378      1.7409747     -1.5123594      18372.202    
     88000   1.0025641      0.0023323615  -0.0034241882   20.523767      19.03496       1.4888077     -1.4471722      18441.269    
     89000   1.088978       0.0023323615   0.0045151555   20.780868      19.163736      1.6171324     -1.3994576      18598.723    
     90000   0.88819076     0.0023323615   0.0013932958   20.416071      19.097107      1.3189633     -1.426628       18469.083    
     91000   1.0611729      0.0023323615   0.00068016075  20.576256      19.000414      1.5758418     -1.5974247      18502.717    
     92000   1.1309929      0.0023323615  -0.002150151    21.036657      19.357132      1.6795245     -1.2855078      18607.46     
     93000   0.87654212     0.0023323615   0.0034228281   20.491763      19.190098      1.301665      -1.3152141      18585.494    
     94000   0.9895149      0.0023323615   0.002024273    20.505719      19.036289      1.4694296     -1.5137332      18466.298    
     95000   1.0494589      0.0023323615   0.00035005046  20.75773       19.199283      1.5584464     -1.4124875      18502.179    
     96000   1.1602154      0.0023323615  -0.0027639001   21.046312      19.323392      1.7229199     -1.3483289      18489.915    
     97000   0.94663002     0.0023323615  -0.0021853592   20.57229       19.166545      1.4057456     -1.4989825      18593.637    
     98000   0.99341297     0.0023323615   0.001372779    20.538062      19.062844      1.4752183     -1.4820128      18420.746    
     99000   1.0441002      0.0023323615  -0.00033316102  20.576323      19.025834      1.5504887     -1.367844       18422.64     
    100000   1.0348463      0.0023323615   0.00031522677  20.530835      18.994088      1.5367467     -1.5219619      18444.213    
    101000   0.91623149     0.0023323615  -0.0015849317   20.633729      19.273125      1.3606038     -1.2846024      18409.277    
    102000   0.94008374     0.0023323615   0.0012298205   20.530065      19.13404       1.3960244     -1.3056198      18665.467    
    103000   1.0220136      0.0023323615   0.0050688509   20.705576      19.187886      1.5176902     -1.3506419      18717.849    
    104000   0.99795608     0.0023323615  -0.00059567478  20.75307       19.271105      1.4819648     -1.2866679      18641.796    
    105000   0.95676799     0.0023323615   0.00028685498  20.483789      19.062989      1.4208005     -1.57606        18551.937    
    106000   0.93152449     0.0023323615  -0.00094750054  20.738418      19.355104      1.3833139     -1.1854191      18698.581    
    107000   0.9389196      0.0023323615  -0.0019789595   20.661653      19.267357      1.3942956     -1.3485322      18707.623    
    108000   1.0178717      0.0023323615  -0.0061254095   20.78074       19.269201      1.5115395     -1.3095869      18518.271    
    109000   0.90997601     0.0023323615  -0.00013574994  20.455138      19.103823      1.3513144     -1.4732695      18586.792    
    110000   0.98694986     0.0023323615   0.00032569546  20.520576      19.054956      1.4656205     -1.5152378      18517.007    
    111000   0.92075389     0.0023323615  -0.0017411251   20.484273      19.116953      1.3673195     -1.3288987      18513.95     
    112000   0.91047461     0.0023323615  -0.004124069    20.461326      19.109271      1.3520548     -1.3900266      18548.296    
    113000   0.95859806     0.0023323615   0.0003215942   20.488489      19.064971      1.4235181     -1.3850696      18695.352    
    114000   1.0871556      0.0023323615  -0.0033260874   20.708743      19.094317      1.6144261     -1.3456559      18610.336    
    115000   1.1252427      0.0023323615   0.00040888476  20.802855      19.131869      1.6709854     -1.2604616      18449.31     
    116000   1.1116321      0.0023323615   0.004144437    20.942791      19.292017      1.6507736     -1.2122661      18490.631    
    117000   1.174538       0.0023323615   0.0020732205   21.11198       19.367791      1.744189      -1.3350577      18433.684    
    118000   0.88575937     0.0023323615  -0.0019485222   20.696847      19.381494      1.3153527     -1.1739383      18390.394    
    119000   1.1150748      0.0023323615   0.0042936653   20.911764      19.255878      1.6558861     -1.1735156      18608.068    
    120000   0.96983532     0.0023323615  -0.001369516    20.581458      19.141252      1.4402054     -1.4719837      18499.068    
    121000   1.0519304      0.0023323615   0.0021365071   20.786872      19.224755      1.5621167     -1.3711377      18338.077    
    122000   1.0164799      0.0023323615   0.0014751087   20.882932      19.373459      1.5094726     -1.2751292      18454.239    
    123000   1.032862       0.0023323615   0.0029207173   20.669582      19.135782      1.5338001     -1.3719126      18531.859    
    124000   0.87287949     0.0023323615  -0.00010616752  20.661641      19.365415      1.296226      -1.2137297      18638.155    
    125000   1.0264518      0.0023323615   0.00013340595  20.857033      19.332752      1.524281      -1.2526628      18738.484    
    126000   0.9924379      0.0023323615  -0.002539546    21.009306      19.535535      1.4737703     -1.1190165      18901.703    
    127000   1.0551823      0.0023323615   0.00079556835  20.705035      19.138089      1.5669457     -1.3400179      18799.411    
    128000   0.99544291     0.0023323615  -0.00027583063  21.200815      19.722583      1.4782327     -1.0306278      18939.908    
    129000   0.92164059     0.0023323615  -0.0028226558   20.8064        19.437764      1.3686363     -1.1498675      18606.579    
    130000   1.0808183      0.0023323615   0.00063006627  20.836108      19.231093      1.6050152     -1.3573154      18595.913    
    131000   0.89998541     0.0023323615  -8.7906288e-05  20.578452      19.241974      1.3364783     -1.354578       18648.02     
    132000   1.0651524      0.0023323615   0.0035712016   20.842057      19.260306      1.5817513     -1.2973869      18498.294    
    133000   0.97707108     0.0023323615   0.00089572779  20.445495      18.994544      1.4509506     -1.3628024      18538.719    
    134000   0.97730373     0.0023323615   0.0028917644   20.481958      19.030662      1.451296      -1.4386224      18571.44     
    135000   1.1124585      0.0023323615  -0.0013768206   20.894365      19.242364      1.6520008     -1.3332304      18620.047    
    136000   0.99157847     0.0023323615   0.00077812658  20.808776      19.336282      1.472494      -1.1773182      18698.802    
    137000   1.0624222      0.0023323615   0.00064549059  20.945697      19.368         1.577697      -1.2537322      18976.681    
    138000   1.0021025      0.0023323615  -0.0023849604   20.762697      19.274575      1.4881222     -1.1904627      18709.531    
    139000   1.0792907      0.0023323615   0.0020302908   21.045406      19.442659      1.6027467     -1.1937054      18577.364    
    140000   1.0436166      0.0023323615  -0.0002470641   20.636108      19.086337      1.5497706     -1.4139315      18637.689    
    141000   0.96646083     0.0023323615  -0.0035718175   20.664731      19.229536      1.4351943     -1.25062        18524.458    
    142000   0.94264004     0.0023323615   0.0015000177   20.677948      19.278127      1.3998205     -1.2707356      18631.705    
    143000   0.94619345     0.0023323615  -0.0021110739   20.471127      19.066029      1.4050973     -1.4419798      18632.807    
    144000   1.1307637      0.0023323615   0.0023902616   21.137673      19.458489      1.6791841     -1.0095737      18800.976    
    145000   0.88516715     0.0023323615   0.002142548    20.429082      19.114609      1.3144732     -1.3713472      18690.958    
    146000   0.95997105     0.0023323615   0.0036112104   20.649414      19.223857      1.425557      -1.2947866      18651.341    
    147000   0.96182225     0.0023323615  -0.0045009145   20.683651      19.255345      1.428306      -1.2249254      18563.392    
    148000   0.86035819     0.0023323615   0.00054515352  20.339257      19.061625      1.2776319     -1.3640292      18551.482    
    149000   1.1432218      0.0023323615  -0.0025209196   20.850523      19.152839      1.6976844     -1.4516781      18516.997    
    150000   1.0354494      0.0023323615   0.0037249791   20.598014      19.060371      1.5376424     -1.3488946      18481.466    
    151000   0.87660127     0.0023323615  -0.0010156976   20.349584      19.047831      1.3017529     -1.4058102      18563.641    
    152000   0.95916368     0.0023323615  -0.0022553056   20.688077      19.263719      1.4243581     -1.3270368      18432.973    
    153000   0.99705904     0.0023323615  -0.0011632651   20.948715      19.468082      1.4806327     -1.1280909      18640.654    
    154000   0.97254054     0.0023323615  -0.00091787997  20.848693      19.404471      1.4442227     -1.2262389      18670.173    
    155000   1.1568498      0.0023323615   0.0027434122   20.731462      19.01354       1.7179219     -1.6384238      18393.62     
    156000   0.85908844     0.0023323615   0.0034306911   20.51647       19.240724      1.2757463     -1.4255512      18464.006    
    157000   0.90430605     0.0023323615  -0.0041563398   20.681092      19.338198      1.3428945     -1.404132       18528.034    
    158000   1.229058       0.0023323615  -0.0023764165   20.953257      19.128106      1.8251512     -1.3559909      18593.505    
    159000   1.0088065      0.0023323615  -0.0030871614   20.435723      18.937646      1.4980776     -1.4847986      18423.694    
    160000   1.0102752      0.0023323615  -0.0033954238   20.942028      19.441769      1.5002587     -1.1584926      18599.912    
    161000   1.0569021      0.0023323615   0.0022675487   20.829931      19.260431      1.5694996     -1.2168878      18535.39     
    162000   1.0827276      0.0023323615  -0.00011194673  20.685864      19.078014      1.6078504     -1.3536119      18572.76     
    163000   0.99309147     0.0023323615  -0.00019634175  20.510636      19.035895      1.4747408     -1.4890777      18411.817    
    164000   1.0072679      0.0023323615  -0.0012046244   20.838544      19.342751      1.4957929     -1.2525072      18594.946    
    165000   0.9793853      0.0023323615  -0.0011676672   20.446228      18.991841      1.4543872     -1.5538394      18509.058    
    166000   1.1136324      0.0023323615  -0.00081278139  20.711918      19.058173      1.6537441     -1.430676       18539.298    
    167000   1.0449409      0.0023323615   0.0027291308   20.931872      19.380135      1.5517372     -1.2519229      18591.528    
    168000   0.94203641     0.0023323615   0.00045099822  20.665018      19.266094      1.3989241     -1.3347949      18585.608    
    169000   1.1007881      0.0023323615  -0.0021820254   20.668341      19.033671      1.6346703     -1.4320818      18573.23     
    170000   0.97669311     0.0023323615   0.0015894365   20.397371      18.946981      1.4503893     -1.5053856      18562.218    
    171000   1.0659752      0.0023323615   0.0027824465   20.754895      19.171922      1.5829732     -1.2958653      18513.82     
    172000   1.1232913      0.0023323615  -0.0015892326   20.83135       19.163263      1.6680876     -1.3965207      18600.709    
    173000   0.87421962     0.0023323615  -0.0016132285   20.360744      19.062527      1.2982161     -1.5010244      18481.627    
    174000   1.0791944      0.0023323615   0.0025241645   20.84709       19.244487      1.6026036     -1.2890971      18571.036    
    175000   0.95568107     0.0023323615  -0.0041779838   20.615686      19.1965        1.4191864     -1.2674204      18669.877    
    176000   0.96147574     0.0023323615   0.0013302116   20.511275      19.083484      1.4277915     -1.3627739      18620.033    
    177000   0.88996395     0.0023323615  -0.0013177093   20.761998      19.440402      1.3215965     -1.1438405      18527.821    
    178000   0.91692783     0.0023323615   0.0014465057   20.708078      19.34644       1.3616378     -1.1564275      18727.989    
    179000   1.0949357      0.0023323615   0.0035559992   21.065035      19.439056      1.6259796     -1.2209527      18763.562    
    180000   1.1085255      0.0023323615  -0.002453051    20.976507      19.330347      1.6461604     -1.214406       18669.52     
    181000   0.98143528     0.0023323615  -0.00030432067  20.464181      19.006749      1.4574314     -1.4623536      18949.671    
    182000   1.0362993      0.0023323615  -0.00011714313  20.552032      19.013128      1.5389045     -1.5787284      18669.845    
    183000   0.92157315     0.0023323615   0.001722684    20.655116      19.28658       1.3685361     -1.2602588      18642.74     
    184000   1.0440068      0.0023323615   0.0019882445   20.745804      19.195453      1.5503501     -1.3120385      18675.962    
    185000   0.92544704     0.0023323615  -0.0017167011   20.704131      19.329842      1.3742889     -1.1653947      18809.238    
    186000   0.97773637     0.0023323615  -0.00053577825  21.110896      19.658957      1.4519385     -0.91491327     19091.475    
    187000   0.9838236      0.0023323615  -0.00014393069  20.812889      19.351911      1.460978      -1.233567       18962.768    
    188000   1.104443       0.0023323615   0.00020804996  20.979905      19.339808      1.6400978     -1.157573       19248.898    
    189000   1.1911234      0.0023323615  -9.2271714e-05  20.978439      19.20962       1.7688182     -1.2901263      19512.652    
    190000   1.0521371      0.0023323615   0.0016422996   20.743819      19.181396      1.5624237     -1.3233812      19207.907    
    191000   1.0643708      0.0023323615   0.0031083918   20.915013      19.334422      1.5805906     -1.3274337      18888.021    
    192000   1.2011779      0.0023323615  -0.00034841968  21.012789      19.22904       1.7837492     -1.4062094      18392.82     
    193000   1.067192       0.0023323615  -0.0012988758   20.820572      19.235792      1.5847801     -1.2429809      18672.901    
    194000   1.0121863      0.0023323615  -0.0013074945   20.78836       19.285263      1.5030966     -1.2704631      18598.772    
    195000   1.1505408      0.0023323615   0.00021867055  21.032102      19.323549      1.7085531     -1.2230556      18757.69     
    196000   0.97826248     0.0023323615  -0.0008699062   20.715625      19.262905      1.4527198     -1.2847655      18746.008    
    197000   1.0118266      0.0023323615  -0.0020025083   20.777023      19.274461      1.5025625     -1.3361938      18642.583    
    198000   0.97139226     0.0023323615   0.0017510648   20.614869      19.172352      1.4425175     -1.3035782      18559.73     
    199000   0.98839496     0.0023323615  -0.0015129205   20.65012       19.182353      1.4677665     -1.3820305      18544.433    
    200000   0.9031167      0.0023323615  -0.0011766132   20.255336      18.914207      1.3411283     -1.5549374      18512.319    
    201000   0.97390638     0.0023323615  -0.0050460442   20.793215      19.346964      1.446251      -1.3157883      18411.127    
    202000   1.1051344      0.0023323615  -0.0016800893   20.836181      19.195056      1.6411245     -1.2972502      18525.758    
    203000   0.81394726     0.0023323615  -0.00179344     20.337868      19.129157      1.2087117     -1.3085334      18589.035    
    204000   0.97054076     0.0023323615  -0.0036847213   20.862149      19.420895      1.441253      -1.2009337      18663.184    
    205000   0.92946178     0.0023323615   0.0014512899   20.766654      19.386403      1.3802507     -1.0977596      18663.47     
    206000   0.95569418     0.0023323615   0.00077734556  20.555927      19.136721      1.4192059     -1.5778502      18633.315    
    207000   0.9313377      0.0023323615  -0.0040325636   20.176117      18.793081      1.3830365     -1.6543826      18531.037    
    208000   0.9368589      0.0023323615   0.00088383009  20.832603      19.441368      1.3912355     -1.1200915      18710.197    
    209000   1.0452077      0.0023323615   0.0035432425   20.746683      19.194549      1.5521334     -1.3535944      18532.788    
    210000   0.95691954     0.0023323615  -0.0043721938   20.647776      19.226751      1.4210255     -1.2849788      18641.378    
    211000   0.8401098      0.0023323615  -0.003895475    20.482757      19.235193      1.247563      -1.3514214      18673.977    
    212000   1.0167461      0.0023323615  -0.00090380981  20.821471      19.311603      1.509868      -1.1815779      18774.686    
    213000   1.2224296      0.0023323615   0.00075602187  20.772771      18.957463      1.8153079     -1.5252032      18693.926    
    214000   0.99256098     0.0023323615  -0.00081084721  20.634357      19.160404      1.4739531     -1.3237402      18552.503    
    215000   0.91471873     0.0023323615  -0.0014509699   20.682293      19.323936      1.3583573     -1.1919449      18977.799    
    216000   1.1711269      0.0023323615  -0.0021748318   21.113221      19.374098      1.7391235     -1.1692767      19771.641    
    217000   0.97054669     0.0023323615  -0.0024487607   20.911575      19.470313      1.4412618     -1.041882       19185.846    
    218000   1.0308026      0.0023323615   0.00014369041  20.683938      19.153196      1.5307419     -1.4574337      18711.263    
    219000   0.90302568     0.0023323615  -0.00042610337  20.63785       19.296857      1.3409931     -1.1902716      18655.688    
    220000   0.88317005     0.0023323615   0.0010120294   20.52758       19.216072      1.3115075     -1.2237274      18832.512    
    221000   0.98687353     0.0023323615   0.0038126022   20.714184      19.248677      1.4655072     -1.2399741      18673.876    
    222000   0.97397459     0.0023323615   0.0011924314   20.67322       19.226868      1.4463523     -1.3144972      18596.176    
    223000   0.86003473     0.0023323615   0.0038208842   20.540738      19.263587      1.2771516     -1.3461006      18378.691    
    224000   0.94138466     0.0023323615  -0.00017018578  20.541449      19.143492      1.3979562     -1.2898602      18641.396    
    225000   1.1449738      0.0023323615  -0.00014381343  20.789309      19.089023      1.700286      -1.3366957      18604.53     
    226000   1.0674447      0.0023323615   0.0025247249   20.789714      19.204559      1.5851554     -1.3872552      18533.445    
    227000   0.92427824     0.0023323615   0.0012194947   20.49641       19.123857      1.3725532     -1.4486195      18546.036    
    228000   0.99211887     0.0023323615   0.0021371376   20.683914      19.210618      1.4732965     -1.2937559      18477.08     
    229000   1.1480978      0.0023323615  -0.0018400827   21.165211      19.460285      1.7049253     -1.1147971      18668.343    
    230000   0.97200965     0.0023323615  -0.0010953688   20.540726      19.097292      1.4434343     -1.3373139      18354.509    
    231000   1.0283101      0.0023323615  -4.0237006e-05  20.58087       19.053829      1.5270405     -1.3893541      18376.058    
    232000   1.0486973      0.0023323615   0.002775115    20.708772      19.151456      1.5573155     -1.3084173      18194.895    
    233000   1.0631663      0.0023323615  -0.0015047993   20.805934      19.227133      1.578802      -1.3563899      18581.293    
    234000   1.0389732      0.0023323615   0.0041079338   20.772053      19.229178      1.5428752     -1.3349329      18915.372    
    235000   0.89937733     0.0023323615  -0.002348118    20.566851      19.231276      1.3355753     -1.2746275      18677.279    
    236000   0.93059363     0.0023323615   0.00029920033  20.504347      19.122415      1.3819315     -1.3845559      18446.882    
    237000   0.97694472     0.0023323615  -0.00015178589  20.602562      19.151799      1.4507629     -1.2375482      18792.19     
    238000   1.0504607      0.0023323615   0.002539898    20.880597      19.320663      1.5599341     -1.1450727      18714.715    
    239000   0.92779972     0.0023323615  -0.00086539561  20.61692       19.239137      1.3777826     -1.2953965      18575.625    
    240000   0.98969598     0.0023323615   0.00063109107  20.600804      19.131106      1.4696985     -1.3019274      18257.612    
    241000   1.0012416      0.0023323615   0.0010692658   20.471111      18.984268      1.4868437     -1.4624846      18473        
    242000   1.1325848      0.0023323615  -0.0037252956   21.062325      19.380437      1.6818885     -1.084944       18563.351    
    243000   1.0307952      0.0023323615  -0.0005975318   20.697264      19.166533      1.5307309     -1.4757001      18606.562    
    244000   1.0199888      0.0023323615  -0.00097972093  20.848909      19.334225      1.5146833     -1.2950793      18550.217    
    245000   0.9843586      0.0023323615  -0.0021563133   20.663848      19.202075      1.4617725     -1.3702487      18508.55     
    246000   0.98076095     0.0023323615   0.0010305643   20.437158      18.980728      1.45643       -1.383561       18641.835    
    247000   0.94325223     0.0023323615   0.0022703598   20.696384      19.295655      1.4007296     -1.1493657      18570.462    
    248000   0.95747104     0.0023323615  -0.0027296163   20.510288      19.088444      1.4218445     -1.4006075      18453.226    
    249000   1.1208995      0.0023323615   0.00013228153  20.873482      19.208946      1.6645358     -1.2816828      18392.322    
    250000   0.93007294     0.0023323615  -0.0010889469   20.478107      19.096949      1.3811583     -1.4326437      18369.555    
    251000   1.0460195      0.0023323615  -0.0021369817   20.643035      19.089696      1.5533389     -1.380108       18209.873    
    252000   1.1317823      0.0023323615  -0.0032046569   20.767766      19.087069      1.6806967     -1.4511459      18368.997    
    253000   1.0763918      0.0023323615  -0.0022783295   20.714787      19.116345      1.5984418     -1.3713299      18462.858    
    254000   1.023528       0.0023323615  -0.004446389    20.620211      19.100272      1.5199391     -1.4786808      18511.489    
    255000   0.9293824      0.0023323615  -0.0048901071   20.587882      19.207749      1.3801329     -1.4023252      18423.3      
    256000   0.99995696     0.0023323615  -0.0024864881   20.601678      19.116742      1.4849361     -1.4452832      18241.315    
    257000   0.92398961     0.0023323615   0.0022382069   20.600004      19.227879      1.3721246     -1.2916646      18238.316    
    258000   0.95905913     0.0023323615   0.0013705462   20.726654      19.302452      1.4242028     -1.2035744      18722.558    
    259000   0.99460107     0.0023323615  -0.0026207641   20.43457       18.957587      1.4769826     -1.43865        18315.77     
    260000   0.99385155     0.0023323615   0.0012490247   20.80862       19.332751      1.4758696     -1.2355035      18218.658    
    261000   0.91161368     0.0023323615   0.0030166268   20.619954      19.266208      1.3537463     -1.2274824      18474.296    
    262000   0.88955601     0.0023323615   0.0018846442   20.441319      19.120328      1.3209907     -1.344138       18441.8      
    263000   0.84674545     0.0023323615   0.0016508983   20.486115      19.228698      1.257417      -1.3561753      18334.971    
    264000   0.91897977     0.0023323615  -0.0014742413   20.572774      19.208089      1.364685      -1.3362295      18424.351    
    265000   0.9364487      0.0023323615  -0.0042221111   20.740895      19.350269      1.3906263     -1.2279824      18296.428    
    266000   1.1595045      0.0023323615   0.0015005345   21.147364      19.4255        1.7218642     -1.0628847      18446.906    
    267000   1.0230888      0.0023323615  -0.0012106287   20.883545      19.364258      1.5192869     -1.1526455      18385.872    
    268000   1.0030307      0.0023323615  -0.00017443243  20.561945      19.072444      1.4895006     -1.4810034      18394.722    
    269000   0.99626797     0.0023323615  -0.0037451887   20.749682      19.270225      1.4794579     -1.2697642      18432.322    
    270000   1.0260807      0.0023323615  -0.0015466334   20.854953      19.331223      1.5237298     -1.241561       18480.463    
    271000   1.1152281      0.0023323615  -0.0010202667   20.874378      19.218264      1.6561137     -1.3438951      18531.367    
    272000   1.1476064      0.0023323615  -0.00088824229  20.61225       18.908055      1.7041956     -1.5574059      18454.809    
    273000   1.009276       0.0023323615   0.0029833946   20.416246      18.917471      1.4987749     -1.513102       18538.416    
    274000   0.98740424     0.0023323615   0.0028021662   20.545226      19.078931      1.4662953     -1.4852913      18322.262    
    275000   0.9804936      0.0023323615  -0.0064681737   20.863183      19.40715       1.456033      -1.23081        18588.114    
    276000   1.1261107      0.0023323615   0.0011084241   20.61098       18.938706      1.6722743     -1.4974893      18423.035    
    277000   1.0326498      0.0023323615  -0.0014381186   20.950648      19.417164      1.533485      -1.1117069      18625.381    
    278000   0.97205731     0.0023323615  -0.0032440579   20.549555      19.10605       1.4435051     -1.4450984      18596.093    
    279000   1.0980805      0.0023323615  -0.00033830253  20.962706      19.332056      1.6306495     -1.283509       18692.911    
    280000   1.0529026      0.0023323615  -0.0017747304   20.780546      19.216985      1.5635604     -1.3468442      18533.26     
    281000   0.9344043      0.0023323615  -0.00095539369  20.672833      19.285243      1.3875904     -1.3570528      18498.51     
    282000   1.0370851      0.0023323615   0.002153208    20.66149       19.121419      1.5400713     -1.4003832      18465.656    
    283000   1.0996451      0.0023323615  -0.00096649458  20.87602       19.243047      1.6329729     -1.2698726      18414.765    
    284000   1.0240109      0.0023323615  -0.0053331956   20.694216      19.17356       1.5206562     -1.2981617      18514.747    
    285000   0.91854676     0.0023323615  -0.00045111296  20.42743       19.063388      1.3640419     -1.4939007      18450.452    
    286000   0.82431872     0.0023323615  -0.0033487578   20.150819      18.926706      1.2241133     -1.5410243      18345.688    
    287000   0.91220279     0.0023323615   0.0018090208   20.668431      19.31381       1.3546211     -1.3293913      18429.923    
    288000   1.1937093      0.0023323615  -0.001507923    20.943376      19.170718      1.7726584     -1.3170246      18504.418    
    289000   1.0513657      0.0023323615  -0.0026672533   20.921309      19.36003       1.5612781     -1.1970215      18581.574    
    290000   1.0286467      0.0023323615  -0.00032324767  20.616615      19.089074      1.5275403     -1.4974089      18566.966    
    291000   1.0173758      0.0023323615   0.00057396858  20.584006      19.073203      1.5108031     -1.3609535      18462.432    
    292000   0.99625528     0.0023323615   0.00032647129  20.488464      19.009025      1.4794391     -1.4992833      18500.553    
    293000   0.87087668     0.0023323615   0.0018045223   20.528758      19.235506      1.2932519     -1.2019559      18534.602    
    294000   0.95758816     0.0023323615   0.0014679776   20.520514      19.098496      1.4220184     -1.4229326      18438.901    
    295000   1.0450562      0.0023323615   0.00033115715  20.729539      19.177631      1.5519085     -1.2822586      18501.585    
    296000   1.0532264      0.0023323615  -0.002057319    20.959828      19.395787      1.5640412     -1.1325878      18552.547    
    297000   1.0264922      0.0023323615   0.0047701904   20.84887       19.324529      1.5243409     -1.2237354      18449.447    
    298000   1.0146121      0.0023323615  -0.0053038803   20.801265      19.294566      1.506699      -1.2693191      18560.72     
    299000   0.95723424     0.0023323615   0.0042211299   20.454985      19.033492      1.4214928     -1.3558771      18702.694    
    300000   0.839251       0.0023323615  -0.0015545784   20.780301      19.534013      1.2462877     -1.058173       18484.502    
    301000   1.0862827      0.0023323615   1.866065e-05   20.876523      19.263393      1.6131298     -1.20536        18584.487    
    302000   0.98959315     0.0023323615  -0.001464258    20.647568      19.178022      1.4695458     -1.2240981      18478.647    
    303000   1.1607304      0.0023323615   0.00046005885  20.736476      19.012792      1.7236847     -1.4462884      18536.874    
    304000   0.91065225     0.0023323615  -0.00053873108  20.5242        19.171882      1.3523186     -1.3781249      18307.297    
    305000   1.0933081      0.0023323615   0.0012757915   20.766372      19.142809      1.6235625     -1.4500028      18246.061    
    306000   0.99313688     0.0023323615   0.00057117192  20.831802      19.356994      1.4748083     -1.2952547      18215.848    
    307000   0.98619725     0.0023323615   0.00038105987  20.744356      19.279853      1.4645029     -1.2812229      18459.529    
    308000   1.0808147      0.0023323615  -0.00020402461  20.814173      19.209164      1.6050098     -1.3320702      18373.356    
    309000   0.90288212     0.0023323615  -0.0038174547   20.665415      19.324635      1.3407799     -1.2492456      18328.554    
    310000   1.0858258      0.0023323615   0.0010693606   21.195009      19.582557      1.6124512     -1.0026062      18693.051    
    311000   1.0385645      0.0023323615  -0.0010521823   20.775039      19.232771      1.5422683     -1.1945938      18763.138    
    312000   0.97019208     0.0023323615   0.0028320062   20.794651      19.353915      1.4407352     -1.1094733      18415.655    
    313000   1.1413923      0.0023323615   0.0027797936   21.154014      19.459046      1.6949676     -1.1091706      18529.619    
    314000   0.97854302     0.0023323615   0.0027262102   20.787531      19.334394      1.4531364     -1.156804       18510.349    
    315000   1.006015       0.0023323615  -0.00037269631  20.574276      19.080343      1.4939322     -1.3748249      18453.461    
    316000   1.0100262      0.0023323615  -0.00082967371  21.020276      19.520387      1.4998889     -0.98475025     18530.927    
    317000   0.97286276     0.0023323615  -0.002654351    20.664421      19.21972       1.4447012     -1.3034156      19095.343    
    318000   0.94580139     0.0023323615  -0.0022114192   20.569329      19.164814      1.4045151     -1.4230293      18537.659    
    319000   0.90723039     0.0023323615  -0.00013981624  20.54174       19.194503      1.3472371     -1.3880934      18352.393    
    320000   0.88207636     0.0023323615  -0.0013670656   20.404819      19.094936      1.3098834     -1.4578872      18378.681    
    321000   0.97502828     0.0023323615  -0.00092832154  20.642128      19.194211      1.447917      -1.4390417      18349.192    
    322000   0.95339912     0.0023323615  -0.0028338483   20.445317      19.029519      1.4157977     -1.5487773      18332.755    
    323000   0.91115515     0.0023323615  -0.00097036121  20.525411      19.172345      1.3530654     -1.4347092      18380.014    
    324000   0.89736033     0.0023323615   0.00017767057  20.380312      19.047732      1.3325801     -1.4872599      18230.477    
    325000   1.0248275      0.0023323615  -0.001721798    20.599419      19.07755       1.5218689     -1.5308129      18281.997    
    326000   0.95736756     0.0023323615  -0.00049707944  20.671697      19.250007      1.4216908     -1.3142206      18254.8      
    327000   0.86691578     0.0023323615  -0.0019387915   20.750362      19.462992      1.2873699     -1.1294805      18315.696    
    328000   1.0480206      0.0023323615   0.00093499974  20.836681      19.280371      1.5563106     -1.0971368      18401.494    
    329000   0.98846713     0.0023323615   0.0020737282   20.648267      19.180393      1.4678737     -1.2866555      18324.216    
    330000   1.019725       0.0023323615  -0.0028340688   20.581788      19.067496      1.5142916     -1.4544119      18358.054    
    331000   1.0532902      0.0023323615   0.0047306402   20.757622      19.193486      1.564136      -1.3249152      18441.967    
    332000   1.0604704      0.0023323615  -0.00034645369  20.550192      18.975393      1.5747985     -1.5868893      18475.178    
    333000   0.89845852     0.0023323615  -0.0025090081   20.672692      19.338481      1.3342109     -1.2097973      18331.327    
    334000   0.98129493     0.0023323615  -0.003919142    20.654876      19.197653      1.457223      -1.2618503      18483.978    
    335000   0.87598275     0.0023323615  -0.0014107136   20.727165      19.426331      1.3008344     -1.0953857      18596.55     
    336000   0.94338842     0.0023323615   0.0015071602   20.85566       19.454728      1.4009318     -1.1647677      18868.258    
    337000   0.94872004     0.0023323615  -0.0037175894   20.630068      19.221218      1.4088493     -1.383655       18544.109    
    338000   0.95497842     0.0023323615   0.00082983463  20.384439      18.966297      1.418143      -1.4441698      18311.479    
    339000   0.97261362     0.0023323615   0.0011480594   20.518507      19.074176      1.4443312     -1.5122719      18411.406    
    340000   0.95004471     0.0023323615   0.00078344136  20.382122      18.971305      1.4108164     -1.5584032      18243.316    
    341000   0.93941346     0.0023323615  -0.0019829632   20.664517      19.269488      1.395029      -1.3231217      18271.214    
    342000   1.0284992      0.0023323615   0.0019208355   20.591433      19.064112      1.5273213     -1.5385785      18229.315    
    343000   0.94680989     0.0023323615   0.003228711    20.589228      19.183215      1.4060127     -1.3378518      18324.677    
    344000   0.95248147     0.0023323615   5.3430091e-05  20.779456      19.365021      1.414435      -1.2052449      18425.776    
    345000   0.89431653     0.0023323615  -0.00079554379  20.721319      19.393259      1.32806       -1.2039359      18635.862    
    346000   0.99961963     0.0023323615   0.0021566499   20.890589      19.406154      1.4844351     -1.0526275      18568.994    
    347000   1.1876375      0.0023323615   0.0027750118   20.938804      19.175163      1.7636416     -1.3751049      18627.515    
    348000   1.0224047      0.0023323615  -0.0020718779   20.567547      19.049276      1.518271      -1.5192394      18538.623    
    349000   1.0168686      0.0023323615   0.00086738032  20.514953      19.004904      1.5100499     -1.4552511      18526.387    
    350000   1.0019311      0.0023323615  -0.00021847151  20.719588      19.23172       1.4878677     -1.2291892      18533.263    
    351000   0.97530426     0.0023323615  -0.0013835114   20.723953      19.275626      1.4483268     -1.1720952      18535.263    
    352000   1.0171685      0.0023323615   0.00051456848  20.74024       19.229745      1.5104952     -1.2442173      18713.073    
    353000   1.0319307      0.0023323615   6.4640341e-06  20.87867       19.346253      1.5324171     -1.1988303      18753.07     
    354000   1.2257351      0.0023323615  -0.00016895578  20.80578       18.985563      1.8202166     -1.5700091      18418.071    
    355000   1.0637033      0.0023323615   0.00029622686  20.518557      18.938958      1.5795994     -1.5401573      18367.571    
    356000   1.0302174      0.0023323615  -0.00015269493  20.63268       19.102807      1.5298728     -1.5482382      18410.964    
    357000   0.93498816     0.0023323615  -0.00030300156  20.563209      19.174752      1.3884574     -1.3990808      18405.607    
    358000   1.0288958      0.0023323615   0.001199892    20.642018      19.114108      1.5279102     -1.4747595      18552.844    
    359000   1.1398814      0.0023323615   0.0046284646   20.815495      19.122771      1.6927238     -1.4380182      18452.813    
    360000   1.0149003      0.0023323615   0.0024740361   20.469919      18.962792      1.507127      -1.5766633      18347.606    
    361000   0.95903941     0.0023323615   0.0005914672   20.405675      18.981502      1.4241735     -1.4949155      18478.941    
    362000   1.0228488      0.0023323615   0.00076628103  20.42783       18.9089        1.5189305     -1.6398408      18469.001    
    363000   1.1542972      0.0023323615   0.00066153177  20.835566      19.121435      1.7141313     -1.349106       18726.931    
    364000   1.1688336      0.0023323615  -0.0036705792   21.161585      19.425867      1.735718      -1.2178843      18613.891    
    365000   1.1848622      0.0023323615  -3.4810143e-05  20.971882      19.212362      1.7595204     -1.3848285      18554.631    
    366000   0.98180305     0.0023323615   0.00046188901  20.98235       19.524373      1.4579775     -1.1158613      18836.418    
    367000   0.89925471     0.0023323615   0.00063864581  20.672247      19.336854      1.3353932     -1.1640287      18757.429    
    368000   1.0637174      0.0023323615   0.0015856834   20.87319       19.29357       1.5796203     -1.3163832      18632.213    
    369000   1.007753       0.0023323615   0.00031958675  20.726255      19.229741      1.4965131     -1.3631499      18714.656    
    370000   1.0385734      0.0023323615   0.00087927235  20.44708       18.904799      1.5422816     -1.5871088      18536.901    
    371000   1.0055782      0.0023323615  -0.0044423046   20.564519      19.071235      1.4932836     -1.4914053      18528.457    
    372000   0.90734435     0.0023323615  -0.0054045056   20.456251      19.108845      1.3474064     -1.4805644      18530.352    
    373000   0.9620201      0.0023323615  -0.0013792263   20.408735      18.980135      1.4285998     -1.535576       18543.958    
    374000   0.85773633     0.0023323615   0.0035698515   20.538696      19.264957      1.2737384     -1.3029113      18469.78     
    375000   1.0464558      0.0023323615  -0.0012522925   20.981601      19.427614      1.5539868     -1.1588267      18781.179    
    376000   1.0514537      0.0023323615   0.0022667803   20.69188       19.130471      1.5614087     -1.3769705      18609.153    
    377000   1.1367417      0.0023323615  -0.0065756578   20.945605      19.257544      1.6880615     -1.289511       18546.012    
    378000   1.1065002      0.0023323615  -0.0027806307   20.92961       19.286458      1.6431528     -1.300861       18608.089    
    379000   0.9727286      0.0023323615  -0.0013717577   20.532842      19.088341      1.444502      -1.475699       18592.369    
    380000   0.98486652     0.0023323615   0.0010701115   20.413046      18.950519      1.4625268     -1.4269503      18359.104    
    381000   0.95547918     0.0023323615  -0.0028623588   20.479777      19.060891      1.4188866     -1.3746186      18618.487    
    382000   0.92935121     0.0023323615   0.00057509461  20.390387      19.0103        1.3800865     -1.4756187      18472.74     
    383000   0.96622614     0.0023323615   2.6660734e-05  20.564846      19.13          1.4348458     -1.3824637      18493.937    
    384000   0.97507906     0.0023323615  -0.0011495073   20.529474      19.081482      1.4479924     -1.4104822      18713.631    
    385000   1.0818286      0.0023323615  -0.0058908994   20.889484      19.282969      1.6065154     -1.3604476      18604.582    
    386000   1.0132713      0.0023323615  -0.000654357    20.701735      19.197027      1.5047078     -1.2733474      18502.981    
    387000   0.91992865     0.0023323615  -0.00084786949  20.778808      19.412714      1.366094      -1.3220527      18462.654    
    388000   0.9655627      0.0023323615  -0.00082178581  20.504533      19.070672      1.4338606     -1.4181496      18567.536    
    389000   0.89630541     0.0023323615  -0.0011300613   20.503656      19.172642      1.3310135     -1.3773093      18558.418    
    390000   0.98468147     0.0023323615   0.0015211514   20.580386      19.118134      1.462252      -1.3741532      18708.857    
    391000   0.93295318     0.0023323615  -0.0012869797   20.644043      19.258608      1.3854355     -1.2694176      18602.404    
    392000   1.0951506      0.0023323615   0.0024196966   20.957985      19.331687      1.6262986     -1.1469247      18729.876    
    393000   1.0720638      0.0023323615   0.0017394213   20.718066      19.126051      1.5920147     -1.4032282      18722.905    
    394000   0.97466619     0.0023323615  -0.001882383    20.53826       19.090881      1.4473793     -1.445          18608.137    
    395000   1.0606123      0.0023323615   0.00096010177  20.615004      19.039995      1.5750093     -1.4567204      18567.101    
    396000   0.96152713     0.0023323615  -0.00017149331  20.573533      19.145665      1.4278678     -1.3550672      18506.693    
    397000   0.78227615     0.0023323615  -0.0028920635   20.145623      18.983943      1.1616801     -1.4057066      18630.741    
    398000   0.8955043      0.0023323615  -0.00050336781  20.469485      19.139661      1.3298239     -1.4978278      18435.009    
    399000   0.89263466     0.0023323615   0.0050729081   20.369295      19.043733      1.3255625     -1.528644       18399.15     
    400000   0.90355493     0.0023323615  -0.0036488119   20.413849      19.07207       1.3417791     -1.3702411      18560.886    
    401000   0.87395387     0.0023323615  -0.00089181377  20.385391      19.087569      1.2978215     -1.5146417      18428.068    
    402000   1.0085127      0.0023323615   5.4140731e-05  20.467602      18.969961      1.4976414     -1.4418591      18428.12     
    403000   0.95862581     0.0023323615  -0.0024670782   20.513048      19.089489      1.4235593     -1.338646       18476.197    
    404000   1.109592       0.0023323615   0.0021307885   20.867849      19.220105      1.6477442     -1.2792397      18638.754    
    405000   1.0675509      0.0023323615   0.00075230994  20.790896      19.205582      1.585313      -1.2326041      18638.614    
    406000   1.0625124      0.0023323615  -0.0062761843   20.963265      19.385434      1.577831      -1.1695592      18650.289    
    407000   1.0421514      0.0023323615   0.00014475119  21.017115      19.46952       1.5475948     -1.074323       18726.306    
    408000   1.0799427      0.0023323615   0.002214753    20.672576      19.068861      1.6037149     -1.3040285      18751.094    
    409000   0.97859889     0.0023323615   0.0014806074   20.495319      19.0421        1.4532194     -1.4034073      18641.737    
    410000   0.92694348     0.0023323615   0.0044492037   20.59696       19.220449      1.3765111     -1.3983288      18368.25     
    411000   0.94774637     0.0023323615  -0.0027466949   20.64355       19.236147      1.4074034     -1.3151692      18588.855    
    412000   1.1054381      0.0023323615   0.0013633867   20.746804      19.105228      1.6415756     -1.3819623      18559.968    
    413000   1.0028164      0.0023323615  -0.0017295099   20.544933      19.055751      1.4891823     -1.496036       18503.215    
    414000   0.84368266     0.0023323615  -0.0015847619   20.637756      19.384887      1.2528688     -1.1702944      18570.621    
    415000   0.87030118     0.0023323615   0.0010879641   20.572308      19.279911      1.2923973     -1.1973381      18653.663    
    416000   0.98450992     0.0023323615  -0.0019736015   20.535986      19.073989      1.4619972     -1.363805       18522.154    
    417000   0.97431577     0.0023323615  -0.0045634465   20.687136      19.240277      1.4468589     -1.2691832      18364.225    
    418000   1.1480875      0.0023323615   0.00048946958  20.776035      19.071125      1.70491       -1.4447848      18544.719    
    419000   1.0804765      0.0023323615   0.0017338705   20.683096      19.078588      1.6045076     -1.4853061      18637.393    
    420000   0.83772311     0.0023323615  -0.0022055776   20.419408      19.175389      1.2440188     -1.3253954      18547.356    
    421000   1.0378451      0.0023323615   0.0030107416   20.765976      19.224776      1.5411999     -1.2775372      18529.878    
    422000   0.80994023     0.0023323615  -0.0029706213   20.667075      19.464314      1.2027612     -1.1086103      18699.488    
    423000   1.0892517      0.0023323615   0.0037409251   20.782298      19.164759      1.6175388     -1.2900661      18671.113    
    424000   0.96796281     0.0023323615  -0.0033702835   20.754838      19.317413      1.4374248     -1.1535476      18820.655    
    425000   0.984037       0.0023323615  -0.0014648812   20.584151      19.122856      1.4612949     -1.3055388      18682.891    
    426000   1.0178793      0.0023323615   0.0017243342   20.666437      19.154886      1.5115507     -1.2268834      18593.107    
    427000   0.89892392     0.0023323615  -1.413444e-06   20.499699      19.164797      1.334902      -1.3930229      18666.35     
    428000   0.93752338     0.0023323615   0.0010994544   20.531581      19.139359      1.3922222     -1.3047425      18555.272    
    429000   0.96040838     0.0023323615  -0.0014646788   20.865968      19.439762      1.4262064     -1.0881468      18693.608    
    430000   0.98282217     0.0023323615  -0.0040795656   20.921255      19.461764      1.4594909     -1.1106203      18564.894    
    431000   0.94813302     0.0023323615   0.0070632301   20.535181      19.127203      1.4079775     -1.4770383      18418.061    
    432000   0.92752376     0.0023323615   0.0002941165   20.614768      19.237396      1.3773728     -1.3618774      18510.095    
    433000   1.0531444      0.0023323615   0.0028720676   20.757195      19.193275      1.5639194     -1.299424       18706.571    
    434000   1.0074644      0.0023323615   0.0015890464   20.689001      19.192916      1.4960846     -1.2427177      18650.902    
    435000   0.95415428     0.0023323615  -0.0010023159   20.529458      19.112539      1.4169191     -1.4879687      18440.237    
    436000   1.1113633      0.0023323615  -0.00053533795  20.676176      19.025802      1.6503745     -1.3542632      18444.769    
    437000   1.0022302      0.0023323615   0.00090013014  20.585207      19.096895      1.4883118     -1.4697096      18376.437    
    438000   1.0242431      0.0023323615   0.0016471577   20.884651      19.36365       1.521001      -1.2212095      18525.819    
    439000   0.91658925     0.0023323615   0.0021731966   20.458553      19.097418      1.361135      -1.3506645      18570.953    
    440000   1.0918464      0.0023323615   0.001528977    20.830462      19.20907       1.621392      -1.3889918      18557.863    
    441000   0.8877817      0.0023323615  -0.0012597951   20.685486      19.36713       1.3183558     -1.215638       18482.619    
    442000   0.99682245     0.0023323615  -0.00074429867  20.676467      19.196185      1.4802813     -1.2077517      18476.895    
    443000   0.87558768     0.0023323615   0.0027890008   20.583799      19.283551      1.3002477     -1.2385044      18498.925    
    444000   0.95220049     0.0023323615  -0.0010036591   20.65084       19.236822      1.4140177     -1.26597        18728.628    
    445000   0.91490621     0.0023323615   8.1025326e-07  20.48607       19.127434      1.3586357     -1.3993274      18630.404    
    446000   1.0039868      0.0023323615   0.0052706623   20.710809      19.219888      1.4909204     -1.3137741      18540.768    
    447000   0.95075892     0.0023323615  -0.0033747691   20.622282      19.210405      1.411877      -1.2430778      18430.107    
    448000   0.99662674     0.0023323615  -0.00021109128  20.567856      19.087865      1.4799907     -1.3618882      18427.331    
    449000   1.0032585      0.0023323615  -0.0018104352   20.802437      19.312598      1.4898388     -1.2881858      18501.163    
    450000   1.1750219      0.0023323615  -0.0012105792   20.877005      19.132098      1.7449075     -1.3079951      18603.611    
    451000   0.98916485     0.0023323615  -0.0027072667   20.553712      19.084802      1.4689098     -1.3880021      18658.394    
    452000   0.83497897     0.0023323615   0.001188617    20.267381      19.027437      1.2399438     -1.4455975      18391.231    
    453000   0.89891533     0.0023323615  -0.0015509919   20.390611      19.055721      1.3348893     -1.319072       18544.051    
    454000   1.0309717      0.0023323615  -0.00024310181  20.546842      19.015849      1.530993      -1.444335       18483.923    
    455000   0.93708777     0.0023323615  -0.001125376    20.558564      19.166989      1.3915753     -1.3236527      18662.42     
    456000   1.1543205      0.0023323615  -0.00029419138  20.926728      19.212562      1.7141659     -1.3569024      18684.989    
    457000   1.1144672      0.0023323615   0.0015972373   20.638608      18.983624      1.6549839     -1.461612       18578.54     
    458000   0.95352575     0.0023323615   0.0025711138   20.559174      19.143188      1.4159857     -1.4339897      18570.32     
    459000   0.84465029     0.0023323615   0.0032227654   20.458472      19.204166      1.2543057     -1.4090581      18565.685    
    460000   0.82141139     0.0023323615  -0.0052757292   20.378736      19.15894       1.2197959     -1.424051       18505.808    
    461000   1.0103655      0.0023323615  -0.0036712904   20.796234      19.295842      1.5003927     -1.34043        18534.454    
    462000   0.87819178     0.0023323615  -0.00037348041  20.443359      19.139245      1.3041148     -1.2864782      18650.665    
    463000   0.92961854     0.0023323615  -0.0033418945   20.663953      19.28347       1.3804835     -1.3317311      18666.434    
    464000   0.88438519     0.0023323615   0.0012459398   20.693112      19.3798        1.313312      -1.2333408      18737.295    
    465000   0.98234114     0.0023323615   0.0004893899   20.602998      19.144222      1.4587766     -1.379482       18675.41     
    466000   0.89754777     0.0023323615   0.00059367109  20.561873      19.229015      1.3328584     -1.2329232      18642.169    
    467000   1.11396        0.0023323615  -0.00012356836  21.003348      19.349117      1.6542306     -1.1162653      18721.276    
    468000   1.0081915      0.0023323615  -0.00014358906  20.729212      19.232048      1.4971644     -1.2953232      18577.033    
    469000   0.9521625      0.0023323615  -0.0027425151   20.662973      19.249012      1.4139613     -1.3599263      18677.716    
    470000   0.92295443     0.0023323615   0.0029087477   20.437916      19.067329      1.3705873     -1.4816402      18596.543    
    471000   0.7772581      0.0023323615  -0.0027564293   20.268051      19.113823      1.1542283     -1.4786489      18592.123    
    472000   0.99987612     0.0023323615   0.0021535108   20.443659      18.958843      1.484816      -1.6197768      18499.428    
    473000   1.085432       0.0023323615  -0.002830629    20.771004      19.159138      1.6118665     -1.4492122      18529.637    
    474000   0.88150437     0.0023323615   0.0034765952   20.234368      18.925334      1.309034      -1.4208038      18555.02     
    475000   1.0478318      0.0023323615   0.00024666548  20.694268      19.138237      1.5560302     -1.4069667      18501.788    
    476000   0.95732594     0.0023323615  -0.0045993834   20.532343      19.110714      1.421629      -1.3783176      18559.875    
    477000   0.96980416     0.0023323615   0.00204402     20.581121      19.140962      1.4401592     -1.4254756      18530.339    
    478000   1.0154257      0.0023323615  -0.0022661555   20.605749      19.097842      1.5079072     -1.4206963      18663.749    
    479000   1.0532855      0.0023323615  -0.0012051612   20.916183      19.352054      1.5641289     -1.3536549      18728.14     
    480000   0.98024706     0.0023323615   0.0015532017   20.85115       19.395483      1.4556669     -1.1900176      18660.267    
    481000   1.0448093      0.0023323615   2.8877836e-05  20.839171      19.287629      1.5515419     -1.2805429      18605.771    
    482000   0.89482488     0.0023323615   0.00014792478  20.49564       19.166825      1.3288149     -1.3980055      18631.656    
    483000   1.1205179      0.0023323615   0.00058336221  20.780149      19.116179      1.6639691     -1.3531342      18622.09     
    484000   0.99169817     0.0023323615  -0.00075256735  20.773201      19.300529      1.4726718     -1.254003       18609.108    
    485000   0.97132555     0.0023323615  -0.0027416865   20.617056      19.174638      1.4424184     -1.359901       18460.707    
    486000   0.95746451     0.0023323615  -0.00061414713  20.768452      19.346617      1.4218348     -1.2830472      18601.014    
    487000   0.93488767     0.0023323615   0.0018279536   20.401995      19.013687      1.3883082     -1.4780087      18661.579    
    488000   1.0761282      0.0023323615  -0.002457417    20.732841      19.13479       1.5980504     -1.4161723      18559.537    
    489000   0.90842861     0.0023323615  -0.0026281181   20.686848      19.337831      1.3490165     -1.2082174      18561.455    
    490000   1.0188147      0.0023323615  -0.00048405881  20.839906      19.326966      1.5129398     -1.3187778      18556.259    
    491000   1.0448288      0.0023323615  -0.0020934697   20.793757      19.242187      1.5515708     -1.2829883      18604.214    
    492000   1.0807364      0.0023323615  -0.0023938232   20.929442      19.324548      1.6048936     -1.2963718      18695.103    
    493000   0.91023258     0.0023323615   0.0025805563   20.389467      19.037771      1.3516954     -1.4412626      18524.303    
    494000   0.89525548     0.0023323615  -0.00033184633  20.375042      19.045588      1.3294544     -1.4576971      18531.928    
    495000   0.87626473     0.0023323615   0.00075431902  20.603695      19.302442      1.3012531     -1.1817867      18612.797    
    496000   1.0362574      0.0023323615  -0.0010751049   20.682316      19.143474      1.5388422     -1.344411       18570.991    
    497000   1.1699311      0.0023323615  -0.0011578849   21.017835      19.280487      1.7373476     -1.2377305      18551.189    
    498000   0.92327362     0.0023323615  -0.0041404846   20.804194      19.433133      1.3710613     -1.1570102      18641.828    
    499000   1.0034971      0.0023323615  -0.0012344515   20.910975      19.420782      1.4901932     -1.1685665      18852.937    
    500000   1.0575687      0.0023323615   0.002706614    20.713467      19.142977      1.5704894     -1.3492227      18559.668    
    501000   0.97548078     0.0023323615  -0.0021080783   20.703799      19.25521       1.448589      -1.259639       18581.619    
    502000   0.97188777     0.0023323615  -0.0037402706   20.67485       19.231597      1.4432533     -1.37424        18617.209    
    503000   0.97095426     0.0023323615   0.0028815023   20.573678      19.131811      1.4418671     -1.373729       18677.748    
    504000   0.88768559     0.0023323615   0.0011684817   20.43543       19.117217      1.3182131     -1.4777696      18554.151    
    505000   0.97684164     0.0023323615  -2.3777008e-05  20.587918      19.137308      1.4506098     -1.3868844      18553.523    
    506000   0.97487738     0.0023323615   0.000428192    20.471637      19.023944      1.4476929     -1.4635283      18535.807    
    507000   1.1773391      0.0023323615  -0.0033291247   20.964684      19.216335      1.7483486     -1.2606403      18586.241    
    508000   0.9173636      0.0023323615   0.0033467399   20.617971      19.255686      1.3622849     -1.2510756      18660.208    
    509000   1.0326994      0.0023323615   0.00040202203  20.733291      19.199732      1.5335587     -1.2930269      19074.375    
    510000   0.9813758      0.0023323615   0.0018873621   20.425793      18.96845       1.4573431     -1.3935197      18796.671    
    511000   0.94106092     0.0023323615  -0.0011224764   20.62315       19.225675      1.3974755     -1.2322886      18684.419    
    512000   0.92145294     0.0023323615  -0.0028252662   20.46944       19.101082      1.3683576     -1.3709024      18600.002    
    513000   1.1277432      0.0023323615   0.0018744831   20.697066      19.022367      1.6746986     -1.4871798      18369.991    
    514000   1.1110078      0.0023323615  -0.00024552494  20.541505      18.891658      1.6498466     -1.573828       18359.611    
    515000   1.0352076      0.0023323615   0.00091268744  20.788385      19.251101      1.5372834     -1.3084388      18317.672    
    516000   1.0568095      0.0023323615  -0.0042806756   20.905368      19.336006      1.5693621     -1.3016336      18414.204    
    517000   0.97651986     0.0023323615  -0.0028920589   20.572315      19.122183      1.450132      -1.4357218      18481.035    
    518000   0.85394775     0.0023323615   0.0017250268   20.59794       19.329828      1.2681124     -1.2033063      18347.228    
    519000   0.88826618     0.0023323615  -0.0012273909   20.326062      19.006987      1.3190753     -1.3645641      18228.173    
    520000   1.0384399      0.0023323615   0.0036741107   20.524279      18.982195      1.5420832     -1.5186842      18345.094    
    521000   0.86121815     0.0023323615   0.0040447136   20.603672      19.324763      1.2789089     -1.238539       18330.826    
    522000   0.9644531      0.0023323615  -0.00093043426  20.72037       19.288157      1.4322129     -1.2556114      18841.485    
    523000   0.99678825     0.0023323615  -0.0021620211   20.681661      19.20143       1.4802306     -1.326877       18482.297    
    524000   1.12193        0.0023323615   3.9741754e-05  20.613851      18.947785      1.6660661     -1.5272741      18272.321    
    525000   0.95208401     0.0023323615   0.0010236532   20.714235      19.300391      1.4138448     -1.2935827      18280.032    
    526000   1.0446242      0.0023323615  -0.0051473107   21.026368      19.475101      1.5512669     -1.0610767      18464.04     
    527000   1.024964       0.0023323615   0.0033355603   20.999029      19.476957      1.5220716     -1.0169393      18615.484    
    528000   0.9240396      0.0023323615  -5.2417164e-05  20.598127      19.225928      1.3721988     -1.2175165      18695.331    
    529000   0.97999293     0.0023323615   0.00068621814  20.401834      18.946544      1.4552895     -1.4684131      18506.416    
    530000   0.98404965     0.0023323615  -0.0014299855   20.862124      19.40081       1.4613137     -1.3011119      18267.426    
    531000   0.83672462     0.0023323615   0.00051755143  20.399162      19.156626      1.2425361     -1.4455866      18235.563    
    532000   1.189653       0.0023323615  -0.00023562545  20.851673      19.085039      1.7666347     -1.465726       18262.609    
    533000   1.045846       0.0023323615  -0.001212002    20.385832      18.832751      1.5530813     -1.6029684      18274.037    
    534000   0.93175413     0.0023323615   0.0018962498   20.226304      18.842649      1.3836549     -1.6584879      18240.955    
    535000   1.0158898      0.0023323615  -0.00080528294  20.810019      19.301422      1.5085964     -1.3861998      18310.256    
    536000   0.85412382     0.0023323615   0.00029551989  20.048642      18.780268      1.2683739     -1.7078314      18330.822    
    537000   0.95787301     0.0023323615   0.0025420762   20.485747      19.063306      1.4224414     -1.5331935      18277.223    
    538000   0.99640008     0.0023323615  -0.00077066713  20.550261      19.070607      1.4796541     -1.3845703      18275.158    
    539000   0.99353448     0.0023323615  -0.0013669854   20.56983       19.094431      1.4753987     -1.5005635      18358.256    
    540000   1.021114       0.0023323615   0.00191891     20.474173      18.957819      1.5163543     -1.5036383      18273.278    
    541000   1.0811054      0.0023323615   0.0034839328   20.862739      19.257298      1.6054415     -1.235248       18377.388    
    542000   0.88398154     0.0023323615   0.0012845066   20.356377      19.043664      1.3127126     -1.4870733      18398.282    
    543000   1.1400172      0.0023323615   0.0015028896   20.73629       19.043365      1.6929256     -1.3507877      18327.978    
    544000   1.0420371      0.0023323615   0.0017276399   20.913189      19.365763      1.547425      -1.3061163      18320.352    
    545000   1.0856545      0.0023323615   0.0032669181   20.901111      19.288914      1.6121969     -1.2285219      18363.742    
    546000   1.0058415      0.0023323615   0.002217283    20.824999      19.331325      1.4936746     -1.2073347      18425.637    
    547000   0.97783662     0.0023323615   0.00088401971  20.711451      19.259364      1.4520874     -1.3537827      18458.532    
    548000   0.88806737     0.0023323615   0.0015991502   20.445242      19.126462      1.31878       -1.4214737      18460.133    
    549000   1.0221004      0.0023323615  -0.0012276361   20.743032      19.225213      1.5178191     -1.366554       18480.573    
    550000   1.0367701      0.0023323615   0.003723525    20.670087      19.130483      1.5396035     -1.3165749      18580.397    
    551000   0.99308857     0.0023323615   0.00044216314  20.728048      19.253311      1.4747365     -1.3600539      18393.386    
    552000   0.98896449     0.0023323615  -0.0017328217   20.706497      19.237884      1.4686123     -1.2652416      18545.832    
    553000   0.92205522     0.0023323615  -0.0027079216   20.514387      19.145135      1.369252      -1.375402       18521.907    
    554000   0.903493       0.0023323615  -0.0017901984   20.604622      19.262935      1.3416871     -1.208013       18470.682    
    555000   0.96367301     0.0023323615   0.0018413695   20.578043      19.146989      1.4310544     -1.328287       18503.764    
    556000   0.88506991     0.0023323615   0.0013087468   20.616945      19.302616      1.3143288     -1.2523786      18623.392    
    557000   0.91635558     0.0023323615   0.00060230367  20.429233      19.068445      1.360788      -1.4307125      18612.717    
    558000   1.1302716      0.0023323615  -0.0034877506   21.08048       19.402027      1.6784533     -1.3565295      18367.878    
    559000   0.97064878     0.0023323615   0.0018016097   20.416329      18.974916      1.4414134     -1.5692417      18374.702    
    560000   0.92346541     0.0023323615   0.00038058366  20.591088      19.219742      1.3713461     -1.300815       18233.078    
    561000   0.93590099     0.0023323615  -0.0049375599   20.637077      19.247264      1.389813      -1.201087       18373.704    
    562000   0.89283594     0.0023323615  -0.0014104972   20.349234      19.023373      1.3258614     -1.3238299      18611.221    
    563000   0.95161708     0.0023323615  -0.0024415276   20.839035      19.425884      1.4131514     -1.0898851      18451.193    
    564000   1.1018731      0.0023323615   0.00017473511  20.767226      19.130945      1.6362816     -1.291712       18488.587    
    565000   1.1437971      0.0023323615   0.00036141384  20.829872      19.131333      1.6985388     -1.4251296      18297.246    
    566000   1.0129864      0.0023323615  -0.00072822273  20.367853      18.863568      1.5042848     -1.6593723      18288.522    
    567000   0.94371029     0.0023323615   0.0048378939   20.611834      19.210424      1.4014098     -1.3757074      18489.093    
    568000   1.0077535      0.0023323615   0.0020984981   20.521656      19.025142      1.4965139     -1.4364618      18317.574    
    569000   1.0268471      0.0023323615  -0.0029047636   20.931436      19.406568      1.524868      -1.292042       18472.645    
    570000   0.94615011     0.0023323615   0.00072536654  20.531643      19.12661       1.4050329     -1.3378356      18456.726    
    571000   1.0088212      0.0023323615   0.0039398202   20.863927      19.365828      1.4980995     -1.1817295      18547.99     
    572000   0.9926574      0.0023323615   0.0024797877   20.894893      19.420797      1.4740962     -1.1396718      18676.004    
    573000   1.0973676      0.0023323615   0.0053943441   20.732143      19.102553      1.6295909     -1.4670134      18463.746    
    574000   0.99475543     0.0023323615  -0.0018794884   20.646306      19.169094      1.4772118     -1.3175724      18389.272    
    575000   1.0602975      0.0023323615  -0.0029287693   20.60056       19.026019      1.5745417     -1.498877       18256.924    
    576000   0.94599698     0.0023323615  -0.0019271949   20.503116      19.09831       1.4048055     -1.3486769      18229.036    
    577000   1.0073125      0.0023323615  -0.00042510518  20.548754      19.052895      1.4958591     -1.4078766      18336.052    
    578000   1.1830783      0.0023323615   0.0010144975   20.840913      19.084042      1.7568713     -1.5136067      18338.548    
    579000   0.96178531     0.0023323615  -0.00076050993  20.273307      18.845056      1.4282512     -1.6129823      18335.133    
    580000   0.9731566      0.0023323615   0.0019210734   20.522711      19.077574      1.4451376     -1.3424747      18342.592    
    581000   1.11406        0.0023323615  -0.0033113179   20.654884      19.000505      1.6543791     -1.5069083      18161.636    
    582000   1.1105212      0.0023323615  -0.0018607441   20.76533       19.116206      1.6491239     -1.4367444      18273.181    
    583000   0.92974913     0.0023323615  -0.00084339824  20.448221      19.067544      1.3806775     -1.4718785      18358.358    
    584000   0.95738901     0.0023323615  -0.0014849508   20.441935      19.020213      1.4217227     -1.5508288      18348.689    
    585000   1.0583524      0.0023323615   0.0064820329   20.800624      19.22897       1.5716533     -1.368605       18337.767    
    586000   0.94266082     0.0023323615   0.0017924161   20.254461      18.85461       1.3998513     -1.615653       18212.976    
    587000   1.0295481      0.0023323615  -0.0038687816   20.945123      19.416244      1.5288789     -1.1849781      18341.514    
    588000   1.001247       0.0023323615   0.0041642946   20.620446      19.133594      1.4868518     -1.4054336      18391.837    
    589000   0.91587        0.0023323615  -0.00059417423  20.361719      19.001652      1.3600669     -1.4856495      18529.479    
    590000   0.97256938     0.0023323615   0.0025067032   20.481583      19.037318      1.4442655     -1.3408537      18727.585    
    591000   1.1246771      0.0023323615   0.0020450734   20.919641      19.249496      1.6701455     -1.285986       18411.341    
    592000   1.0692248      0.0023323615   0.0018081815   20.654877      19.067079      1.5877988     -1.3872676      18398.981    
    593000   0.99109521     0.0023323615   0.00090102987  20.683234      19.211458      1.4717764     -1.3238072      18375.321    
    594000   0.92517281     0.0023323615   0.0011788825   20.592683      19.218801      1.3738816     -1.3176147      18513.937    
    595000   1.0974426      0.0023323615   0.0020131981   20.846452      19.21675       1.6297022     -1.402616       18312.957    
    596000   1.029025       0.0023323615   0.0064709178   20.558353      19.030251      1.5281021     -1.5560609      18324.004    
    597000   0.95762694     0.0023323615   0.0018196355   20.545863      19.123787      1.422076      -1.4086763      18345.714    
    598000   1.0045775      0.0023323615   0.0022535162   20.39498       18.903182      1.4917976     -1.5540149      18482.331    
    599000   0.90220883     0.0023323615   0.00018628027  20.420416      19.080636      1.3397801     -1.552182       18582.556    
    600000   0.95919542     0.0023323615  -0.00085204331  20.652426      19.228021      1.4244052     -1.2615478      18502.33     
    601000   0.91448859     0.0023323615  -0.00064639266  20.51249       19.154475      1.3580156     -1.4150547      18414.33     
    602000   0.93612821     0.0023323615  -0.0010339488   20.567145      19.176995      1.3901504     -1.2914896      18365.887    
    603000   0.97134023     0.0023323615   0.003678521    20.635938      19.193498      1.4424402     -1.3706827      18431.914    
    604000   0.94799145     0.0023323615  -0.0052732926   20.664115      19.256347      1.4077673     -1.3321015      18349.981    
    605000   0.97316304     0.0023323615   0.00025747877  20.587436      19.142289      1.4451471     -1.4584074      18371.621    
    606000   0.85585643     0.0023323615   0.0021747923   20.191974      18.921027      1.2709468     -1.5295488      18096.101    
    607000   1.1321347      0.0023323615  -0.006652205    20.75003       19.06881       1.6812201     -1.3903345      18168.473    
    608000   1.0790818      0.0023323615   0.0020538965   20.644142      19.041705      1.6024364     -1.3760029      18349.357    
    609000   0.98609925     0.0023323615   0.0008220328   20.495265      19.030907      1.4643574     -1.4017314      18318.163    
    610000   0.98686219     0.0023323615   0.0032735703   20.883389      19.417899      1.4654903     -1.1798462      18396.796    
    611000   1.0397349      0.0023323615   0.0019743587   20.880513      19.336507      1.5440063     -1.1995295      18452.462    
    612000   1.0222595      0.0023323615  -0.0039526612   20.442765      18.924709      1.5180554     -1.5401383      18411.694    
    613000   1.0039739      0.0023323615   0.00018017839  20.902774      19.411873      1.4909012     -1.1638116      18465.263    
    614000   1.070183       0.0023323615  -0.00022312706  20.908494      19.319272      1.5892217     -1.1725709      18412.876    
    615000   1.0705671      0.0023323615   0.0013735252   20.809585      19.219793      1.5897921     -1.2410943      18487.676    
    616000   0.87268636     0.0023323615   0.0024680267   20.481636      19.185696      1.2959392     -1.2403651      18475.999    
    617000   0.9909049      0.0023323615  -0.0014075676   20.739676      19.268182      1.4714938     -1.2636904      18508.001    
    618000   0.99716172     0.0023323615   0.0027151877   20.640378      19.159593      1.4807852     -1.3487808      18441.163    
    619000   1.0849415      0.0023323615  -0.0022876352   20.623748      19.012609      1.6111381     -1.4336839      18320.399    
    620000   0.84901062     0.0023323615   0.0036749529   20.326929      19.066148      1.2607808     -1.4562667      18321.088    
    621000   1.0495817      0.0023323615   0.0025540747   20.653009      19.09438       1.5586289     -1.3831378      18253.458    
    622000   0.99038986     0.0023323615  -0.0052062123   20.505234      19.034505      1.4707289     -1.4688463      18280.246    
    623000   0.95106045     0.0023323615   0.0050484141   20.681096      19.268771      1.4123248     -1.2225446      18414.16     
    624000   1.0013257      0.0023323615  -0.0029923141   20.680396      19.193427      1.4869687     -1.2850958      18567.419    
    625000   0.97536367     0.0023323615   0.0024838712   20.859551      19.411136      1.448415      -1.1475036      18612.103    
    626000   0.9897903      0.0023323615  -0.0022708608   20.528497      19.058659      1.4698386     -1.4261028      18568.196    
    627000   0.98352473     0.0023323615   0.0034202617   20.586628      19.126093      1.4605342     -1.3869725      18388.134    
    628000   0.99996349     0.0023323615   0.00053507439  20.477983      18.993037      1.4849458     -1.4147935      18277.812    
    629000   1.0408721      0.0023323615   0.0022782064   20.658249      19.112554      1.5456951     -1.2673953      18419.686    
    630000   0.96009833     0.0023323615  -0.00015175071  20.408868      18.983122      1.425746      -1.4656621      18291.673    
    631000   0.94357989     0.0023323615  -0.00221455     20.650844      19.249628      1.4012161     -1.2972898      18221.066    
    632000   1.0617397      0.0023323615   0.0038370025   20.586286      19.009602      1.5766834     -1.509538       18191.851    
    633000   1.0433539      0.0023323615  -0.0020371991   20.815711      19.26633       1.5493805     -1.4220683      18383.687    
    634000   0.98875146     0.0023323615  -0.00077180306  20.666735      19.19844       1.4682959     -1.29711        18278.12     
    635000   0.92481741     0.0023323615   0.00034921915  20.30202       18.928666      1.3733539     -1.4393145      18494.191    
    636000   1.0255938      0.0023323615   0.00093826394  20.796389      19.273382      1.5230068     -1.350939       18266.115    
    637000   1.0355164      0.0023323615  -0.0040478024   20.778413      19.240671      1.5377419     -1.2536454      18412.475    
    638000   1.0944397      0.0023323615  -0.0010379587   20.936598      19.311355      1.625243      -1.1947543      16685.98     
    639000   1.1019407      0.0023323615  -0.00029848376  20.949454      19.313072      1.6363819     -1.295195       18410.784    
    640000   1.0617387      0.0023323615  -0.0013864359   20.952498      19.375817      1.5766819     -1.1660311      18667.617    
    641000   1.0843541      0.0023323615  -0.00049436107  20.892293      19.282027      1.6102658     -1.1886962      18512.093    
    642000   0.84583807     0.0023323615   0.00079071905  20.563435      19.307366      1.2560695     -1.2666946      18433.16     
    643000   0.98331207     0.0023323615  -0.0018561888   20.78525       19.325031      1.4602184     -1.2136209      18423.347    
    644000   1.0620737      0.0023323615   0.00017618879  20.695188      19.118008      1.5771795     -1.3601156      18473.896    
    645000   0.98351449     0.0023323615  -0.0030641494   20.80917       19.348651      1.460519      -1.101643       18361.06     
    646000   1.0921864      0.0023323615  -0.001800055    21.035132      19.413235      1.6218968     -1.2035323      18536.22     
    647000   1.0312912      0.0023323615   0.0029359174   20.727773      19.196306      1.5314675     -1.3170303      18272.462    
    648000   0.95040462     0.0023323615   0.0013959023   20.623546      19.212195      1.4113509     -1.279495       18399.031    
    649000   1.0338085      0.0023323615  -0.00087306337  20.701525      19.16632       1.5352057     -1.331736       18554.179    
    650000   0.82239778     0.0023323615  -0.0019845946   20.426928      19.205667      1.2212607     -1.2934022      18597.908    
    651000   0.88575492     0.0023323615   0.0019692238   20.684775      19.369429      1.3153461     -1.2380286      18310.192    
    652000   0.94928694     0.0023323615  -0.0059898359   20.930268      19.520577      1.4096911     -1.0083882      18503.208    
    653000   0.97003126     0.0023323615   0.00045210088  20.659813      19.219317      1.4404964     -1.213159       18619.831    
    654000   1.2246076      0.0023323615  -0.00068768064  21.276168      19.457626      1.8185423     -1.1477493      18615.199    
    655000   1.0907461      0.0023323615  -0.0031507154   20.905458      19.2857        1.619758      -1.2515299      18907.263    
    656000   0.97199713     0.0023323615  -0.0028873158   20.568169      19.124753      1.4434157     -1.342196       18594.627    
    657000   1.0638378      0.0023323615   0.0015269209   20.933189      19.35339       1.5797991     -1.1209476      18512.24     
    658000   1.06803        0.0023323615  -1.4811114e-05  20.84047       19.254445      1.5860246     -1.2301522      18608.539    
    659000   1.0179174      0.0023323615  -0.0032892438   20.60736       19.095753      1.5116073     -1.4759149      18370.701    
    660000   0.88116918     0.0023323615  -0.0014850129   20.441366      19.13283       1.3085362     -1.4687262      18342.643    
    661000   0.90230185     0.0023323615  -0.002906809    20.345139      19.005221      1.3399182     -1.4948369      18360.033    
    662000   1.0084263      0.0023323615   0.0019273252   20.562324      19.06481       1.497513      -1.5116616      18203.427    
    663000   1.0544217      0.0023323615  -0.00332521     20.64619       19.080374      1.5658163     -1.409366       18303.937    
    664000   0.9218052      0.0023323615  -0.0041348216   20.467966      19.099085      1.3688807     -1.4922452      18383.491    
    665000   0.9695347      0.0023323615  -0.0031277599   20.479048      19.039289      1.439759      -1.4120802      18271.422    
    666000   1.062452       0.0023323615  -0.00050851193  20.755689      19.177948      1.5777412     -1.3312553      18228.716    
    667000   1.0050677      0.0023323615   0.0011407526   20.750841      19.258315      1.4925255     -1.3200471      18248.285    
    668000   1.0739721      0.0023323615  -0.0011748916   20.707601      19.112752      1.5948486     -1.4386584      18264.196    
    669000   1.0887348      0.0023323615  -0.0025780145   21.076158      19.459387      1.6167712     -1.1289534      18346.699    
    670000   1.0539787      0.0023323615   0.0033693347   20.664423      19.099264      1.5651584     -1.4619471      18502.659    
    671000   1.0236464      0.0023323615  -0.0017281161   20.760733      19.240618      1.5201148     -1.3279126      18270.709    
    672000   1.0480272      0.0023323615   0.0025175604   20.764539      19.208219      1.5563204     -1.2753929      18353.112    
    673000   1.0341109      0.0023323615  -0.00071098837  20.751833      19.216179      1.5356546     -1.2020476      18334.287    
    674000   1.0593681      0.0023323615   0.00087536504  20.9342        19.361038      1.5731617     -1.2315878      18496.799    
    675000   0.99025955     0.0023323615  -0.0066620326   20.703077      19.232541      1.4705354     -1.3708112      18662.375    
    676000   1.0881732      0.0023323615  -0.0020449756   20.779153      19.163216      1.6159373     -1.3215252      18461.089    
    677000   0.95912313     0.0023323615   0.0014350922   20.56517       19.140872      1.4242979     -1.3192459      18385.529    
    678000   1.0484191      0.0023323615  -0.00476256     20.74047       19.183568      1.5569023     -1.3979009      18392.4      
    679000   0.96456938     0.0023323615   0.00075203377  20.449977      19.017591      1.4323855     -1.4285101      18401.915    
    680000   1.0499297      0.0023323615  -0.0048835648   20.714033      19.154888      1.5591457     -1.4097424      18373.335    
    681000   0.9556938      0.0023323615  -0.00037114374  20.441408      19.022203      1.4192053     -1.5214104      18292.89     
    682000   1.1222708      0.0023323615   0.00082930062  20.831026      19.164454      1.6665722     -1.3282866      18441.766    
    683000   1.0848502      0.0023323615  -0.00093429341  20.617535      19.006533      1.6110025     -1.4993591      18128.56     
    684000   0.95219417     0.0023323615   0.0017894685   20.510746      19.096738      1.4140083     -1.3697604      18301.832    
    685000   0.9382273      0.0023323615  -0.00026144546  20.349849      18.956581      1.3932675     -1.469224       18338.303    
    686000   1.1110135      0.0023323615  -0.0045628225   20.800498      19.150643      1.6498551     -1.4431062      18386.559    
    687000   1.072273       0.0023323615   0.00092139066  20.745359      19.153034      1.5923254     -1.2695587      18374.992    
    688000   0.88983186     0.0023323615   0.0019584558   20.537915      19.216515      1.3214003     -1.3417464      18515.719    
    689000   0.98295399     0.0023323615   0.0014851182   20.348531      18.888845      1.4596867     -1.4687925      18449.245    
    690000   1.0927331      0.0023323615   0.00068498819  20.680338      19.057629      1.6227086     -1.4650393      18335.146    
    691000   1.1787418      0.0023323615  -0.0028016578   20.828971      19.078539      1.7504316     -1.4303766      18312.114    
    692000   1.0986868      0.0023323615  -0.0016220917   20.636539      19.004989      1.6315499     -1.4771225      18215.559    
    693000   0.9685857      0.0023323615   0.00030052899  20.763122      19.324773      1.4383498     -1.2643806      18280.621    
    694000   1.0198735      0.0023323615  -0.0041367245   20.998225      19.483712      1.5145121     -1.1854935      18487.795    
    695000   0.92517822     0.0023323615   0.0061498612   20.441252      19.067362      1.3738897     -1.4480598      18581.992    
    696000   1.0177909      0.0023323615  -0.000271517    20.546835      19.035415      1.5114195     -1.4360686      18474.067    
    697000   0.85324296     0.0023323615  -0.0043877022   20.475616      19.20855       1.2670658     -1.4133398      18230.67     
    698000   0.85338992     0.0023323615   4.8647715e-05  20.245168      18.977884      1.267284      -1.5629363      18163.808    
    699000   1.1021161      0.0023323615   0.00063933733  20.724897      19.088255      1.6366424     -1.4589359      18262.088    
    700000   1.0242614      0.0023323615  -0.00018649207  20.837521      19.316493      1.5210281     -1.2109559      18469.756    
    701000   1.0359417      0.0023323615   0.002697533    20.986595      19.448222      1.5383735     -1.0847973      18885.145    
    702000   1.1475206      0.0023323615  -0.00031959243  20.785897      19.081829      1.704068      -1.3855967      18482.12     
    703000   0.8838702      0.0023323615   0.0013012329   20.478524      19.165977      1.3125472     -1.478283       18424.34     
    704000   1.0184916      0.0023323615   0.002210672    20.51368       19.00122       1.51246       -1.4963309      18371.448    
    705000   1.0601908      0.0023323615   0.00089648775  20.650036      19.075653      1.5743834     -1.3593319      18389.808    
    706000   1.0241048      0.0023323615  -0.0014606612   20.705003      19.184208      1.5207957     -1.3387953      18522.543    
    707000   0.95029038     0.0023323615  -0.0063984266   20.639416      19.228235      1.4111812     -1.3113753      18388.022    
    708000   0.96484241     0.0023323615   0.0042497577   20.63811       19.205319      1.432791      -1.2358061      18411.867    
    709000   0.90416457     0.0023323615   0.0011448932   20.70775       19.365065      1.3426844     -1.1053186      18435.516    
    710000   0.93889751     0.0023323615   0.0012839929   20.472438      19.078175      1.3942628     -1.3852043      18428.637    
    711000   1.0071331      0.0023323615   0.0047283892   20.524857      19.029264      1.4955926     -1.5094976      18322.645    
    712000   0.95591886     0.0023323615   0.0054182307   20.856635      19.437096      1.4195395     -1.1876185      18328.762    
    713000   1.0627336      0.0023323615   0.0013286685   20.728202      19.150043      1.5781594     -1.3267559      18483.174    
    714000   1.0012624      0.0023323615   0.0029068277   20.800899      19.314025      1.4868747     -1.1704925      18513.885    
    715000   0.99049231     0.0023323615  -0.0016280768   20.71097       19.240089      1.4708811     -1.3678407      18517.134    
    716000   1.037973       0.0023323615  -0.002693127    20.821944      19.280555      1.5413899     -1.2782094      18602.82     
    717000   1.0887558      0.0023323615   0.0009586269   20.512292      18.895489      1.6168024     -1.5808495      18362.745    
    718000   1.0637519      0.0023323615  -0.001130595    20.650183      19.070511      1.5796715     -1.4010859      18235.55     
    719000   1.055741       0.0023323615  -0.0050968062   20.715285      19.14751       1.5677754     -1.4666759      18352.535    
    720000   0.97257577     0.0023323615   0.0039165194   20.468755      19.02448       1.444275      -1.5130036      18249.683    
    721000   0.91127452     0.0023323615   0.00010934829  20.416275      19.063032      1.3532427     -1.4112646      18262.826    
    722000   1.0407825      0.0023323615   0.0059572365   20.82142       19.275858      1.545562      -1.2352653      18530.211    
    723000   0.91375672     0.0023323615   0.00015797045  20.73173       19.374802      1.3569287     -1.1952024      18663.355    
    724000   1.0489539      0.0023323615   0.00053674229  20.782237      19.22454       1.5576966     -1.2473539      18489.433    
    725000   0.99899172     0.0023323615  -0.00071242778  20.618086      19.134584      1.4835027     -1.3901098      18648.675    
    726000   0.93882459     0.0023323615  -0.00032646641  20.610163      19.216008      1.3941545     -1.2393489      19501.104    
    727000   1.0516832      0.0023323615   0.0010889222   20.600254      19.038505      1.5617496     -1.4628279      19216.745    
    728000   0.85341848     0.0023323615  -0.0033163562   20.439332      19.172006      1.2673264     -1.3982674      18465.717    
    729000   1.0292262      0.0023323615   0.00015217811  20.934383      19.405983      1.5284009     -1.0255256      18383.575    
    730000   0.96199747     0.0023323615  -0.0025197599   20.891595      19.463028      1.4285662     -1.0987061      18511.08     
    731000   1.1144447      0.0023323615   0.0016323923   20.806841      19.15189       1.6549504     -1.3655669      18377.415    
    732000   0.95926318     0.0023323615   0.0018874214   20.738033      19.313527      1.4245058     -1.2289465      18361.57     
    733000   1.011324       0.0023323615  -0.0014066211   20.866592      19.364776      1.5018162     -1.1568425      18758.794    
    734000   1.0513699      0.0023323615  -0.0012379163   20.955352      19.394067      1.5612843     -1.1780891      18966.526    
    735000   1.0955138      0.0023323615   0.002426586    20.946385      19.319547      1.626838      -1.1980447      18760.267    
    736000   0.88736544     0.0023323615  -0.00021465166  20.61332       19.295582      1.3177377     -1.2652945      18338.717    
    737000   1.0424331      0.0023323615  -0.0011061681   20.496555      18.948542      1.5480131     -1.4857593      18305.41     
    738000   0.97700578     0.0023323615  -0.0025066809   20.673688      19.222835      1.4508536     -1.3642872      18280.715    
    739000   0.95362996     0.0023323615   0.0011405437   20.59256       19.17642       1.4161405     -1.3243027      18419.642    
    740000   1.0879023      0.0023323615   0.00030176946  20.902312      19.286777      1.6155349     -1.246076       18538.943    
    741000   0.99911578     0.0023323615  -0.0032571432   20.569589      19.085902      1.4836869     -1.3600741      18363.755    
    742000   1.1367784      0.0023323615   0.00084271127  20.750274      19.062158      1.6881159     -1.4126067      18384.977    
    743000   1.1303605      0.0023323615  -0.0013209613   20.895711      19.217125      1.6785854     -1.2831379      18341.356    
    744000   1.0483525      0.0023323615  -0.001666116    20.813134      19.25633       1.5568035     -1.3046081      18409.215    
    745000   1.0757751      0.0023323615  -0.0018185782   20.541173      18.943647      1.597526      -1.5585931      18316.408    
    746000   1.0059422      0.0023323615  -0.0013221968   20.777644      19.28382       1.4938242     -1.3280248      18340.759    
    747000   1.0618175      0.0023323615   0.0041563663   20.742663      19.165864      1.576799      -1.3226627      18305.44     
    748000   1.036372       0.0023323615  -0.00061987103  20.594513      19.0555        1.5390124     -1.3243778      18278.532    
    749000   0.9802994      0.0023323615  -3.3627609e-05  20.470945      19.015201      1.4557446     -1.4862004      18360.343    
    750000   1.0450294      0.0023323615   0.00060005791  20.834513      19.282645      1.5518686     -1.3009725      18310.891    
    751000   1.0056395      0.0023323615  -0.0012919751   20.513241      19.019866      1.4933746     -1.5030032      18387.114    
    752000   1.004472       0.0023323615  -0.0015814607   20.51624       19.024599      1.491641      -1.4060357      18219.123    
    753000   0.98155164     0.0023323615  -2.3851113e-05  20.631818      19.174214      1.4576042     -1.3219166      18289.92     
    754000   1.045367       0.0023323615   0.0001900334   20.489474      18.937104      1.55237       -1.5185632      18162.964    
    755000   0.95109028     0.0023323615  -0.00055776175  20.642295      19.229926      1.4123691     -1.3285548      18431.724    
    756000   0.89297491     0.0023323615  -0.0020246381   20.683423      19.357355      1.3260677     -1.1874804      18583.563    
    757000   1.0698376      0.0023323615  -0.00048689762  20.667736      19.079027      1.5887089     -1.4485692      18545.85     
    758000   1.0322852      0.0023323615  -0.00029171941  20.735453      19.202509      1.5329436     -1.3618026      18674.18     
    759000   1.0073023      0.0023323615  -0.00072985426  20.530662      19.034818      1.4958439     -1.4725797      18619.328    
    760000   0.98144393     0.0023323615  -0.0018745101   20.909717      19.452273      1.4574442     -1.1306702      18708.92     
    761000   1.1645853      0.0023323615   0.0033507441   20.940447      19.211038      1.7294091     -1.4296672      18689.695    
    762000   1.0028369      0.0023323615  -0.0016956725   20.593357      19.104144      1.4892128     -1.4016392      18492.66     
    763000   1.0715898      0.0023323615  -0.0035185888   20.718359      19.127049      1.5913108     -1.3713329      18440.366    
    764000   1.1410024      0.0023323615  -0.00036175699  20.931037      19.236649      1.6943886     -1.3341202      18578.855    
    765000   1.0303034      0.0023323615   0.0040286562   20.684197      19.154197      1.5300006     -1.4052143      18586.674    
    766000   0.93702839     0.0023323615   0.00031043956  20.534341      19.142854      1.3914872     -1.3680067      18739.68     
    767000   0.9735626      0.0023323615  -0.0064624629   20.966845      19.521105      1.4457405     -1.1594173      18695.261    
    768000   1.0409122      0.0023323615   0.0018729358   20.546138      19.000383      1.5457546     -1.3561219      18635.319    
    769000   1.0510113      0.0023323615  -0.00089800987  20.59888       19.038128      1.5607518     -1.4105395      18574.257    
    770000   1.0433891      0.0023323615   0.00072127099  20.648951      19.099518      1.5494328     -1.3664362      18673.485    
    771000   0.94365988     0.0023323615   0.00029114782  20.692699      19.291364      1.4013349     -1.2085199      18949.455    
    772000   0.98730152     0.0023323615   6.3256474e-05  20.927339      19.461196      1.4661428     -1.2453017      18743.685    
    773000   1.101034       0.0023323615   0.004293646    20.945849      19.310814      1.6350355     -1.2151103      18818.891    
    774000   1.1468548      0.0023323615   0.00094242456  20.899821      19.196741      1.7030794     -1.3229517      18860.76     
    775000   1.143962       0.0023323615   1.5696608e-05  20.809269      19.110486      1.6987835     -1.4017276      18671.892    
    776000   0.93861161     0.0023323615  -0.0011380676   20.445417      19.051579      1.3938382     -1.4941198      18588.09     
    777000   1.0303985      0.0023323615   0.0014799372   20.781442      19.2513        1.5301417     -1.3303178      18747.17     
    778000   0.99184376     0.0023323615   0.001588884    20.526996      19.054108      1.472888      -1.4218067      18577.593    
    779000   0.95622322     0.0023323615   0.00090319972  20.516617      19.096625      1.4199915     -1.5013053      18469.496    
    780000   0.91677044     0.0023323615   0.0023383593   20.700313      19.338909      1.3614041     -1.1897068      18557.905    
    781000   1.0093278      0.0023323615  -0.0012096197   20.918515      19.419663      1.4988518     -1.1345772      18628.756    
    782000   0.94235987     0.0023323615  -0.0019339903   20.625263      19.225859      1.3994044     -1.3820019      18592.016    
    783000   0.94137543     0.0023323615  -0.00029913069  20.476307      19.078364      1.3979425     -1.4793452      18556.607    
    784000   0.97778103     0.0023323615  -0.00056945656  20.580849      19.128844      1.4520048     -1.4630994      18595.303    
    785000   1.0260131      0.0023323615   1.7986008e-05  20.641791      19.118161      1.5236294     -1.4616558      18319.316    
    786000   1.1210715      0.0023323615  -0.0037971087   20.731034      19.066243      1.6647912     -1.4390271      18373.481    
    787000   1.107452       0.0023323615   0.0014947986   20.582527      18.937961      1.6445663     -1.4635706      18519.213    
    788000   0.96328064     0.0023323615   0.00028855951  20.371295      18.940823      1.4304717     -1.5690361      18467.791    
    789000   1.0303124      0.0023323615   0.0025852519   20.83228       19.302267      1.5300139     -1.1599266      18484.67     
    790000   0.95874925     0.0023323615   0.00030631538  20.537979      19.114236      1.4237426     -1.2973046      18509.37     
    791000   1.0637461      0.0023323615  -0.00091444407  20.698244      19.118581      1.579663      -1.3368981      18567.146    
    792000   0.92445747     0.0023323615  -0.00035181974  20.695405      19.322586      1.3728193     -1.1831043      18552.965    
    793000   1.0709743      0.0023323615  -0.0027064539   20.702027      19.11163       1.5903968     -1.3048456      18409.426    
    794000   0.84555669     0.0023323615   0.0018953165   20.440938      19.185287      1.2556517     -1.1636731      18588.619    
    795000   0.97220223     0.0023323615  -0.0024469743   20.876441      19.43272       1.4437203     -1.1349377      18541.274    
    796000   1.0435162      0.0023323615   0.00052111418  20.944067      19.394445      1.5496216     -1.170937       18667.911    
    797000   1.0764382      0.0023323615   0.002437909    20.67534       19.076829      1.5985107     -1.4218378      18618.026    
    798000   1.0406061      0.0023323615   0.00092521748  20.769058      19.223758      1.5453        -1.3533598      18584.604    
    799000   1.0472123      0.0023323615  -0.0025608265   20.768226      19.213116      1.5551103     -1.3533469      18636.415    
    800000   0.9937482      0.0023323615   0.0027661666   20.754419      19.278703      1.4757161     -1.1949046      18638.037    
    801000   1.0125257      0.0023323615   0.0026109732   20.471611      18.968011      1.5036007     -1.5475188      18653.847    
    802000   0.98393539     0.0023323615   0.0019584907   20.363321      18.902177      1.4611441     -1.5879184      18535.676    
    803000   0.85305364     0.0023323615  -1.3966002e-05  20.263459      18.996674      1.2667847     -1.5170851      18578.73     
    804000   0.93382619     0.0023323615   0.0028564418   20.392616      19.005884      1.3867319     -1.5508586      18593.01     
    805000   0.89332102     0.0023323615   4.7973435e-06  20.362068      19.035486      1.3265817     -1.4820562      18570.846    
    806000   0.89789452     0.0023323615  -0.0019645888   20.432198      19.098824      1.3333734     -1.3255248      18600.248    
    807000   0.84812868     0.0023323615   4.2873548e-05  20.325342      19.065871      1.2594711     -1.3955951      18622.76     
    808000   1.0224435      0.0023323615  -0.00066025956  20.60189       19.083561      1.5183285     -1.356067       18709.583    
    809000   0.99536448     0.0023323615  -0.0021494446   20.492428      19.014312      1.4781163     -1.4803593      18650.107    
    810000   0.94704855     0.0023323615   0.0056569671   20.555356      19.148988      1.4063671     -1.4615323      18647.933    
    811000   0.9787433      0.0023323615  -0.00099022938  20.495139      19.041705      1.4534338     -1.3785361      18709.338    
    812000   1.0525476      0.0023323615  -0.0024755404   20.789119      19.226086      1.5630333     -1.239503       18729.145    
    813000   0.85501752     0.0023323615  -0.0025961468   20.302708      19.033007      1.269701      -1.4093242      18871.993    
    814000   1.1005772      0.0023323615  -0.0023473754   20.730468      19.096111      1.6343571     -1.4030305      18622.767    
    815000   0.91319199     0.0023323615  -0.00052327631  20.391262      19.035171      1.3560901     -1.4736937      18629.354    
    816000   1.0367514      0.0023323615  -0.00065204767  20.707967      19.168391      1.5395758     -1.3364387      18479.649    
    817000   1.1623952      0.0023323615  -0.001627536    20.979472      19.253315      1.7261569     -1.2151594      18510.596    
    818000   0.99562484     0.0023323615  -0.0028905728   20.914869      19.436366      1.4785029     -1.1551797      18672.045    
    819000   1.0161072      0.0023323615   0.00044674475  20.535558      19.026639      1.5089191     -1.4440416      18532.131    
    820000   1.0005045      0.0023323615   0.0016646111   20.458461      18.972712      1.4857492     -1.4848452      18549.11     
    821000   0.99035766     0.0023323615  -0.0028097447   20.536733      19.066052      1.4706811     -1.4663996      18449.644    
    822000   0.96568193     0.0023323615  -0.0021189951   20.948659      19.514621      1.4340377     -1.1562629      18399.788    
    823000   1.1047635      0.0023323615   0.0027621968   20.754821      19.114247      1.6405738     -1.3182517      18495.925    
    824000   0.9821056      0.0023323615  -0.0021484359   20.649522      19.191095      1.4584268     -1.4125259      18432.02     
    825000   0.84493429     0.0023323615   0.0013865089   20.19224       18.937512      1.2547274     -1.5069186      18549.241    
    826000   1.0908099      0.0023323615  -0.0018071044   20.908939      19.289086      1.6198527     -1.3319495      18431.172    
    827000   0.99539969     0.0023323615  -0.0011952394   20.947448      19.46928       1.4781685     -1.1370698      18694.186    
    828000   0.91159047     0.0023323615  -0.0012927734   20.500222      19.14651       1.3537119     -1.3185459      18537.411    
    829000   1.0630185      0.0023323615  -0.0025933672   20.765756      19.187174      1.5785824     -1.3702007      18594.946    
    830000   0.8715281      0.0023323615   0.0015543447   20.57286       19.278641      1.2942192     -1.2854915      18602.29     
    831000   0.85501504     0.0023323615   0.0017339879   20.492566      19.222869      1.2696973     -1.159752       18621.798    
    832000   0.94200481     0.0023323615   2.0970097e-06  20.371624      18.972746      1.3988771     -1.4920685      18643.206    
    833000   0.95212628     0.0023323615  -0.0016354373   20.500328      19.086421      1.4139075     -1.3911342      18606.76     
    834000   0.92245118     0.0023323615   0.0021541068   20.463425      19.093585      1.36984       -1.4079392      18671.756    
    835000   0.88573896     0.0023323615  -0.00041222548  20.422245      19.106922      1.3153224     -1.4465592      18450.507    
    836000   1.0884538      0.0023323615  -0.0016509054   20.48219       18.865836      1.6163539     -1.6207885      18550.027    
    837000   0.94140586     0.0023323615   0.00069108357  20.745522      19.347535      1.3979877     -1.3015816      18552.641    
    838000   1.1869393      0.0023323615   0.0027953911   20.998723      19.236118      1.7626049     -1.3346803      18569.101    
    839000   0.93177774     0.0023323615  -0.00099183569  20.390654      19.006964      1.38369       -1.4056404      18608.539    
    840000   1.0058847      0.0023323615  -0.0025066675   20.736546      19.242808      1.4937387     -1.2601501      18487.583    
    841000   1.0221038      0.0023323615   0.0037901514   20.530492      19.012668      1.5178242     -1.4998079      18528.798    
    842000   0.9507499      0.0023323615   0.0015380625   20.455138      19.043274      1.4118636     -1.5917876      18561.48     
    843000   0.8338827      0.0023323615  -0.0030038948   20.184981      18.946666      1.2383158     -1.5564771      18634.248    
    844000   1.1908085      0.0023323615  -0.0018053689   21.005767      19.237417      1.7683506     -1.3045761      18461.516    
    845000   1.0662789      0.0023323615  -0.00082760583  20.761548      19.178124      1.5834242     -1.3894978      18404.365    
    846000   0.96553841     0.0023323615   0.0030445058   20.532135      19.098311      1.4338245     -1.3967761      18506.964    
    847000   1.0890764      0.0023323615  -0.00093136206  21.036411      19.419132      1.6172784     -1.1984154      18412.017    
    848000   1.1569448      0.0023323615   0.005113865    20.977371      19.259308      1.7180631     -1.4282541      18526.638    
    849000   1.058596       0.0023323615   0.00463791     20.768944      19.196928      1.5720151     -1.4131444      18407.43     
    850000   1.1104633      0.0023323615  -0.0021482147   20.656974      19.007936      1.649038      -1.4431205      18505.242    
    851000   1.1386259      0.0023323615  -0.0047430053   21.378093      19.687234      1.6908595     -0.9989232      18711.73     
    852000   1.0792619      0.0023323615   0.0029395686   21.069764      19.46706       1.6027039     -1.0831053      18774.513    
    853000   1.0628515      0.0023323615   0.0046371584   20.591108      19.012774      1.5783345     -1.4680469      18641.02     
    854000   1.0233808      0.0023323615  -0.001671811    21.158713      19.638993      1.5197205     -0.98863897     18962.617    
    855000   1.0715346      0.0023323615  -0.0011623245   20.856825      19.265597      1.5912288     -1.2380165      19111.533    
    856000   1.0185352      0.0023323615  -0.0011063085   20.777492      19.264967      1.5125247     -1.3206264      18611.089    
    857000   0.98951845     0.0023323615  -0.00019712973  20.506822      19.037387      1.4694349     -1.4355423      18580.854    
    858000   0.89852361     0.0023323615   0.0010912319   20.305163      18.970855      1.3343076     -1.5301509      18491.796    
    859000   1.0847417      0.0023323615   0.0043838373   20.98293       19.372089      1.6108414     -1.2006745      18627.696    
    860000   1.0014142      0.0023323615  -0.0070922818   20.782834      19.295734      1.4871001     -1.2769323      18657.63     
    861000   1.122729       0.0023323615   0.0020332698   20.607412      18.94016       1.6672526     -1.5362161      18662.082    
    862000   0.98592884     0.0023323615   0.0016755527   20.746644      19.28254       1.4641043     -1.2912949      18651.641    
    863000   0.94743007     0.0023323615  -0.0015510362   20.569264      19.16233       1.4069337     -1.3774669      18734.453    
    864000   1.1349549      0.0023323615   0.00029993721  20.981814      19.296406      1.685408      -1.1948144      18753.951    
    865000   0.89773174     0.0023323615   0.00033975126  20.575671      19.242539      1.3331316     -1.3165703      18647.159    
    866000   0.9911621      0.0023323615   0.00040181236  20.566693      19.094817      1.4718757     -1.3524842      18733.486    
    867000   1.1435974      0.0023323615   0.0041904365   21.086226      19.387984      1.6982421     -1.1203405      18760.373    
    868000   1.0037664      0.0023323615  -0.0021158411   20.493736      19.003142      1.4905931     -1.3782526      18653.666    
    869000   0.91992235     0.0023323615   0.0013092625   20.500708      19.134623      1.3660847     -1.4422969      18446.821    
    870000   0.94948747     0.0023323615   0.00084826484  20.609507      19.199518      1.4099889     -1.2761142      18580.494    
    871000   0.77506318     0.0023323615   0.00072705047  20.323499      19.17253       1.1509688     -1.4154792      18465.007    
    872000   0.82227604     0.0023323615   0.0019886235   20.459982      19.238902      1.2210799     -1.2468791      18534.815    
    873000   0.92448987     0.0023323615  -5.8491566e-05  20.416577      19.043709      1.3728674     -1.4227844      18659.779    
    874000   0.86487746     0.0023323615   0.0027971777   20.551617      19.267274      1.284343      -1.3074089      18589.066    
    875000   1.0422311      0.0023323615   0.0011087719   20.49705       18.949337      1.5477132     -1.4530969      18567.564    
    876000   1.037989       0.0023323615   0.001262034    20.578512      19.037099      1.5414136     -1.4612278      18592.511    
    877000   1.0515275      0.0023323615  -0.00093432665  20.729992      19.168473      1.5615183     -1.334368       18695.709    
    878000   0.91174068     0.0023323615   0.0016510276   20.411473      19.057538      1.3539349     -1.3496049      18736.837    
    879000   0.99526167     0.0023323615  -0.0040663762   20.22336       18.745396      1.4779636     -1.7022724      18635.803    
    880000   1.0708498      0.0023323615  -0.0009355193   20.495105      18.904893      1.5902119     -1.5893548      18533.838    
    881000   1.034534       0.0023323615   0.00014164195  20.606415      19.070132      1.5362829     -1.4338112      18593.328    
    882000   0.93561742     0.0023323615   0.00047722658  20.783406      19.394014      1.3893919     -1.2238649      18628.836    
    883000   1.0064435      0.0023323615   0.0024955004   20.523121      19.028552      1.4945686     -1.3320275      18795.959    
    884000   1.1186439      0.0023323615  -0.00016372598  20.932625      19.271439      1.6611863     -1.2970508      18565.278    
    885000   0.9694111      0.0023323615  -0.0011814973   20.94907       19.509494      1.4395755     -1.0954149      18796.837    
    886000   0.96968932     0.0023323615  -0.0012601753   20.860852      19.420863      1.4399886     -1.2253157      18820.573    
    887000   0.89843538     0.0023323615  -0.0011670456   20.490199      19.156022      1.3341765     -1.3175103      18549.855    
    888000   0.93720955     0.0023323615  -0.0017154991   20.91748       19.525724      1.3917562     -1.1085203      18629.239    
    889000   0.9386593      0.0023323615  -0.0015162231   20.681853      19.287944      1.3939091     -1.2534869      18695.264    
    890000   1.0539332      0.0023323615  -0.001972232    20.6159        19.050809      1.5650907     -1.4605749      18608.165    
    891000   1.0305359      0.0023323615  -0.0045355283   20.816497      19.286151      1.5303459     -1.2362262      18560.921    
    892000   1.0292728      0.0023323615   0.0019287684   20.767924      19.239454      1.5284701     -1.1809909      18666.179    
    893000   0.86230518     0.0023323615  -0.0022575811   20.649397      19.368874      1.2805232     -1.2850806      18715.224    
    894000   1.0170103      0.0023323615  -0.00016656187  20.608078      19.097818      1.5102603     -1.4850045      18644.495    
    895000   0.89203786     0.0023323615   0.0034133631   20.91639       19.591714      1.3246762     -1.0308515      18652.54     
    896000   0.96427431     0.0023323615   0.00094655829  20.263071      18.831123      1.4319474     -1.7193379      18665.47     
    897000   0.98694262     0.0023323615  -0.00067304096  20.533875      19.068265      1.4656098     -1.5635626      18410.964    
    898000   1.0659024      0.0023323615  -0.0016932856   20.619653      19.036788      1.582865      -1.4334046      18426.273    
    899000   0.9900215      0.0023323615   0.00054774355  20.498751      19.028569      1.4701819     -1.4980817      18494.674    
    900000   1.0345852      0.0023323615   0.0050994732   20.91294       19.376581      1.536359      -1.1299925      18537.025    
    901000   0.95914898     0.0023323615   0.0014457819   20.970443      19.546107      1.4243362     -1.1216935      18688.603    
    902000   1.0424975      0.0023323615  -0.0023637546   20.793188      19.245079      1.5481087     -1.2308036      18654.761    
    903000   0.83051151     0.0023323615   0.0044374933   20.423395      19.190085      1.2333096     -1.2313591      18859.171    
    904000   0.94130167     0.0023323615  -0.0049386366   20.609878      19.212045      1.397833      -1.4330644      18456.491    
    905000   0.95817673     0.0023323615  -0.0008485053   20.611677      19.188785      1.4228924     -1.3770264      18419.784    
    906000   0.96906402     0.0023323615   0.0017563711   20.641401      19.202341      1.4390601     -1.2215435      18437.702    
    907000   0.91636516     0.0023323615   0.0028412224   20.697709      19.336907      1.3608023     -1.2256968      18458.802    
    908000   1.0190627      0.0023323615   0.0022298252   20.661272      19.147964      1.5133081     -1.2623512      18639.707    
    909000   0.97232112     0.0023323615  -0.0017803279   20.589372      19.145475      1.4438969     -1.3078712      18534.836    
    910000   1.0221584      0.0023323615   0.0008066015   20.895207      19.377301      1.5179053     -1.0868879      18609.885    
    911000   1.0779774      0.0023323615  -0.00052282007  20.908986      19.308189      1.6007965     -1.1811155      18729.932    
    912000   0.86817684     0.0023323615   0.0023709883   20.445883      19.15664       1.2892426     -1.3256925      18643.287    
    913000   0.89298079     0.0023323615  -0.00044862123  20.615095      19.289018      1.3260765     -1.2504476      18336.176    
    914000   0.85983478     0.0023323615  -0.00083820918  20.449484      19.172629      1.2768546     -1.361582       18582.663    
    915000   0.81810062     0.0023323615  -0.00091273991  20.541666      19.326787      1.2148794     -1.2740372      18685.878    
    916000   1.0515267      0.0023323615   0.0012556945   20.773286      19.211769      1.5615172     -1.3458591      18176.853    
    917000   0.92293474     0.0023323615   0.0032438716   20.26901       18.898452      1.3705581     -1.6485096      18469.534    
    918000   0.87850737     0.0023323615  -0.0037201612   20.520271      19.215688      1.3045834     -1.3375525      18573.161    
    919000   1.0225302      0.0023323615   0.0016233981   20.835126      19.316668      1.5184574     -1.2270576      18697.534    
    920000   0.99780924     0.0023323615   0.0031377416   20.524917      19.04317       1.4817467     -1.4742307      18802.095    
    921000   0.93789672     0.0023323615   0.00075594185  20.490002      19.097225      1.3927766     -1.3274689      18601.364    
    922000   0.86349667     0.0023323615  -0.0016211757   20.731642      19.44935       1.2822926     -1.1505124      18544.857    
    923000   1.0346679      0.0023323615   0.00035491522  20.778317      19.241836      1.5364818     -1.4015665      18537.542    
    924000   0.76629208     0.0023323615   7.8208663e-05  20.155363      19.017419      1.1379437     -1.4363341      18467.559    
    925000   1.0157855      0.0023323615  -0.00062856548  20.619152      19.110711      1.5084415     -1.4891726      18470.822    
    926000   1.1972434      0.0023323615   7.5421848e-05  21.04913       19.271224      1.7779064     -1.2608909      18518.186    
    927000   0.90691135     0.0023323615  -0.0010318618   20.518971      19.172207      1.3467634     -1.4427758      18447.871    
    928000   1.040545       0.0023323615   0.0017093096   20.620106      19.074897      1.5452093     -1.4372923      18356.653    
    929000   0.88089149     0.0023323615  -0.0022689348   20.306695      18.998571      1.3081239     -1.5115174      18378.491    
    930000   1.0008219      0.0023323615  -0.00030487491  20.714402      19.228182      1.4862205     -1.2218073      18527.707    
    931000   1.0461948      0.0023323615  -0.0017620275   20.924435      19.370836      1.5535993     -1.2909241      18486.604    
    932000   1.0299044      0.0023323615  -0.0032816819   21.027466      19.498058      1.5294081     -1.156279       18634.626    
    933000   1.0832433      0.0023323615   0.0030402312   20.869967      19.261351      1.6086163     -1.2287527      18684.73     
    934000   1.1007378      0.0023323615  -0.0043631796   20.812033      19.177437      1.6345956     -1.4027487      18616.237    
    935000   1.0505362      0.0023323615   0.0006155424   20.898606      19.33856       1.5600462     -1.2466635      18524.767    
    936000   0.97476485     0.0023323615   0.003275684    20.458911      19.011386      1.4475258     -1.5123867      18606.836    
    937000   0.95947306     0.0023323615   1.0599869e-05  20.665454      19.240636      1.4248175     -1.3518202      18627.501    
    938000   0.91049117     0.0023323615  -0.00029868341  20.313396      18.961316      1.3520794     -1.5060318      18581.127    
    939000   1.1019285      0.0023323615   0.0017882749   20.986041      19.349677      1.6363638     -1.2364841      18527.236    
    940000   0.90056092     0.0023323615  -0.0024326818   20.586047      19.248714      1.337333      -1.2029961      18610.715    
    941000   0.94676908     0.0023323615   0.00024133784  20.388981      18.983029      1.4059521     -1.5560528      18413.576    
    942000   1.1268098      0.0023323615  -0.0011257516   20.576723      18.903411      1.6733126     -1.6085711      18420.444    
    943000   1.0574         0.0023323615   0.002748942    20.81125       19.241011      1.570239      -1.3344847      18590.389    
    944000   1.0006353      0.0023323615   0.0024893412   20.777482      19.291539      1.4859434     -1.1498526      18710.604    
    945000   0.96627725     0.0023323615   0.0050863849   20.666782      19.231861      1.4349217     -1.3208737      18494.338    
    946000   0.98833236     0.0023323615   0.0037158384   20.600442      19.132768      1.4676736     -1.3135934      18652.854    
    947000   1.0369166      0.0023323615   0.000378858    20.886022      19.346201      1.5398211     -1.1763093      18756.594    
    948000   1.11151        0.0023323615   0.0049760098   20.596008      18.945416      1.6505924     -1.5279473      18774.333    
    949000   1.1951855      0.0023323615  -0.0018857939   20.775592      19.000742      1.7748504     -1.4528445      18598.456    
    950000   1.047397       0.0023323615  -0.0003443102   20.674199      19.118814      1.5553846     -1.3058984      18581.798    
    951000   0.99678175     0.0023323615   0.0023739822   20.419263      18.939042      1.4802209     -1.5574011      18601.122    
    952000   0.97354754     0.0023323615  -0.0019641477   20.700601      19.254883      1.4457181     -1.2913491      18402.383    
    953000   0.95359419     0.0023323615  -0.0027558486   20.67859       19.262503      1.4160874     -1.3529638      18568.545    
    954000   1.0903312      0.0023323615   0.00063468627  20.939379      19.320237      1.6191418     -1.3044999      18624.383    
    955000   0.95680904     0.0023323615   0.00025211056  20.479349      19.058488      1.4208614     -1.467769       18635.291    
    956000   1.0762779      0.0023323615   0.0019638512   20.80263       19.204357      1.5982727     -1.216165       18733.978    
    957000   1.1788148      0.0023323615   0.0017984769   20.947436      19.196896      1.75054       -1.3433026      18602.46     
    958000   0.86362102     0.0023323615   0.0013505949   20.358445      19.075967      1.2824772     -1.3953682      18520.237    
    959000   0.97482966     0.0023323615   0.0044634958   20.753369      19.305747      1.447622      -1.2435292      18516.179    
    960000   0.90893486     0.0023323615  -0.0017566417   20.370284      19.020516      1.3497683     -1.4598546      18488.573    
    961000   0.95842773     0.0023323615   0.0008429059   20.739589      19.316324      1.4232652     -1.2336362      18548.913    
    962000   1.0184581      0.0023323615  -0.00070721844  20.728367      19.215956      1.5124102     -1.3007192      18689.821    
    963000   0.93089555     0.0023323615   0.00075104522  20.905597      19.523217      1.3823799     -1.0072521      18704.25     
    964000   1.1296961      0.0023323615   0.003563873    20.854815      19.177216      1.6775987     -1.3271396      18748.804    
    965000   0.97694438     0.0023323615  -0.0024701824   20.452765      19.002003      1.4507624     -1.5774856      18230.324    
    966000   0.92574598     0.0023323615   4.4392585e-06  20.613642      19.23891       1.3747328     -1.2534101      18510.403    
    967000   0.85777532     0.0023323615   0.0063952762   20.7099        19.436104      1.2737964     -1.3637707      18515.475    
    968000   0.94993688     0.0023323615   0.0021259331   20.621096      19.21044       1.4106563     -1.2991362      18530.421    
    969000   1.0012262      0.0023323615  -0.0009553132   21.023408      19.536587      1.4868209     -1.0716127      18647.152    
    970000   1.0218785      0.0023323615   0.00068621722  20.723389      19.2059        1.5174895     -1.2507129      18903.12     
    971000   1.0197234      0.0023323615   0.00043062107  20.789789      19.2755        1.5142893     -1.2433869      19475.056    
    972000   0.85443445     0.0023323615   0.0010255032   20.351002      19.082166      1.2688352     -1.5345843      18926.781    
    973000   0.88449101     0.0023323615  -0.0044468667   20.632633      19.319164      1.3134691     -1.2667904      18759.21     
    974000   0.97763396     0.0023323615  -0.0023999545   20.818846      19.36706       1.4517864     -1.2248274      18836.852    
    975000   1.0313802      0.0023323615  -0.0033873585   20.926954      19.395355      1.5315997     -1.3731115      18653.68     
    976000   1.0060123      0.0023323615   0.0050379179   20.617317      19.123389      1.4939283     -1.518119       18414.391    
    977000   1.0330662      0.0023323615  -0.0028401324   20.750195      19.216091      1.5341033     -1.2151333      18473.359    
    978000   1.0735467      0.0023323615  -0.00063840901  20.719802      19.125585      1.5942169     -1.4331417      18558.822    
    979000   1.0062781      0.0023323615   0.0031074901   20.5835        19.089177      1.494323      -1.412851       18399.53     
    980000   1.044884       0.0023323615   0.001397853    20.607991      19.056338      1.5516528     -1.3913382      18399.388    
    981000   0.97089577     0.0023323615  -0.0012957877   20.566794      19.125014      1.4417802     -1.401073       18432.475    
    982000   0.96782026     0.0023323615  -0.00088553106  20.766805      19.329592      1.4372131     -1.2652546      18598.581    
    983000   0.94483622     0.0023323615  -0.00033390322  20.734298      19.331216      1.4030818     -1.2525203      18643.868    
    984000   0.99022083     0.0023323615   0.0002972423   20.686983      19.216505      1.4704779     -1.3538554      18591.967    
    985000   0.99142598     0.0023323615  -0.0019161196   20.797664      19.325396      1.4722676     -1.260058       18628.436    
    986000   1.0282817      0.0023323615  -0.0035019194   20.995497      19.468499      1.5269984     -1.1845385      18331.647    
    987000   1.0438761      0.0023323615  -0.0030090584   20.814034      19.263878      1.550156      -1.2388203      18477.169    
    988000   0.96174165     0.0023323615  -0.0016437615   20.485605      19.057419      1.4281864     -1.380706       18437.944    
    989000   1.020707       0.0023323615  -0.0013897561   20.474114      18.958365      1.5157499     -1.5074088      18414.87     
    990000   1.0170523      0.0023323615  -0.0065534674   20.376045      18.865722      1.5103226     -1.667737       18343.3      
    991000   0.88915008     0.0023323615  -0.0016758084   20.446679      19.126291      1.3203879     -1.4014934      18469.291    
    992000   1.0797166      0.0023323615   0.0064926956   20.664159      19.06078       1.6033792     -1.4175158      18542.442    
    993000   1.0051962      0.0023323615  -0.0011876749   20.335385      18.842669      1.4927164     -1.4998057      18483.403    
    994000   0.96406762     0.0023323615  -0.0070448142   20.596278      19.164638      1.4316404     -1.314047       18477.62     
    995000   0.95002858     0.0023323615  -0.0012817273   20.527126      19.116333      1.4107924     -1.444671       18465.522    
    996000   0.91574164     0.0023323615  -0.0030162829   20.630254      19.270377      1.3598763     -1.3033409      19723.02     
    997000   0.93575787     0.0023323615   0.0012698723   20.544062      19.154462      1.3896004     -1.212992       19924.914    
    998000   1.1364495      0.0023323615  -0.0038648701   20.937735      19.250108      1.6876275     -1.2469236      19194.402    
    999000   0.94078028     0.0023323615  -0.000535476    20.564379      19.16732       1.3970587     -1.3955917      20008.982    
   1000000   0.94829437     0.0023323615   0.0003269856   20.502018      19.093801      1.4082171     -1.4452192      19826.727    
Loop time of 53.8743 on 1 procs for 1000000 steps with 100 atoms

Performance: 8018665.621 tau/day, 18561.726 timesteps/s
99.5% CPU use with 1 MPI tasks x 1 OpenMP threads

MPI task timing breakdown:
Section |  min time  |  avg time  |  max time  |%varavg| %total
---------------------------------------------------------------
Pair    | 44.897     | 44.897     | 44.897     |   0.0 | 83.34
Bond    | 1.2615     | 1.2615     | 1.2615     |   0.0 |  2.34
Neigh   | 3.8007     | 3.8007     | 3.8007     |   0.0 |  7.05
Comm    | 1.3973     | 1.3973     | 1.3973     |   0.0 |  2.59
Output  | 0.21504    | 0.21504    | 0.21504    |   0.0 |  0.40
Modify  | 1.949      | 1.949      | 1.949      |   0.0 |  3.62
Other   |            | 0.3538     |            |       |  0.66

Nlocal:            100 ave         100 max         100 min
Histogram: 1 0 0 0 0 0 0 0 0 0
Nghost:            288 ave         288 max         288 min
Histogram: 1 0 0 0 0 0 0 0 0 0
Neighs:           4851 ave        4851 max        4851 min
Histogram: 1 0 0 0 0 0 0 0 0 0

Total # of neighbors = 4851
Ave neighs/atom = 48.51
Ave special neighs/atom = 1.98
Neighbor list builds = 97911
Dangerous builds = 80190

write_data      ${outputfile_assembled} nofix nocoeff
write_data      7_assembled.data nofix nocoeff
System init for write_data ...
Generated 0 of 6 mixed pair_coeff terms from geometric mixing rule

Total wall time: 0:00:55
