LAMMPS (23 Jun 2022 - Update 1)
OMP_NUM_THREADS environment is not set. Defaulting to 1 thread. (src/comm.cpp:98)
  using 1 OpenMP thread(s) per MPI task


variable        runtime equal 1000000
variable		subsample_rate equal 1000

variable		outputfile_created string '3_created.data'
variable		outputfile_relaxed string '5_relaxed.data'
variable		outputfile_selfasb string '6_a_self_assemble.lammpstrj'
variable		outputfile_trajlin string '6_b_trajlin.data'
variable		outputfile_assembled string '7_assembled.data'

units           lj
atom_style      full
dimension       3
boundary        p p p
timestep        0.005

read_data       ${outputfile_created}
read_data       3_created.data
Reading data file ...
  orthogonal box = (0 0 0) to (35 35 35)
  1 by 1 by 1 MPI processor grid
  reading atoms ...
  100 atoms
  reading velocities ...
  100 velocities
  scanning bonds ...
  1 = max bonds/atom
  reading bonds ...
  99 bonds
Finding 1-2 1-3 1-4 neighbors ...
  special bond factors lj:    0        0        0       
  special bond factors coul:  0        0        0       
     2 = max # of 1-2 neighbors
     2 = max # of 1-3 neighbors
     4 = max # of 1-4 neighbors
     6 = max # of special neighbors
  special bonds CPU = 0.000 seconds
  read_data CPU = 0.012 seconds

bond_style      fene
bond_coeff      * 30.0 1.5 1.0 1.0
special_bonds   fene
Finding 1-2 1-3 1-4 neighbors ...
  special bond factors lj:    0        1        1       
  special bond factors coul:  0        1        1       
     2 = max # of 1-2 neighbors
     6 = max # of special neighbors
  special bonds CPU = 0.000 seconds

variable        Temp equal 1.0
variable        velSeed equal 926458

velocity        all create ${Temp} ${velSeed}
velocity        all create 1 ${velSeed}
velocity        all create 1 926458

### Output
thermo_style    custom step temp density press etotal pe ke epair spcpu
thermo          1000

###########################################################################
# Soft relaxation (to remove overlaps of particles)
######################################################################

pair_style      soft 1.0
pair_coeff      * * 0.0
variable        prefactor equal ramp(0,300)
fix             rampSoft all adapt 1 pair soft a * * v_prefactor

minimize        0.0 1.0e-8 1000 100000
WARNING: Using 'neigh_modify every 1 delay 0 check yes' setting during minimization (src/min.cpp:187)
Generated 0 of 6 mixed pair_coeff terms from geometric mixing rule
Neighbor list info ...
  update every 1 steps, delay 0 steps, check yes
  max neighbors/atom: 2000, page size: 100000
  master list distance cutoff = 1.3
  ghost atom cutoff = 1.3
  binsize = 0.65, bins = 54 54 54
  1 neighbor lists, perpetual/occasional/extra = 1 0 0
  (1) pair soft, perpetual
      attributes: half, newton on
      pair build: half/bin/newton
      stencil: half/bin/3d
      bin: standard
WARNING: Communication cutoff 1.3 is shorter than a bond length based estimate of 1.7550000000000001. This may lead to errors. (src/comm.cpp:727)
Per MPI rank memory allocation (min/avg/max) = 8.346 | 8.346 | 8.346 Mbytes
   Step          Temp         Density         Press          TotEng         PotEng         KinEng         E_pair         S/CPU     
         0   1              0.0023323615  -0.0039617958   21.524174      20.039174      1.485          0              0            
       362   1              0.0023323615   0.0023090379   21.485548      20.000548      1.485          0              34941.124    
Loop time of 0.010376 on 1 procs for 362 steps with 100 atoms

100.0% CPU use with 1 MPI tasks x 1 OpenMP threads

Minimization stats:
  Stopping criterion = force tolerance
  Energy initial, next-to-last, final = 
      20.0391741078675   20.0005480767337   20.0005480767337
  Force two-norm initial, final = 11.878422 7.9509778e-09
  Force max component initial, final = 6.6117807 1.3572772e-09
  Final line search alpha, max atom move = 1 1.3572772e-09
  Iterations, force evaluations = 362 738

MPI task timing breakdown:
Section |  min time  |  avg time  |  max time  |%varavg| %total
---------------------------------------------------------------
Pair    | 0.00045487 | 0.00045487 | 0.00045487 |   0.0 |  4.38
Bond    | 0.0047674  | 0.0047674  | 0.0047674  |   0.0 | 45.95
Neigh   | 0.0028636  | 0.0028636  | 0.0028636  |   0.0 | 27.60
Comm    | 0.00047769 | 0.00047769 | 0.00047769 |   0.0 |  4.60
Output  | 0          | 0          | 0          |   0.0 |  0.00
Modify  | 0          | 0          | 0          |   0.0 |  0.00
Other   |            | 0.001812   |            |       | 17.47

Nlocal:            100 ave         100 max         100 min
Histogram: 1 0 0 0 0 0 0 0 0 0
Nghost:             20 ave          20 max          20 min
Histogram: 1 0 0 0 0 0 0 0 0 0
Neighs:              0 ave           0 max           0 min
Histogram: 1 0 0 0 0 0 0 0 0 0

Total # of neighbors = 0
Ave neighs/atom = 0
Ave special neighs/atom = 1.98
Neighbor list builds = 17
Dangerous builds = 0

fix             nvtSoft all nvt temp ${Temp} ${Temp} 0.5
fix             nvtSoft all nvt temp 1 ${Temp} 0.5
fix             nvtSoft all nvt temp 1 1 0.5
run             100000
Generated 0 of 6 mixed pair_coeff terms from geometric mixing rule
WARNING: Communication cutoff 1.3 is shorter than a bond length based estimate of 1.7550000000000001. This may lead to errors. (src/comm.cpp:727)
Per MPI rank memory allocation (min/avg/max) = 7.221 | 7.221 | 7.221 Mbytes
   Step          Temp         Density         Press          TotEng         PotEng         KinEng         E_pair         S/CPU     
       362   1              0.0023323615   0.0023090379   21.485548      20.000548      1.485          0              0            
      1000   0.90989032     0.0023323615  -0.0021940042   21.776974      20.425787      1.3511871      0.00036425437  51997.427    
      2000   0.86546688     0.0023323615   0.0034714157   21.677128      20.39191       1.2852183      0.0025814786   64103.349    
      3000   0.98199538     0.0023323615   0.0028144228   21.866132      20.407869      1.4582631      0.0011756043   62306.255    
      4000   1.004495       0.0023323615  -0.0014058211   21.945624      20.453949      1.4916751      0.011986179    62941.935    
      5000   1.1222705      0.0023323615   0.0044495116   21.986385      20.319813      1.6665718      0.0050317639   63399.303    
      6000   1.0538243      0.0023323615   0.0023957538   21.985713      20.420784      1.564929       0.012100514    63400.312    
      7000   1.0210598      0.0023323615  -0.00038820026  21.904665      20.388391      1.5162738      0              63241.719    
      8000   0.94819751     0.0023323615   0.0024943091   21.747889      20.339816      1.4080733      0              64055.832    
      9000   0.92364502     0.0023323615   0.0020053029   21.724166      20.352554      1.3716129      1.7780894e-05  64028.017    
     10000   0.86685188     0.0023323615   0.00078277366  21.644879      20.357604      1.287275       0.0098636418   63553.066    
     11000   1.0057103      0.0023323615   0.00010113276  21.8558        20.362321      1.4934798      0.020705341    63917.515    
     12000   0.97901664     0.0023323615  -0.0026996968   21.871206      20.417366      1.4538397      0.0052928539   63031.013    
     13000   0.97718436     0.0023323615  -6.1641422e-06  21.963706      20.512587      1.4511188      0.025022446    63977.738    
     14000   1.0530014      0.0023323615  -0.0009993112   21.947994      20.384287      1.5637071      0.0020860456   63114.63     
     15000   0.99094527     0.0023323615   0.0011068478   21.895146      20.423592      1.4715537      0.0015091113   64236.274    
     16000   0.91285091     0.0023323615  -0.00025424173  21.87524       20.519657      1.3555836      0.0047853639   63847.029    
     17000   0.82806978     0.0023323615  -0.00054698156  21.701984      20.472301      1.2296836      0              64939.147    
     18000   1.043278       0.0023323615  -6.6143919e-05  22.003299      20.454031      1.5492679      0.0034319132   64520.879    
     19000   1.0879249      0.0023323615  -0.0017804642   21.998985      20.383416      1.6155685      0.015376175    62918.289    
     20000   1.1144506      0.0023323615   0.0025198298   22.190904      20.535944      1.6549592      0              64195.578    
     21000   1.0427751      0.0023323615   0.0011345349   22.099492      20.550971      1.548521       0.00040047813  64090.506    
     22000   1.0586695      0.0023323615   0.0017882747   22.05673       20.484606      1.5721242      0              66901.209    
     23000   1.0058426      0.0023323615  -0.0055245362   21.954628      20.460951      1.4936763      0.0027619031   65002.334    
     24000   0.98273442     0.0023323615   0.0015147357   21.862067      20.402707      1.4593606      0              63398.13     
     25000   0.95835343     0.0023323615   0.0017808774   21.937761      20.514606      1.4231548      0.00020839942  63105.175    
     26000   0.93993778     0.0023323615  -0.0021777292   21.884849      20.489042      1.3958076      0.0088889834   63773.269    
     27000   0.9308188      0.0023323615  -0.00011239942  21.842252      20.459986      1.3822659      0.021612409    62707.126    
     28000   1.0149581      0.0023323615   0.0041996387   21.906846      20.399633      1.5072129      0.0064059022   63450.492    
     29000   0.92841138     0.0023323615  -2.5398808e-05  21.987185      20.608494      1.3786909      0.0046112484   64282.774    
     30000   1.021043       0.0023323615   0.001589158    22.097958      20.581709      1.5162489      0.016799508    64784.584    
     31000   1.0465985      0.0023323615  -0.0021744286   22.037917      20.483718      1.5541987      0.0057879149   63937.254    
     32000   0.98907108     0.0023323615  -0.0015558606   22.044089      20.575318      1.4687705      0.009448173    64092.728    
     33000   1.0918536      0.0023323615  -0.0025643847   22.039275      20.417873      1.6214025      0              63032.363    
     34000   0.99801543     0.0023323615   0.0016279766   21.932339      20.450286      1.4820529      0.017384617    63925.658    
     35000   1.0352271      0.0023323615  -0.0052971711   22.076004      20.538692      1.5373122      0.00010473809  63808.135    
     36000   1.1141579      0.0023323615  -0.00093279925  22.222491      20.567966      1.6545245      0.00033678641  62483.098    
     37000   1.0369415      0.0023323615   0.00013065175  22.217841      20.677983      1.5398581      0.013788831    63902.537    
     38000   1.0515596      0.0023323615   0.0021717558   22.070766      20.5092        1.561566       0.0067894678   64209.951    
     39000   1.0238495      0.0023323615   0.00026414509  22.040141      20.519725      1.5204165      0.00044464649  63452.183    
     40000   1.0749111      0.0023323615  -0.0026849368   22.039327      20.443084      1.596243       0.012651334    61744.067    
     41000   0.99070886     0.0023323615  -0.0030385564   22.03241       20.561207      1.4712027      0.00092855646  64652.613    
     42000   0.95315224     0.0023323615   0.0019788197   21.965263      20.549832      1.4154311      0.020233689    63250.971    
     43000   1.0644183      0.0023323615  -0.0011168725   22.287172      20.706511      1.5806611      0.039694129    63683.109    
     44000   1.0253747      0.0023323615  -0.006676522    22.066233      20.543552      1.5226814      0              62633.582    
     45000   0.94179556     0.0023323615  -0.0047206018   21.970644      20.572077      1.3985664      0.019869988    62692.159    
     46000   1.0083495      0.0023323615  -0.0017646918   21.972114      20.474715      1.497399       0.00026040605  62947.256    
     47000   0.98767959     0.0023323615  -0.00080218158  22.091674      20.62497       1.4667042      0.024266258    62871.247    
     48000   1.1473449      0.0023323615  -0.0025885687   22.080512      20.376705      1.7038072      0.00065962995  63139.022    
     49000   1.0679312      0.0023323615   0.0017688272   21.970482      20.384604      1.5858779      0.014142422    63980.939    
     50000   0.9581935      0.0023323615   0.0014398836   21.955202      20.532284      1.4229173      0.0055011948   66103.365    
     51000   1.0215759      0.0023323615  -0.00093292688  21.934681      20.41764       1.5170402      0              64460.876    
     52000   0.98079591     0.0023323615   0.0040701936   21.977374      20.520892      1.4564819      0.0020862422   64317.322    
     53000   1.0090927      0.0023323615   0.0013324753   22.095438      20.596935      1.4985027      0              65680.345    
     54000   0.97519627     0.0023323615   0.0013260734   22.070151      20.621984      1.4481665      0.026885444    66705.458    
     55000   1.1805087      0.0023323615  -0.001586238    22.424088      20.671033      1.7530554      0.024690954    63665.679    
     56000   0.98387121     0.0023323615   0.0037155145   22.104425      20.643376      1.4610487      0.01435493     63361.31     
     57000   1.0723812      0.0023323615  -0.0037916262   22.122726      20.53024       1.592486       0.013635549    64089.401    
     58000   1.0152349      0.0023323615   0.00021908047  22.082827      20.575203      1.5076238      0.00077375639  65492.268    
     59000   1.1424502      0.0023323615  -0.0052108657   22.30072       20.604182      1.6965385      0.013308184    66039.289    
     60000   1.0359703      0.0023323615  -0.00097887545  22.188218      20.649802      1.538416       0.00011346294  63452.421    
     61000   1.1646839      0.0023323615  -0.002085017    22.239945      20.51039       1.7295556      0.012918477    66168.274    
     62000   1.101836       0.0023323615   0.0010338878   22.171386      20.53516       1.6362265      0.001396566    63250.411    
     63000   0.96616435     0.0023323615   0.00097550571  21.903821      20.469067      1.4347541      0.013027663    65252.757    
     64000   1.0068907      0.0023323615  -0.0020278726   22.061652      20.566419      1.4952327      0.013750276    64318.108    
     65000   0.98723233     0.0023323615   0.0022441476   22.031073      20.565033      1.46604        0.0066686189   65332.93     
     66000   1.0273881      0.0023323615  -0.0003515278   22.183579      20.657908      1.5256713      0              63636.573    
     67000   0.96528212     0.0023323615  -0.00014822656  21.9396        20.506156      1.4334439      0.010365557    63885.072    
     68000   1.069702       0.0023323615   9.4754668e-05  22.081119      20.492611      1.5885075      0.00049153926  62074.148    
     69000   1.1229502      0.0023323615   0.0011504079   22.200329      20.532748      1.6675811      0.0068454249   64582.295    
     70000   1.0062775      0.0023323615  -0.00085311964  22.094021      20.599699      1.4943221      0.013222355    63363.723    
     71000   1.0906935      0.0023323615   0.00015260357  22.145362      20.525682      1.6196798      0.018338513    64292.296    
     72000   1.010401       0.0023323615  -6.0487182e-06  22.154105      20.653659      1.5004455      0.0013793953   64126.25     
     73000   1.1177599      0.0023323615  -0.0034084797   22.254435      20.594562      1.6598735      0.00011231735  65183.465    
     74000   0.9768019      0.0023323615   0.00016143893  22.07312       20.622569      1.4505508      0.0084515956   62267.156    
     75000   1.1360996      0.0023323615   0.002159116    22.161595      20.474487      1.6871079      0.0089909162   63866.222    
     76000   0.97379329     0.0023323615  -0.00068458621  21.988928      20.542845      1.446083       0              63244.446    
     77000   0.94876793     0.0023323615  -0.0016073976   21.923496      20.514575      1.4089204      0.017745108    63439.64     
     78000   0.83947996     0.0023323615  -0.00062768559  21.726727      20.480099      1.2466277      0.0054510099   64994.332    
     79000   1.0090614      0.0023323615  -0.00080262643  22.068192      20.569736      1.4984562      0.00023011166  66801.575    
     80000   1.1217643      0.0023323615  -0.0038177864   22.367902      20.702082      1.66582        0.032902439    60003.304    
     81000   1.0240158      0.0023323615   0.00023547123  22.031597      20.510933      1.5206635      0.0068767308   66749.672    
     82000   1.003236       0.0023323615  -0.0022802982   21.894199      20.404393      1.4898055      0.019136282    61400.403    
     83000   1.0554159      0.0023323615   0.004011718    22.104562      20.537269      1.5672927      0.0080869707   61997.153    
     84000   0.83527346     0.0023323615  -0.0034122221   21.874648      20.634267      1.2403811      0.0030083664   62760.708    
     85000   1.036002       0.0023323615   0.0013573923   21.962923      20.42446       1.5384629      0.015709144    63490.366    
     86000   0.9432002      0.0023323615  -0.0032183248   21.913588      20.512936      1.4006523      0.013730309    63265.369    
     87000   0.95566008     0.0023323615  -0.00049614223  21.91653       20.497375      1.4191552      0.0035862035   62797.393    
     88000   0.93373351     0.0023323615  -0.00097093893  21.870485      20.483891      1.3865943      0.0018212145   65125.583    
     89000   0.9684944      0.0023323615  -0.00047342045  21.973429      20.535215      1.4382142      0.00087524744  66289.818    
     90000   0.98293324     0.0023323615  -0.0032204602   22.050919      20.591263      1.4596559      0.015353933    69148.967    
     91000   1.0832827      0.0023323615   0.0048517083   22.11977       20.511095      1.6086749      0.0052867789   70794.651    
     92000   0.85899662     0.0023323615  -0.0013049519   21.765697      20.490087      1.27561        0.0024124001   64332.868    
     93000   0.96176266     0.0023323615  -4.4223672e-05  21.874222      20.446004      1.4282176      0.0045653365   64196.32     
     94000   0.96019503     0.0023323615   0.00024459347  21.944954      20.519064      1.4258896      3.8053462e-05  58410.15     
     95000   0.94702149     0.0023323615  -0.0033658915   21.86315       20.456823      1.4063269      0              62725.333    
     96000   0.91119348     0.0023323615  -0.0013197298   21.825018      20.471896      1.3531223      0.00043282989  63920.501    
     97000   1.0016687      0.0023323615  -0.0019514304   22.013024      20.525546      1.487478       0.0048369955   63189.312    
     98000   1.02143        0.0023323615  -0.0057874974   22.177965      20.661142      1.5168235      0              61525.831    
     99000   1.032786       0.0023323615   0.0018228259   21.975336      20.441649      1.5336871      7.1595851e-05  65239.794    
    100000   1.0594928      0.0023323615   0.0036169719   22.011024      20.437677      1.5733468      0.00032948157  63677.78     
    100362   1.1904942      0.0023323615  -0.00089755607  22.316856      20.548972      1.7678839      0.00063845255  62516.968    
Loop time of 1.56731 on 1 procs for 100000 steps with 100 atoms

Performance: 27563082.474 tau/day, 63803.432 timesteps/s
100.0% CPU use with 1 MPI tasks x 1 OpenMP threads

MPI task timing breakdown:
Section |  min time  |  avg time  |  max time  |%varavg| %total
---------------------------------------------------------------
Pair    | 0.057374   | 0.057374   | 0.057374   |   0.0 |  3.66
Bond    | 0.14588    | 0.14588    | 0.14588    |   0.0 |  9.31
Neigh   | 0.89531    | 0.89531    | 0.89531    |   0.0 | 57.12
Comm    | 0.079186   | 0.079186   | 0.079186   |   0.0 |  5.05
Output  | 0.0022777  | 0.0022777  | 0.0022777  |   0.0 |  0.15
Modify  | 0.34969    | 0.34969    | 0.34969    |   0.0 | 22.31
Other   |            | 0.03759    |            |       |  2.40

Nlocal:            100 ave         100 max         100 min
Histogram: 1 0 0 0 0 0 0 0 0 0
Nghost:             60 ave          60 max          60 min
Histogram: 1 0 0 0 0 0 0 0 0 0
Neighs:             36 ave          36 max          36 min
Histogram: 1 0 0 0 0 0 0 0 0 0

Total # of neighbors = 36
Ave neighs/atom = 0.36
Ave special neighs/atom = 1.98
Neighbor list builds = 9821
Dangerous builds = 8265
unfix           nvtSoft
unfix           rampSoft
reset_timestep  0

write_data      ${outputfile_relaxed}
write_data      5_relaxed.data
System init for write_data ...
Generated 0 of 6 mixed pair_coeff terms from geometric mixing rule
WARNING: Communication cutoff 1.3 is shorter than a bond length based estimate of 1.7550000000000001. This may lead to errors. (src/comm.cpp:727)
WARNING: Not all mixed pair coeffs generated from mixing. Use write_data with 'pair ij' option to store all pair coeffs. (src/write_data.cpp:309)

###########################################################################
# Full LJ with Coulomb
######################################################################

# Cutoffs and parameters:
# - Values: Marcel Verkade's Bachelor Thesis
# - Mapping to atom groups: Patrick Onck's paper
# - 1: aliphatic, 2: aromatic, 3: anion, 4: cation
# pair_style	lj/cut/coul/cut <lj_cut_global> <coul_cut_global>
# pair_coeff	<type_1>  <type_2>  <eps>  <sigma>  <r_cut_lj>  <r_cut_coul>

# Problem: Onck's model is much more complex, and Marcel has no sigma reported
# Using sigma=1 randomly

variable		glob_ljeps equal 1.0
variable		glob_ljsig 	equal 1.0
variable		glob_coulcut equal 10.0
variable		att_ljcut equal 2.50
variable		rep_ljcut equal 1.12

pair_style		lj/cut/coul/cut 						${att_ljcut} 	${glob_coulcut}
pair_style		lj/cut/coul/cut 						2.5 	${glob_coulcut}
pair_style		lj/cut/coul/cut 						2.5 	10
pair_coeff		1 1 	${glob_ljeps} 	${glob_ljsig}	${att_ljcut} 	${glob_coulcut}
pair_coeff		1 1 	1 	${glob_ljsig}	${att_ljcut} 	${glob_coulcut}
pair_coeff		1 1 	1 	1	${att_ljcut} 	${glob_coulcut}
pair_coeff		1 1 	1 	1	2.5 	${glob_coulcut}
pair_coeff		1 1 	1 	1	2.5 	10
pair_coeff		1 2 	${glob_ljeps} 	${glob_ljsig}	${att_ljcut} 	${glob_coulcut}
pair_coeff		1 2 	1 	${glob_ljsig}	${att_ljcut} 	${glob_coulcut}
pair_coeff		1 2 	1 	1	${att_ljcut} 	${glob_coulcut}
pair_coeff		1 2 	1 	1	2.5 	${glob_coulcut}
pair_coeff		1 2 	1 	1	2.5 	10
pair_coeff		1 3 	${glob_ljeps} 	${glob_ljsig}	${rep_ljcut} 	${glob_coulcut}
pair_coeff		1 3 	1 	${glob_ljsig}	${rep_ljcut} 	${glob_coulcut}
pair_coeff		1 3 	1 	1	${rep_ljcut} 	${glob_coulcut}
pair_coeff		1 3 	1 	1	1.12 	${glob_coulcut}
pair_coeff		1 3 	1 	1	1.12 	10
pair_coeff		1 4 	${glob_ljeps} 	${glob_ljsig}	${rep_ljcut} 	${glob_coulcut}
pair_coeff		1 4 	1 	${glob_ljsig}	${rep_ljcut} 	${glob_coulcut}
pair_coeff		1 4 	1 	1	${rep_ljcut} 	${glob_coulcut}
pair_coeff		1 4 	1 	1	1.12 	${glob_coulcut}
pair_coeff		1 4 	1 	1	1.12 	10
pair_coeff		2 2 	${glob_ljeps} 	${glob_ljsig}	${att_ljcut} 	${glob_coulcut}
pair_coeff		2 2 	1 	${glob_ljsig}	${att_ljcut} 	${glob_coulcut}
pair_coeff		2 2 	1 	1	${att_ljcut} 	${glob_coulcut}
pair_coeff		2 2 	1 	1	2.5 	${glob_coulcut}
pair_coeff		2 2 	1 	1	2.5 	10
pair_coeff		2 3 	${glob_ljeps} 	${glob_ljsig}	${rep_ljcut} 	${glob_coulcut}
pair_coeff		2 3 	1 	${glob_ljsig}	${rep_ljcut} 	${glob_coulcut}
pair_coeff		2 3 	1 	1	${rep_ljcut} 	${glob_coulcut}
pair_coeff		2 3 	1 	1	1.12 	${glob_coulcut}
pair_coeff		2 3 	1 	1	1.12 	10
pair_coeff		2 4 	${glob_ljeps} 	${glob_ljsig}	${att_ljcut} 	${glob_coulcut}
pair_coeff		2 4 	1 	${glob_ljsig}	${att_ljcut} 	${glob_coulcut}
pair_coeff		2 4 	1 	1	${att_ljcut} 	${glob_coulcut}
pair_coeff		2 4 	1 	1	2.5 	${glob_coulcut}
pair_coeff		2 4 	1 	1	2.5 	10
pair_coeff		3 3 	${glob_ljeps} 	${glob_ljsig}	${rep_ljcut} 	${glob_coulcut}
pair_coeff		3 3 	1 	${glob_ljsig}	${rep_ljcut} 	${glob_coulcut}
pair_coeff		3 3 	1 	1	${rep_ljcut} 	${glob_coulcut}
pair_coeff		3 3 	1 	1	1.12 	${glob_coulcut}
pair_coeff		3 3 	1 	1	1.12 	10
pair_coeff		3 4 	${glob_ljeps} 	${glob_ljsig}	${att_ljcut} 	${glob_coulcut}
pair_coeff		3 4 	1 	${glob_ljsig}	${att_ljcut} 	${glob_coulcut}
pair_coeff		3 4 	1 	1	${att_ljcut} 	${glob_coulcut}
pair_coeff		3 4 	1 	1	2.5 	${glob_coulcut}
pair_coeff		3 4 	1 	1	2.5 	10
pair_coeff		4 4 	${glob_ljeps} 	${glob_ljsig}	${rep_ljcut} 	${glob_coulcut}
pair_coeff		4 4 	1 	${glob_ljsig}	${rep_ljcut} 	${glob_coulcut}
pair_coeff		4 4 	1 	1	${rep_ljcut} 	${glob_coulcut}
pair_coeff		4 4 	1 	1	1.12 	${glob_coulcut}
pair_coeff		4 4 	1 	1	1.12 	10


fix             noDrift 	all momentum 10 linear 1 1 1
fix             nvt1 		all nvt temp ${Temp} ${Temp} 0.5
fix             nvt1 		all nvt temp 1 ${Temp} 0.5
fix             nvt1 		all nvt temp 1 1 0.5

# dump          assemble 	all custom 1000 				${outputfile_selfasb} id type xu yu zu vx vy vz
dump            lindump 	all custom ${subsample_rate} 	${outputfile_trajlin} id type xu yu zu vx vy vz
dump            lindump 	all custom 1000 	${outputfile_trajlin} id type xu yu zu vx vy vz
dump            lindump 	all custom 1000 	6_b_trajlin.data id type xu yu zu vx vy vz

run             ${runtime}
run             1000000
Generated 0 of 6 mixed pair_coeff terms from geometric mixing rule
Neighbor list info ...
  update every 1 steps, delay 10 steps, check yes
  max neighbors/atom: 2000, page size: 100000
  master list distance cutoff = 10.3
  ghost atom cutoff = 10.3
  binsize = 5.15, bins = 7 7 7
  1 neighbor lists, perpetual/occasional/extra = 1 0 0
  (1) pair lj/cut/coul/cut, perpetual
      attributes: half, newton on
      pair build: half/bin/newton
      stencil: half/bin/3d
      bin: standard
Per MPI rank memory allocation (min/avg/max) = 7.712 | 7.712 | 7.712 Mbytes
   Step          Temp         Density         Press          TotEng         PotEng         KinEng         E_pair         S/CPU     
         0   1.1904942      0.0023323615  -0.001297546    21.925379      20.157495      1.7678839     -0.39083906     0            
      1000   1.0129643      0.0023323615  -0.0017709421   21.281136      19.776884      1.5042519     -0.62221015     14946.653    
      2000   0.93922311     0.0023323615  -0.00037406176  21.166872      19.772126      1.3947463     -0.72216019     23108.388    
      3000   0.95801152     0.0023323615   0.0025879524   21.023436      19.600789      1.4226471     -0.67155761     20853.56     
      4000   0.82182875     0.0023323615   0.00047351329  20.625843      19.405427      1.2204157     -0.97770109     18693.171    
      5000   1.0357878      0.0023323615  -0.0043114411   20.977808      19.439663      1.5381448     -1.0158992      16355.435    
      6000   0.96194037     0.0023323615  -0.0014116806   20.812991      19.38451       1.4284815     -1.0388955      15465.318    
      7000   0.98991646     0.0023323615  -0.00016661428  20.890359      19.420333      1.4700259     -0.97736042     15766.574    
      8000   1.0281343      0.0023323615  -0.0011711721   21.16071       19.633931      1.5267794     -0.86100874     17601.745    
      9000   0.99803809     0.0023323615   0.0014047125   21.147735      19.665649      1.4820866     -0.8768904      20671.692    
     10000   0.96222945     0.0023323615   0.0014013286   20.911495      19.482585      1.4289107     -1.0175687      21443.538    
     11000   0.93777897     0.0023323615  -0.005211874    21.158333      19.765731      1.3926018     -0.90165062     22512.356    
     12000   0.96034407     0.0023323615  -0.0024592109   21.11859       19.692479      1.426111      -0.67601261     21855.096    
     13000   0.92666514     0.0023323615   0.0011851041   21.125269      19.749172      1.3760977     -0.71486744     22539.982    
     14000   1.0359134      0.0023323615   0.00014639699  21.298738      19.760407      1.5383314     -0.79958999     23770.881    
     15000   0.98133011     0.0023323615  -0.001858747    21.006463      19.549188      1.4572752     -0.87944419     23377.685    
     16000   1.1220877      0.0023323615  -0.0015268642   21.235232      19.568932      1.6663003     -0.91348864     21795.6      
     17000   1.0931794      0.0023323615   0.0032558963   21.150032      19.52666       1.6233714     -0.96094182     20106.761    
     18000   0.99389091     0.0023323615  -5.9314403e-05  21.062959      19.587031      1.475928      -0.89106431     18982.672    
     19000   1.0202686      0.0023323615  -0.0029672411   20.884093      19.368994      1.5150989     -1.1499852      18134.159    
     20000   1.125964       0.0023323615   0.00014669685  21.18376       19.511703      1.6720565     -1.0385003      17098.669    
     21000   1.0836514      0.0023323615  -0.00052838012  21.306648      19.697425      1.6092223     -0.89260631     17367.549    
     22000   1.1548766      0.0023323615  -0.0023606324   21.446136      19.731144      1.7149918     -0.86179393     18375.618    
     23000   1.1167378      0.0023323615   0.0022765872   21.243592      19.585236      1.6583557     -0.89919207     20760.276    
     24000   1.1081074      0.0023323615   0.00056666676  21.223608      19.578068      1.6455394     -0.88797532     22436.384    
     25000   0.90674674     0.0023323615   0.0015356996   21.119946      19.773427      1.3465189     -0.72528969     23240.974    
     26000   0.88279055     0.0023323615   0.0017243595   21.050506      19.739562      1.310944      -0.69688492     23287.059    
     27000   1.0615666      0.0023323615   0.0018517911   21.467134      19.890707      1.5764264     -0.67835762     23820.793    
     28000   1.0966129      0.0023323615   0.00051640463  21.473826      19.845355      1.6284702     -0.59747052     23270.846    
     29000   0.92524603     0.0023323615   0.00058816707  21.070587      19.696596      1.3739904     -0.78398117     21989.503    
     30000   0.98128727     0.0023323615   0.00068718016  20.916357      19.459145      1.4572116     -1.0010426      21171.837    
     31000   1.0111893      0.0023323615   0.0036239428   20.967481      19.465864      1.5016161     -0.98080481     19777.39     
     32000   1.088612       0.0023323615   0.0014888365   21.409222      19.792634      1.6165888     -0.75252106     19502.893    
     33000   1.0613642      0.0023323615   0.0016862355   21.165563      19.589437      1.5761258     -0.87982611     19444.417    
     34000   0.99628785     0.0023323615   0.0024653074   21.183879      19.704391      1.4794875     -0.77761227     20555.493    
     35000   1.0409092      0.0023323615   0.00018904939  21.248516      19.702766      1.5457502     -0.79266543     21774.255    
     36000   1.106748       0.0023323615   0.0046294801   21.259195      19.615675      1.6435207     -0.81691301     22330.686    
     37000   0.96264924     0.0023323615   0.001438312    21.184865      19.755331      1.4295341     -0.80284974     22126.623    
     38000   1.097988       0.0023323615  -0.0010842421   21.208286      19.577773      1.6305122     -0.86605789     21993.971    
     39000   0.93191239     0.0023323615  -0.0029156913   21.316378      19.932488      1.3838899     -0.66747088     22004.847    
     40000   1.0263468      0.0023323615   0.0039152868   21.212588      19.688463      1.524125      -0.79454108     21681.738    
     41000   0.95419548     0.0023323615  -0.0003264641   20.960007      19.543027      1.4169803     -1.0714163      20867.716    
     42000   1.0466108      0.0023323615   0.0023983299   21.118567      19.56435       1.5542171     -0.98658521     17532.781    
     43000   1.0950578      0.0023323615   0.0020472791   21.137948      19.511787      1.6261609     -0.96318452     15264.842    
     44000   1.0480056      0.0023323615  -0.00090897756  20.932359      19.376071      1.5562882     -1.0131502      15638.955    
     45000   1.0038833      0.0023323615   0.0029560966   21.092585      19.601818      1.4907667     -0.84304787     18407.456    
     46000   1.0050856      0.0023323615   0.00047065609  20.971932      19.47938       1.4925521     -1.0321694      20157.08     
     47000   1.0562227      0.0023323615  -0.0029871591   21.115632      19.547142      1.5684907     -0.9934603      20921.935    
     48000   1.077394       0.0023323615  -0.00064141611  21.304812      19.704882      1.59993       -0.77833056     21711.172    
     49000   1.0139753      0.0023323615  -5.0579074e-06  21.204992      19.699239      1.5057533     -0.89125809     21468.449    
     50000   1.0336086      0.0023323615   0.0029886468   21.267086      19.732177      1.5349088     -0.77238382     22104.519    
     51000   1.0276225      0.0023323615   0.00047282091  21.359854      19.833834      1.5260194     -0.61471574     21563.772    
     52000   1.0351709      0.0023323615   4.5679374e-05  21.345096      19.807867      1.5372287     -0.73013167     20567.264    
     53000   0.98898218     0.0023323615  -0.00040102468  21.198278      19.729639      1.4686385     -0.75733598     19624.138    
     54000   0.78967577     0.0023323615   0.0010450015   20.901855      19.729186      1.1726685     -0.76049856     18752.09     
     55000   1.0974442      0.0023323615   0.0012343067   21.222815      19.59311       1.6297047     -0.86061569     18837.083    
     56000   1.0394163      0.0023323615  -0.0024047564   21.216607      19.673074      1.5435333     -0.77845714     19946.135    
     57000   0.91720573     0.0023323615  -0.00011099923  21.005506      19.643456      1.3620505     -0.72104314     20689.436    
     58000   0.85763421     0.0023323615   0.0048712174   20.853723      19.580136      1.2735868     -0.9013115      20684.737    
     59000   1.0444927      0.0023323615   0.0022803102   21.224581      19.673509      1.5510717     -0.85782373     21038.848    
     60000   1.0940926      0.0023323615   2.0646482e-05  21.429749      19.805022      1.6247275     -0.77013938     21358.136    
     61000   0.97488652     0.0023323615  -0.0015784441   21.15961       19.711904      1.4477065     -0.81617133     20492.838    
     62000   0.94306249     0.0023323615  -0.00082920869  21.098336      19.697888      1.4004478     -0.91906667     19682.266    
     63000   0.92849584     0.0023323615  -0.00018026322  20.972551      19.593734      1.3788163     -0.86894626     19308.118    
     64000   1.036497       0.0023323615  -0.0012349071   21.193145      19.653947      1.5391981     -0.84342928     19161.769    
     65000   0.91202178     0.0023323615  -0.00013489364  21.125714      19.771362      1.3543523     -0.69533908     19883.355    
     66000   0.90491917     0.0023323615   0.0017525264   21.252119      19.908314      1.343805      -0.67937606     19930.037    
     67000   0.92932008     0.0023323615   0.0011808852   20.935218      19.555178      1.3800403     -0.824439       20362.168    
     68000   1.0426745      0.0023323615   0.0016486992   21.152577      19.604206      1.5483716     -1.0028724      19106.641    
     69000   0.9985663      0.0023323615   0.00087861399  20.825545      19.342674      1.482871      -1.0175273      18886.856    
     70000   0.91690634     0.0023323615   0.0026503046   20.736456      19.37485       1.3616059     -1.0977757      19253.332    
     71000   0.95672056     0.0023323615   0.0046650345   20.833663      19.412933      1.42073       -0.99765979     18549.899    
     72000   0.91036798     0.0023323615  -0.0028011426   20.899143      19.547247      1.3518965     -0.95614549     18826.672    
     73000   0.98760688     0.0023323615   0.00051416091  21.129356      19.662759      1.4665962     -0.83578825     19285.976    
     74000   0.94567988     0.0023323615   0.00092093658  20.961049      19.556714      1.4043346     -0.78553124     20032.473    
     75000   1.1317639      0.0023323615  -0.0006370951   21.36272       19.68205       1.6806694     -0.87538004     20111.716    
     76000   0.91545409     0.0023323615   0.0001575829   20.939298      19.579848      1.3594493     -1.0006648      19243.491    
     77000   0.96410683     0.0023323615   4.9338497e-05  21.045677      19.613978      1.4316986     -0.83123589     18938.78     
     78000   1.0385619      0.0023323615   0.0020750075   21.141854      19.599589      1.5422644     -0.92971893     18596.903    
     79000   0.81152167     0.0023323615  -0.0025925231   21.051633      19.846523      1.2051097     -0.6757374      18871.437    
     80000   0.82817705     0.0023323615   0.00048159947  20.926877      19.697034      1.2298429     -0.81864805     18993.119    
     81000   1.0601472      0.0023323615  -0.0012681399   21.117191      19.542872      1.5743186     -0.85675025     19731.162    
     82000   0.90525191     0.0023323615  -0.0033020321   21.081408      19.737109      1.3442991     -0.71963684     19410.695    
     83000   1.1292795      0.0023323615   0.0015461041   21.095054      19.418074      1.6769801     -0.94395192     19073.383    
     84000   0.93855283     0.0023323615  -0.00027170252  20.781588      19.387837      1.393751      -0.98584765     19018.332    
     85000   0.87522807     0.0023323615   0.0040630963   20.973968      19.674254      1.2997137     -0.89338693     17862.107    
     86000   0.97372001     0.0023323615   0.0031215745   20.985575      19.5396        1.4459742     -0.92372719     17416.03     
     87000   0.96223021     0.0023323615  -0.0020674007   20.8646        19.435688      1.4289119     -0.95745221     18242.882    
     88000   0.92320865     0.0023323615   0.00023505686  20.95573       19.584765      1.3709648     -0.83946145     18955.721    
     89000   1.0513739      0.0023323615  -0.00092922223  21.227726      19.666435      1.5612902     -0.80549735     20890.607    
     90000   0.91783343     0.0023323615   0.0028343246   21.211255      19.848272      1.3629826     -0.68521205     21876.648    
     91000   0.8899105      0.0023323615  -0.0038686604   21.153767      19.83225       1.3215171     -0.74079358     22364.064    
     92000   0.94569934     0.0023323615   0.00066900603  21.228909      19.824545      1.4043635     -0.72283173     22550.472    
     93000   0.86950789     0.0023323615   0.0016960123   21.087998      19.796779      1.2912192     -0.68036074     22933.387    
     94000   1.0173326      0.0023323615   0.00018806381  21.461472      19.950733      1.5107389     -0.64763852     23125.933    
     95000   1.0822989      0.0023323615  -0.0019045786   21.31129       19.704076      1.6072139     -0.77841624     23835.128    
     96000   1.0852515      0.0023323615   0.0014582118   21.496951      19.885352      1.6115985     -0.57218826     23626.52     
     97000   0.88585185     0.0023323615  -0.00066489591  20.968438      19.652948      1.31549       -0.79113044     21460.26     
     98000   1.0113288      0.0023323615  -0.0048342051   21.137903      19.63608       1.5018232     -0.88132809     18878.201    
     99000   0.8579679      0.0023323615  -0.00048320024  20.997086      19.723004      1.2740823     -0.81321992     17812.488    
    100000   1.0646483      0.0023323615  -0.001130181    21.099207      19.518204      1.5810027     -0.90023136     17377.479    
    101000   1.065468       0.0023323615   0.0029442846   21.160716      19.578496      1.58222       -0.86585673     17180.134    
    102000   1.0046215      0.0023323615  -0.00076295968  21.008899      19.517036      1.491863      -0.87816832     17630.448    
    103000   0.93448811     0.0023323615   0.0021576706   21.107795      19.720081      1.3877148     -0.74118351     18392.948    
    104000   0.90939498     0.0023323615  -0.004031057    20.936705      19.586253      1.3504515     -0.86564448     19068.461    
    105000   1.0205492      0.0023323615  -0.00018375218  21.34108       19.825564      1.5155156     -0.71028187     19350.665    
    106000   1.0481417      0.0023323615   0.0015358246   20.99845       19.44196       1.5564904     -1.0651174      19318.526    
    107000   0.94616929     0.0023323615   0.0017681723   21.017318      19.612256      1.4050614     -0.87012312     18423.466    
    108000   0.93559727     0.0023323615   0.0028057584   21.103928      19.714566      1.3893619     -0.82869166     17796.882    
    109000   1.0277493      0.0023323615   0.002147708    20.963489      19.437281      1.5262077     -0.94087754     17864.946    
    110000   1.0625262      0.0023323615   0.0061242446   21.044689      19.466838      1.5778514     -1.0323547      19380.422    
    111000   0.94767312     0.0023323615  -0.00091013564  21.002881      19.595586      1.4072946     -0.96064139     19232.764    
    112000   0.94394323     0.0023323615   0.000519749    20.790489      19.388734      1.4017557     -0.941401       18710.772    
    113000   1.1137336      0.0023323615  -0.00069351999  21.295789      19.641895      1.6538944     -0.85958838     18264.239    
    114000   1.1756035      0.0023323615  -0.0017174972   21.111635      19.365864      1.7457711     -1.0596199      17868.225    
    115000   0.96828944     0.0023323615  -0.0050554972   21.001827      19.563917      1.4379098     -0.98433486     17795.872    
    116000   1.1173131      0.0023323615  -0.0029257626   21.211544      19.552335      1.6592099     -0.91934552     18345.431    
    117000   1.0350514      0.0023323615  -0.0016150009   21.185916      19.648865      1.5370513     -0.93251989     18653.888    
    118000   0.95357274     0.0023323615   0.00044770859  21.228758      19.812702      1.4160555     -0.74964214     19681.281    
    119000   0.88692735     0.0023323615  -0.0015488926   20.877619      19.560532      1.3170871     -0.85884097     19325.393    
    120000   0.96039457     0.0023323615  -0.0011098117   20.95141       19.525224      1.4261859     -0.88375028     18920.453    
    121000   1.0735246      0.0023323615   0.0044983463   21.217864      19.62368       1.594184      -0.8904987      18262.09     
    122000   0.94505686     0.0023323615   0.0017769127   20.812787      19.409377      1.4034094     -1.0194197      17060.835    
    123000   0.96921094     0.0023323615  -0.0040477866   21.079896      19.640617      1.4392783     -0.93368477     16862.265    
    124000   1.0337596      0.0023323615   0.00083779709  21.108426      19.573293      1.535133      -0.92475898     16734.375    
    125000   1.1199781      0.0023323615   0.0038218414   20.985777      19.32261       1.6631674     -1.0892485      17783.186    
    126000   1.1034149      0.0023323615   0.0038470717   21.246638      19.608067      1.6385711     -0.87680498     17717.082    
    127000   0.98380299     0.0023323615  -0.0021664283   21.106124      19.645177      1.4609474     -0.95610083     17955.718    
    128000   1.0029095      0.0023323615  -0.00022994932  21.087437      19.598116      1.4893206     -0.93453568     18330.838    
    129000   1.0241477      0.0023323615   0.0021544377   20.882796      19.361937      1.5208593     -1.0797656      18251.812    
    130000   0.94437427     0.0023323615  -0.0049051505   20.941897      19.539502      1.4023958     -0.98858308     18679.974    
    131000   1.1757374      0.0023323615   0.001578504    21.226789      19.480819      1.74597       -0.89780871     18548.676    
    132000   1.2056836      0.0023323615  -0.0040245608   21.384263      19.593823      1.7904402     -0.91187365     14414.833    
    133000   0.98087114     0.0023323615   0.00032735859  21.019336      19.562742      1.4565936     -1.0018578      19645.139    
    134000   0.87000181     0.0023323615   0.002330397    20.800397      19.508445      1.2919527     -0.97666322     19519.525    
    135000   1.0618197      0.0023323615   0.00066878717  21.247532      19.67073       1.5768022     -0.82391567     19276.784    
    136000   0.96580773     0.0023323615   0.00055564358  20.987391      19.553166      1.4342245     -0.88013072     19630.16     
    137000   1.1855118      0.0023323615  -0.0018493824   21.23586       19.475375      1.760485      -0.93865913     19648.519    
    138000   1.0705233      0.0023323615  -0.0044510259   21.320184      19.730457      1.5897271     -0.87102308     18888.64     
    139000   1.0849211      0.0023323615  -0.00023986233  21.253546      19.642438      1.6111078     -0.90757312     18487.151    
    140000   1.1227615      0.0023323615  -0.0030095679   21.345541      19.678241      1.6673008     -0.85184556     18549.282    
    141000   0.97501536     0.0023323615  -0.0014781886   21.011579      19.563681      1.4478978     -0.99891428     19068.862    
    142000   0.98028796     0.0023323615  -0.0035082585   20.997319      19.541591      1.4557276     -0.95837045     18070.359    
    143000   1.0467099      0.0023323615  -0.0021637251   21.41572       19.861356      1.5543643     -0.83311504     17747.626    
    144000   1.1464661      0.0023323615   0.003894872    21.365608      19.663105      1.7025021     -0.81490615     17954.448    
    145000   1.0339425      0.0023323615  -0.0023760841   21.0643        19.528895      1.5354047     -0.98202963     19219.406    
    146000   1.1154709      0.0023323615   0.002250126    21.061272      19.404798      1.6564743     -1.0178464      18518.357    
    147000   0.91321049     0.0023323615   0.00029333106  20.922649      19.566532      1.3561176     -0.95575987     18772.161    
    148000   1.1011657      0.0023323615   0.001367313    21.173885      19.538654      1.635231      -0.98980114     18803.497    
    149000   1.0712889      0.0023323615  -0.0021752178   21.285934      19.69507       1.590864      -0.75114528     18896.035    
    150000   1.1158214      0.0023323615  -3.8665991e-05  21.232019      19.575024      1.6569948     -0.93088083     18807.246    
    151000   1.0511934      0.0023323615   0.0025465086   20.990283      19.429261      1.5610221     -1.0774144      18539.321    
    152000   1.1529668      0.0023323615   0.0039129513   21.269024      19.556869      1.7121557     -1.0007299      18054.251    
    153000   1.04779        0.0023323615  -0.00051262649  21.292097      19.736129      1.5559682     -0.83217506     18131.253    
    154000   1.0960279      0.0023323615   0.0034689482   21.265972      19.638371      1.6276014     -0.8404179      18432.907    
    155000   0.98407608     0.0023323615   0.0010822824   21.167941      19.706588      1.461353      -0.92135687     19714.802    
    156000   1.0631438      0.0023323615   0.0018538234   21.139872      19.561103      1.5787686     -0.94529264     21011.712    
    157000   0.89147324     0.0023323615   0.0012164225   21.034371      19.710533      1.3238378     -0.82823608     20573.84     
    158000   0.9256924      0.0023323615  -0.0039799994   21.112471      19.737817      1.3746532     -0.70179831     19410.381    
    159000   1.0165702      0.0023323615  -0.001116654    21.093549      19.583942      1.5096067     -0.91636715     18903.064    
    160000   0.96415368     0.0023323615   0.0032450113   21.138807      19.707039      1.4317682     -0.82491186     19425.964    
    161000   1.0342474      0.0023323615   0.00271784     21.028595      19.492738      1.5358574     -1.0229698      20772.65     
    162000   0.87135629     0.0023323615  -0.0019875739   20.8807        19.586736      1.2939641     -0.92017486     21618.65     
    163000   0.99088656     0.0023323615   0.0011014486   21.181796      19.710329      1.4714665     -0.73421972     21391.671    
    164000   1.0946541      0.0023323615   0.0033704683   21.352073      19.726512      1.6255614     -0.75122632     20146.424    
    165000   1.0404476      0.0023323615  -0.0010528955   21.285921      19.740857      1.5450647     -0.85815548     19112.825    
    166000   0.9567973      0.0023323615  -0.00058173847  20.908892      19.488048      1.420844      -0.96495678     18556.3      
    167000   1.0101803      0.0023323615  -0.0022476485   20.978647      19.47853       1.5001177     -0.88118733     18834.378    
    168000   0.89776954     0.0023323615  -0.0034163068   20.926254      19.593067      1.3331878     -0.83972528     20582.787    
    169000   1.1173594      0.0023323615   7.3574212e-05  21.482151      19.822872      1.6592787     -0.80537549     21858.701    
    170000   1.0059874      0.0023323615  -0.002359398    21.374544      19.880652      1.4938913     -0.76345211     21840.128    
    171000   0.99194788     0.0023323615  -0.00032722909  21.10938       19.636338      1.4730426     -0.84196499     22333.089    
    172000   0.96251347     0.0023323615   8.5397929e-05  21.285136      19.855804      1.4293325     -0.67104215     24252.674    
    173000   0.95079712     0.0023323615  -0.0015723236   21.069751      19.657817      1.4119337     -0.77572065     23773.543    
    174000   0.9130409      0.0023323615  -0.00036369173  21.063837      19.707971      1.3558657     -0.87854138     21870.655    
    175000   0.95425408     0.0023323615  -0.0015507704   20.866943      19.449876      1.4170673     -1.0035145      20816.293    
    176000   0.9318586      0.0023323615   0.0058684378   20.903929      19.520119      1.38381       -0.96033096     20035.898    
    177000   1.0651161      0.0023323615   0.0012258485   21.25688       19.675183      1.5816974     -0.84794785     20592.04     
    178000   0.92976289     0.0023323615   0.0030512583   21.155628      19.774931      1.3806979     -0.72051611     21282.783    
    179000   0.90637185     0.0023323615   0.0009518552   21.107361      19.761399      1.3459622     -0.73281103     21335.345    
    180000   1.016063       0.0023323615  -0.00040616365  20.98037       19.471516      1.5088536     -0.91337162     21176.553    
    181000   1.1464454      0.0023323615   0.0022062365   21.237545      19.535073      1.7024714     -0.88350821     21182.045    
    182000   0.86646473     0.0023323615   0.0027825554   20.817253      19.530553      1.2867001     -0.9022184      19805.127    
    183000   1.0874431      0.0023323615  -0.0013896449   21.076598      19.461745      1.614853      -0.98341069     19373.851    
    184000   1.071057       0.0023323615   0.00041613442  21.280084      19.689564      1.5905196     -0.87069309     20874.145    
    185000   0.99806173     0.0023323615   0.0027523486   21.136633      19.654512      1.4821217     -0.89054191     22244.053    
    186000   0.76448954     0.0023323615   0.0023174296   20.794137      19.65887       1.135267      -0.81267334     22559.035    
    187000   0.88172273     0.0023323615  -0.0019974193   20.915549      19.60619       1.3093583     -0.95370176     22475.513    
    188000   1.0076333      0.0023323615  -0.0025957463   21.061857      19.565521      1.4963355     -1.0037527      21988.918    
    189000   0.93984881     0.0023323615  -0.00074368981  21.193037      19.797361      1.3956755     -0.71492163     21558.168    
    190000   0.99103477     0.0023323615   0.0044070734   20.952023      19.480336      1.4716866     -0.89081731     21149.97     
    191000   0.95636024     0.0023323615   0.0024865522   21.01215       19.591955      1.420195      -0.91358709     21293.08     
    192000   0.99818599     0.0023323615   0.0036195607   21.171705      19.689398      1.4823062     -0.79824572     20964.781    
    193000   0.95627613     0.0023323615   0.0012789281   21.183258      19.763188      1.42007       -0.7168819      21128.722    
    194000   0.95841345     0.0023323615   0.0010640424   21.085807      19.662563      1.423244      -0.73132177     21677.731    
    195000   0.83215836     0.0023323615   0.0019437155   20.994057      19.758302      1.2357552     -0.70918606     21761.405    
    196000   1.0903347      0.0023323615  -0.0001438943   21.186256      19.567109      1.619147      -0.84046893     21734.526    
    197000   1.0153524      0.0023323615  -0.0016042954   21.170986      19.663188      1.5077983     -0.77886561     20912.041    
    198000   1.0336611      0.0023323615   0.00029707504  21.159741      19.624754      1.5349868     -0.83400613     20439.287    
    199000   0.9664698      0.0023323615   0.0042833056   20.999954      19.564747      1.4352077     -0.83726279     19114.513    
    200000   0.95995436     0.0023323615  -0.0011389832   21.051009      19.625477      1.4255322     -0.78012008     18066.417    
    201000   1.053228       0.0023323615  -0.0042569327   21.197387      19.633343      1.5640436     -0.89081784     17772.111    
    202000   0.94788359     0.0023323615   0.0048207059   21.170516      19.762908      1.4076071     -0.80202099     19731.845    
    203000   0.96479942     0.0023323615  -0.00023306744  21.313306      19.880579      1.4327271     -0.68091766     22908.715    
    204000   1.1196131      0.0023323615   0.0011954771   21.466612      19.803987      1.6626255     -0.74665168     24718.978    
    205000   0.98592325     0.0023323615  -0.0028970202   21.260901      19.796805      1.464096      -0.71077033     25341.474    
    206000   0.79654696     0.0023323615   8.2299656e-05  20.975854      19.792982      1.1828722     -0.66360608     24839.123    
    207000   0.9959064      0.0023323615  -0.0014328304   21.038098      19.559177      1.478921      -0.86700475     25048.287    
    208000   0.96273209     0.0023323615   0.0017402652   21.012082      19.582425      1.4296572     -0.81362517     23982.305    
    209000   0.96238844     0.0023323615  -0.0010101231   21.038204      19.609057      1.4291468     -0.82196496     21692.585    
    210000   0.93404164     0.0023323615   0.00010256162  20.930226      19.543174      1.3870518     -0.9924906      19526.025    
    211000   1.091561       0.0023323615  -0.0018637415   20.928168      19.3072        1.6209681     -1.1160618      18211.968    
    212000   1.1014809      0.0023323615   0.0011151596   20.974085      19.338386      1.6356992     -1.0248122      17808.538    
    213000   1.0007744      0.0023323615  -0.0031165081   21.101721      19.615571      1.4861499     -0.95711547     18312.13     
    214000   0.95089387     0.0023323615   0.0017435521   21.199775      19.787697      1.4120774     -0.75694991     19321.78     
    215000   1.0233195      0.0023323615   0.0016602784   21.17864       19.659011      1.5196295     -0.86012286     20816.367    
    216000   0.94752588     0.0023323615  -0.0031421539   20.895627      19.488551      1.4070759     -0.96997196     21417.017    
    217000   1.0046512      0.0023323615   0.00044717305  20.98437       19.492463      1.491907      -0.95241125     21570.346    
    218000   0.9040714      0.0023323615   0.0021904584   20.926077      19.583531      1.342546      -0.96808353     20352.129    
    219000   0.85931267     0.0023323615  -0.00038534672  20.819184      19.543105      1.2760793     -0.94163967     19479.032    
    220000   0.98052642     0.0023323615  -0.00045341698  20.989776      19.533695      1.4560817     -1.0221913      18699.267    
    221000   0.9942548      0.0023323615  -0.0017781912   20.971006      19.494537      1.4764684     -1.0623702      18639.116    
    222000   0.87922306     0.0023323615   0.0024577316   21.01177       19.706123      1.3056462     -0.87973688     19681.012    
    223000   1.0648679      0.0023323615  -0.0014192687   21.441124      19.859795      1.5813288     -0.74550406     20579.095    
    224000   0.88512732     0.0023323615  -0.0022376917   21.0233        19.708886      1.3144141     -0.84628312     20624.816    
    225000   0.9691686      0.0023323615  -0.0025179456   21.101959      19.662744      1.4392154     -0.83171005     20853.657    
    226000   1.0523282      0.0023323615   0.0021864935   21.197956      19.635249      1.5627073     -0.7438004      21512.568    
    227000   1.097768       0.0023323615   0.00076485633  21.342208      19.712022      1.6301855     -0.68707901     22567.262    
    228000   0.89636829     0.0023323615  -0.0011280983   21.104614      19.773507      1.3311069     -0.67900496     22470.55     
    229000   1.0260474      0.0023323615   0.0015866017   21.106554      19.582873      1.5236804     -0.84538491     22181.071    
    230000   1.0448655      0.0023323615   0.001408185    21.325993      19.774368      1.5516253     -0.72452148     21630.817    
    231000   0.97554511     0.0023323615   0.0034990047   21.002368      19.553683      1.4486845     -0.92723087     21178.809    
    232000   1.0798351      0.0023323615   0.0022297689   21.276728      19.673173      1.6035552     -0.85976945     20552.572    
    233000   0.96304703     0.0023323615  -0.0057391271   21.163967      19.733842      1.4301248     -0.79271664     19631.94     
    234000   0.8674667      0.0023323615   0.0011885507   21.054021      19.765833      1.2881881     -0.67995488     19631.654    
    235000   1.0595036      0.0023323615   0.0026499488   21.367164      19.793801      1.5733628     -0.73114728     19186.754    
    236000   0.9834453      0.0023323615  -0.0028287969   21.115667      19.655251      1.4604163     -0.74752374     814.57203    
    237000   1.0122336      0.0023323615  -0.0013229199   20.928998      19.425831      1.5031669     -0.99506639     12921.942    
    238000   1.0723988      0.0023323615   0.00048562904  21.386521      19.794009      1.5925122     -0.77791461     21281.821    
    239000   0.87981741     0.0023323615   0.00082052155  21.055184      19.748655      1.3065288     -0.72939583     22874.129    
    240000   1.0319063      0.0023323615  -0.002323005    21.042156      19.509775      1.5323808     -0.91898633     22411.532    
    241000   1.0589805      0.0023323615   0.0007904584   21.268027      19.695441      1.572586      -0.78541752     21372.231    
    242000   0.94845579     0.0023323615  -0.0023143009   21.361305      19.952848      1.4084568     -0.64682443     20411.02     
    243000   1.1053468      0.0023323615  -0.0011653697   21.336         19.69456       1.64144       -0.757997       20169.38     
    244000   1.0168075      0.0023323615  -0.0014945147   21.258357      19.748398      1.5099592     -0.83719939     19927.502    
    245000   0.9856106      0.0023323615   0.0011707056   21.063354      19.599722      1.4636317     -0.86318582     20339.201    
    246000   1.090915       0.0023323615  -0.0022185452   21.468477      19.848468      1.6200088     -0.81484961     20318.579    
    247000   1.0982681      0.0023323615  -0.0017102443   21.28431       19.653382      1.6309281     -0.85302667     20622.016    
    248000   0.98947903     0.0023323615  -0.0053616913   21.449087      19.979711      1.4693764     -0.79197043     21809.382    
    249000   1.0257919      0.0023323615   0.0013077535   21.362503      19.839202      1.523301      -0.76525336     22067.558    
    250000   1.0876967      0.0023323615  -0.00061992799  21.436877      19.821647      1.6152296     -0.85072483     21896.906    
    251000   1.0213006      0.0023323615  -0.00075430331  21.101525      19.584893      1.5166314     -0.96047911     21376.24     
    252000   0.93106806     0.0023323615  -0.00033797635  21.163126      19.78049       1.3826361     -0.75354201     21299.041    
    253000   0.9479757      0.0023323615  -0.0002761      20.98861       19.580866      1.4077439     -0.90830964     20084.306    
    254000   0.96531187     0.0023323615  -0.003545575    21.193032      19.759544      1.4334881     -0.69537959     19051.362    
    255000   1.1258643      0.0023323615   0.0034315923   21.525738      19.85383       1.6719085     -0.63621828     18723.288    
    256000   1.0306155      0.0023323615   0.0028766925   21.282759      19.752295      1.530464      -0.77146736     19503.236    
    257000   0.91121448     0.0023323615   0.0024090075   20.980053      19.6269        1.3531535     -0.88710698     21126.441    
    258000   0.99203267     0.0023323615  -0.0025776955   21.13606       19.662892      1.4731685     -0.93926189     22002.364    
    259000   0.94252073     0.0023323615  -0.0025863108   21.092528      19.692885      1.3996433     -0.8041775      22405.047    
    260000   0.99433731     0.0023323615   0.00019308462  21.020157      19.543567      1.4765909     -0.99245253     21665.101    
    261000   1.0253015      0.0023323615   0.001234377    21.484635      19.962062      1.5225727     -0.68462983     20799.072    
    262000   1.005253       0.0023323615   0.0020245568   21.372371      19.87957       1.4928007     -0.69441608     20231.563    
    263000   1.0214149      0.0023323615  -0.00018153098  21.080155      19.563354      1.5168011     -0.89739031     20031.6      
    264000   0.91238043     0.0023323615   0.00048384742  20.89132       19.536435      1.3548849     -0.89145295     19607.743    
    265000   0.9313116      0.0023323615   0.00022167335  20.961698      19.578701      1.3829977     -0.95568373     19738.17     
    266000   1.1773521      0.0023323615   0.0013948255   21.441533      19.693165      1.7483678     -0.77496261     20562.747    
    267000   0.99458678     0.0023323615   0.0036727501   21.202099      19.725137      1.4769614     -0.78729208     22356.224    
    268000   0.95348959     0.0023323615  -0.00048976895  21.157944      19.742012      1.415932      -0.82080258     22917.779    
    269000   1.0422578      0.0023323615  -0.0006241825   21.557909      20.010156      1.5477528     -0.65404861     22833.209    
    270000   0.98793997     0.0023323615   0.0010345816   21.13691       19.669819      1.4670909     -0.83862437     22963.693    
    271000   0.90099411     0.0023323615   0.00072821306  20.928781      19.590805      1.3379763     -0.84130828     22489.136    
    272000   1.079085       0.0023323615   0.0020459653   21.446683      19.844241      1.6024412     -0.76519298     21348.807    
    273000   1.0306157      0.0023323615  -0.0037807959   21.189657      19.659192      1.5304643     -0.8493643      20076.691    
    274000   1.1253161      0.0023323615   0.0016880875   21.109969      19.438875      1.6710944     -0.970069       18703.739    
    275000   0.90316563     0.0023323615  -0.0017013643   20.953528      19.612327      1.341201      -0.794552       18451.226    
    276000   0.97782196     0.0023323615  -0.00049975202  21.057607      19.605542      1.4520656     -0.89544467     19142.299    
    277000   0.96145987     0.0023323615   0.0026569216   21.127427      19.69966       1.4277679     -0.82929528     21249.318    
    278000   0.96368235     0.0023323615  -0.0020574618   21.149592      19.718524      1.4310683     -0.81636681     22148.271    
    279000   0.96946115     0.0023323615   0.0015837617   21.274342      19.834692      1.4396498     -0.7176909      22478.292    
    280000   0.93852205     0.0023323615  -0.00043048432  21.102809      19.709103      1.3937052     -0.71001186     23331.754    
    281000   1.0664083      0.0023323615   0.00030956725  21.408743      19.825127      1.5836163     -0.7448831      24142.103    
    282000   0.98934248     0.0023323615   0.00075949926  21.125983      19.656809      1.4691736     -0.82043737     24724.837    
    283000   1.0125567      0.0023323615  -0.0020848011   21.229899      19.726253      1.5036467     -0.74464889     24751.552    
    284000   1.2144284      0.0023323615   0.00038669849  21.489384      19.685958      1.8034261     -0.81071101     24146.933    
    285000   1.0346609      0.0023323615   0.0013707918   21.195358      19.658887      1.5364714     -0.81023359     22586.126    
    286000   0.9558004      0.0023323615  -0.0021965027   21.135691      19.716327      1.4193636     -0.81446232     20442.234    
    287000   0.88840355     0.0023323615   0.003317341    20.701161      19.381882      1.3192793     -1.0761107      18589.107    
    288000   0.85373614     0.0023323615  -0.0025669117   20.822989      19.555191      1.2677982     -0.92143827     18166.233    
    289000   0.96466975     0.0023323615  -0.00028765307  20.929875      19.497341      1.4325346     -1.0651456      17939.704    
    290000   1.1554512      0.0023323615  -0.0024937557   21.380081      19.664236      1.7158451     -0.8747169      18443.313    
    291000   1.0907524      0.0023323615   0.0024459438   21.405861      19.786093      1.6197673     -0.78256046     19277.651    
    292000   0.98674693     0.0023323615  -0.0012813425   21.236595      19.771276      1.4653192     -0.80120717     20049.84     
    293000   0.96260499     0.0023323615   0.0016641449   21.095152      19.665684      1.4294684     -0.80378814     21522.839    
    294000   0.96175885     0.0023323615   0.0012133415   21.012972      19.58476       1.4282119     -0.89007616     21997.112    
    295000   1.0118173      0.0023323615   0.00070369614  21.285452      19.782903      1.5025487     -0.73109255     22229.988    
    296000   0.96309212     0.0023323615  -0.00098504279  21.140078      19.709886      1.4301918     -0.87406284     22766.612    
    297000   1.0094579      0.0023323615  -0.0036035591   21.114798      19.615753      1.499045      -0.88385545     21821.507    
    298000   0.99606446     0.0023323615   0.00094463853  20.970813      19.491657      1.4791557     -0.95468857     21244.333    
    299000   0.97420607     0.0023323615   0.0012767726   21.151373      19.704677      1.446696      -0.80686962     20283.25     
    300000   1.0518503      0.0023323615   0.00021796629  21.094316      19.532318      1.5619976     -0.93764625     19106.126    
    301000   0.92224959     0.0023323615  -0.0046017441   20.927386      19.557845      1.3695406     -0.92029279     18915.623    
    302000   0.99406309     0.0023323615  -0.0029200103   21.246129      19.769946      1.4761837     -0.89078689     19695.373    
    303000   1.0841544      0.0023323615   0.0008999934   21.043904      19.433935      1.6099693     -1.0552552      20166.61     
    304000   0.89187644     0.0023323615  -0.0019173806   20.89012       19.565684      1.3244365     -0.88358873     20090.435    
    305000   1.0440146      0.0023323615   0.0014676323   20.992259      19.441897      1.5503617     -0.95388123     19727.258    
    306000   0.94579749     0.0023323615   0.0016416427   20.749109      19.3446        1.4045093     -0.94857441     20204.664    
    307000   1.0248595      0.0023323615  -0.0011871784   21.087748      19.565832      1.5219163     -0.88579266     20925.588    
    308000   0.92177218     0.0023323615   0.00024030884  20.837893      19.469061      1.3688317     -0.94049959     21193.126    
    309000   0.89501743     0.0023323615  -0.0055983768   21.012871      19.68377       1.3291009     -0.83294387     22458.02     
    310000   0.92535015     0.0023323615   0.002770001    20.963819      19.589674      1.374145      -0.87762985     23064.958    
    311000   1.0153662      0.0023323615  -0.0016468685   21.154001      19.646183      1.5078188     -0.89126638     20688.702    
    312000   0.99369097     0.0023323615   0.0047134028   21.382919      19.907288      1.4756311     -0.64261813     20027.223    
    313000   1.0032757      0.0023323615  -0.00099451366  21.327763      19.837899      1.4898645     -0.74593962     20556.213    
    314000   1.0010507      0.0023323615  -0.0014219858   21.152602      19.666042      1.4865604     -0.90603534     19579.741    
    315000   0.97235948     0.0023323615  -0.0009083436   20.950086      19.506132      1.4439538     -0.89266098     18977.785    
    316000   1.0161419      0.0023323615   0.000294197    20.959092      19.450121      1.5089707     -0.97445867     19284.795    
    317000   1.0456694      0.0023323615   0.00063227195  21.25228       19.699461      1.5528191     -0.82861302     3548.3949    
    318000   0.9003804      0.0023323615   0.0015509214   21.016276      19.679211      1.3370649     -0.82454825     13501.857    
    319000   1.1016497      0.0023323615   0.0025807007   21.164834      19.528884      1.6359498     -0.88276606     22211.25     
    320000   1.0979812      0.0023323615  -0.0017908792   21.332807      19.702305      1.630502      -0.81534572     21520.977    
    321000   1.1069748      0.0023323615  -0.0033848102   21.211162      19.567304      1.6438575     -0.9212594      21078.537    
    322000   1.1036248      0.0023323615  -0.00093105955  21.417233      19.77835       1.6388828     -0.80674761     20060.757    
    323000   1.0498617      0.0023323615   0.0016489696   21.121535      19.56249       1.5590446     -0.95335956     18930.055    
    324000   1.0387965      0.0023323615  -0.0034837655   21.066475      19.523862      1.5426128     -0.90349802     17388.269    
    325000   1.0207429      0.0023323615  -0.0002895496   20.949499      19.433696      1.5158032     -1.0104485      16343.012    
    326000   1.0183437      0.0023323615   0.00015950382  21.088936      19.576695      1.5122404     -0.88770965     16591.76     
    327000   1.062012       0.0023323615  -0.0047502728   21.1165        19.539412      1.5770878     -0.9133654      17759.696    
    328000   1.0827949      0.0023323615  -0.0025737321   21.013809      19.405859      1.6079504     -1.0480642      19016.169    
    329000   1.0275924      0.0023323615   0.0017609468   21.23437       19.708395      1.5259747     -0.84722064     19863.424    
    330000   0.98814039     0.0023323615  -0.00051087621  21.067788      19.6004        1.4673885     -0.92364939     20244.612    
    331000   1.0012144      0.0023323615   0.00056763348  21.116672      19.629868      1.4868034     -0.7981832      20884.095    
    332000   1.0692766      0.0023323615  -0.0026774671   21.30918       19.721304      1.5878757     -0.71061715     21328.852    
    333000   1.0509223      0.0023323615   0.0010353865   21.344502      19.783883      1.5606196     -0.72677384     21718.013    
    334000   0.86732017     0.0023323615  -0.0033216995   20.954817      19.666847      1.2879705     -0.88611616     20540.396    
    335000   1.1347         0.0023323615   0.0008162348   21.267277      19.582247      1.6850295     -0.81351664     20055.008    
    336000   1.1142114      0.0023323615  -0.00019678721  21.362434      19.70783       1.654604      -0.74436903     19690.264    
    337000   0.9754341      0.0023323615   0.001622754    21.036533      19.588013      1.4485196     -0.7787735      18670.167    
    338000   0.98547147     0.0023323615   6.3685023e-06  21.198964      19.735538      1.4634251     -0.78577952     18984.401    
    339000   0.96979598     0.0023323615   0.0010328099   21.101489      19.661342      1.440147      -0.75603073     19703.092    
    340000   0.88583539     0.0023323615   0.0015705785   20.982495      19.667029      1.3154656     -0.80268943     19592.324    
    341000   0.91340782     0.0023323615  -0.0016249902   21.026225      19.669815      1.3564106     -0.8381885      19501.574    
    342000   0.96097276     0.0023323615  -0.00088245947  21.160002      19.732958      1.4270446     -0.78854868     19913.336    
    343000   0.95222021     0.0023323615   0.00094061284  21.104902      19.690855      1.414047      -0.74761436     20141.123    
    344000   0.98384115     0.0023323615  -0.0014272398   21.179101      19.718097      1.4610041     -0.89461585     20478.85     
    345000   1.0680588      0.0023323615   0.0012160443   21.111736      19.525668      1.5860672     -0.87614096     20483.951    
    346000   0.98853635     0.0023323615  -0.0022216478   21.037465      19.569488      1.4679765     -0.91698396     19635.848    
    347000   1.0322528      0.0023323615  -0.0033539864   21.066344      19.533448      1.5328955     -0.91991998     18452.304    
    348000   1.0977194      0.0023323615  -0.0013347832   21.292554      19.662441      1.6301132     -0.79237485     17084.901    
    349000   0.96556297     0.0023323615  -0.00085794721  21.090623      19.656762      1.433861      -0.8370614      17552.726    
    350000   0.98537882     0.0023323615   0.00028774948  21.153811      19.690524      1.4632876     -0.83038253     19699.335    
    351000   0.95642958     0.0023323615   0.0013483555   21.072779      19.652481      1.4202979     -0.8977846      21144.934    
    352000   1.0552617      0.0023323615  -0.0027463385   21.214098      19.647035      1.5670637     -0.87264814     21724.72     
    353000   0.96229903     0.0023323615  -0.0033369115   21.105321      19.676307      1.4290141     -0.85872663     21468.869    
    354000   1.1295703      0.0023323615   0.0054552483   21.467432      19.79002       1.6774118     -0.77892108     21201.045    
    355000   0.95021777     0.0023323615   0.00078276431  20.854545      19.443471      1.4110734     -0.99278712     21115.853    
    356000   1.0336388      0.0023323615  -0.00084577439  21.164578      19.629624      1.5349536     -0.92655962     19800.994    
    357000   1.052461       0.0023323615   0.0053212052   20.878692      19.315787      1.5629045     -1.073378       18372.604    
    358000   0.88683065     0.0023323615  -0.0050901774   20.910594      19.59365       1.3169435     -0.89154353     17807.528    
    359000   0.97538146     0.0023323615   0.0037008167   20.712105      19.263663      1.4484415     -1.2059943      17746.614    
    360000   0.93334006     0.0023323615   0.0032179938   21.071094      19.685084      1.38601       -0.72869309     18285.252    
    361000   0.93875314     0.0023323615  -0.00061132649  20.92986       19.535811      1.3940484     -1.0140841      18963.788    
    362000   1.014689       0.0023323615   0.0045402263   21.308479      19.801666      1.5068132     -0.80705504     20142.293    
    363000   1.0549724      0.0023323615   0.0036708341   21.27152       19.704886      1.566634      -0.76664031     22132.796    
    364000   0.84061361     0.0023323615   0.0029186678   21.066071      19.81776       1.2483112     -0.68202925     23266.497    
    365000   1.0958413      0.0023323615   0.0045228666   21.461355      19.83403       1.6273243     -0.6539298      24472.134    
    366000   0.95536161     0.0023323615   0.0023362465   21.344079      19.925367      1.418712      -0.69811554     24647.018    
    367000   0.91391485     0.0023323615  -0.0016170854   21.106224      19.74906       1.3571635     -0.70573466     24349.978    
    368000   1.150124       0.0023323615   0.0013938074   21.42313       19.715196      1.7079341     -0.73233562     22306.038    
    369000   1.1293162      0.0023323615   0.0048118993   21.288167      19.611132      1.6770346     -0.87099774     19952.682    
    370000   1.0257827      0.0023323615  -0.00073582718  21.169822      19.646535      1.5232873     -0.91701058     18326.631    
    371000   0.9607537      0.0023323615   0.00073068817  21.011299      19.58458       1.4267192     -0.88571047     17500.328    
    372000   1.0703595      0.0023323615   0.0016457296   21.067624      19.47814       1.5894838     -0.95868955     18141.654    
    373000   0.99110574     0.0023323615  -0.00085064334  21.360417      19.888625      1.471792      -0.65366431     19167.51     
    374000   1.1470469      0.0023323615   0.00054086836  21.472158      19.768794      1.7033646     -0.79103294     19494.81     
    375000   0.90147048     0.0023323615  -0.0019898024   20.679779      19.341095      1.3386837     -1.1105696      19673.588    
    376000   0.99933631     0.0023323615  -0.00040032621  20.920721      19.436707      1.4840144     -1.0042486      20163.142    
    377000   1.0175427      0.0023323615   0.00091352864  21.165446      19.654395      1.511051      -0.82440799     20817.092    
    378000   1.1253612      0.0023323615  -0.0012696498   21.490893      19.819732      1.6711613     -0.69549066     21555.571    
    379000   0.98645909     0.0023323615  -0.001830315    21.042286      19.577394      1.4648917     -0.96174806     21923.878    
    380000   0.93416951     0.0023323615   0.00078938185  21.091089      19.703847      1.3872417     -0.82540004     22105.248    
    381000   0.92505322     0.0023323615   0.0043403421   21.112466      19.738762      1.373704      -0.72543234     21843.952    
    382000   0.88358473     0.0023323615  -0.0015113997   21.144363      19.83224       1.3121233     -0.68490324     21830.78     
    383000   1.0020903      0.0023323615  -0.0032469888   21.086002      19.597898      1.4881042     -0.79449546     21411.765    
    384000   0.9211826      0.0023323615  -0.0012132068   21.083135      19.715179      1.3679562     -0.73343517     21028.667    
    385000   0.83326146     0.0023323615  -0.00086296839  20.801989      19.564596      1.2373933     -0.84130756     21172.631    
    386000   1.0283956      0.0023323615   0.0028834094   21.187         19.659832      1.5271675     -0.78185797     20675.053    
    387000   1.0754808      0.0023323615   0.00042359508  21.309018      19.711929      1.597089      -0.79158048     20408.303    
    388000   0.884092       0.0023323615  -0.00034148469  20.73375       19.420874      1.3128766     -1.0333212      20416.326    
    389000   0.96127761     0.0023323615   0.00010882754  21.004844      19.577346      1.4274973     -0.99220923     19719.23     
    390000   0.99649178     0.0023323615  -0.0035531774   21.028777      19.548986      1.4797903     -0.9519153      18770.904    
    391000   1.0023693      0.0023323615   0.0061752631   21.001777      19.513259      1.4885185     -0.9970343      18030.743    
    392000   1.1168702      0.0023323615  -0.00022335493  20.870069      19.211516      1.6585523     -1.1734821      17269.594    
    393000   1.1703984      0.0023323615   0.0013422445   21.004253      19.266212      1.7380417     -1.1877402      18348.031    
    394000   1.0759021      0.0023323615  -0.00014757698  21.233842      19.636127      1.5977147     -0.80081774     19130.277    
    395000   1.0601016      0.0023323615   0.0053641404   21.062012      19.487762      1.5742509     -1.0721038      19781.411    
    396000   1.1430053      0.0023323615   0.0032519517   21.257126      19.559763      1.6973629     -0.94155145     20015.869    
    397000   0.95661556     0.0023323615   0.0021613913   20.94411       19.523536      1.4205741     -0.90270945     19480.758    
    398000   0.97798947     0.0023323615   0.0010290188   21.067098      19.614783      1.4523144     -0.78410298     18888.704    
    399000   1.0612397      0.0023323615  -0.0035364355   21.250325      19.674384      1.5759409     -0.86904454     18985.004    
    400000   1.0153957      0.0023323615  -0.00070522899  20.886476      19.378613      1.5078626     -1.116144       19516.664    
    401000   1.0740969      0.0023323615  -0.0043437912   21.09134       19.496306      1.5950339     -1.0149416      19946.39     
    402000   1.0112274      0.0023323615   0.0012217118   21.140814      19.639142      1.5016727     -0.86622629     20510.28     
    403000   1.0297489      0.0023323615   0.0027049796   21.222561      19.693384      1.5291771     -0.89368088     20825.953    
    404000   0.90006473     0.0023323615  -0.0019812809   21.166879      19.830282      1.3365961     -0.73788423     21734.924    
    405000   1.0173184      0.0023323615   0.00014292382  21.230242      19.719524      1.5107178     -0.78607108     21692.59     
    406000   1.0270097      0.0023323615   0.0017564955   21.254021      19.728912      1.5251094     -0.85385917     21004.867    
    407000   0.98812805     0.0023323615  -8.0274845e-05  21.052517      19.585147      1.4673702     -0.78192242     20498.738    
    408000   1.154615       0.0023323615   0.001758196    21.282828      19.568225      1.7146033     -0.82597546     19438.191    
    409000   0.92995806     0.0023323615  -0.00021100899  21.192402      19.811414      1.3809877     -0.80278093     19335.026    
    410000   1.1042673      0.0023323615   0.0019563072   21.145304      19.505467      1.6398369     -0.90100238     18685.059    
    411000   0.85166025     0.0023323615  -0.0037030377   20.891339      19.626624      1.2647155     -0.85356021     18996.436    
    412000   1.0318694      0.0023323615  -0.0054746199   21.164636      19.63231       1.532326      -0.94645407     19811.995    
    413000   1.225936       0.0023323615  -0.0023722239   21.472463      19.651948      1.8205149     -0.7828958      21145.158    
    414000   0.9496497      0.0023323615   0.0040211718   21.049231      19.639001      1.4102298     -0.8252631      22052.332    
    415000   0.91780569     0.0023323615  -0.0024632859   21.070917      19.707975      1.3629414     -0.8322391      21872.937    
    416000   0.94741224     0.0023323615  -0.0014686597   20.990916      19.584009      1.4069072     -0.88248878     21576.553    
    417000   0.93834582     0.0023323615  -0.00092840673  21.097176      19.703732      1.3934435     -0.83939769     21838.332    
    418000   1.078297       0.0023323615  -0.00024878099  21.286734      19.685463      1.6012711     -0.79027171     21576.255    
    419000   1.0254402      0.0023323615   0.0025698322   21.012685      19.489906      1.5227787     -0.92509439     20296.874    
    420000   0.94852544     0.0023323615   0.0021015812   20.970778      19.562218      1.4085603     -0.9041318      19508.691    
    421000   1.0275283      0.0023323615   0.0021371729   21.030982      19.505103      1.5258795     -0.98836592     20157.596    
    422000   0.97426641     0.0023323615  -0.0014674421   21.139033      19.692247      1.4467856     -0.85228123     19669.641    
    423000   1.0280416      0.0023323615  -0.0024385306   21.192575      19.665933      1.5266418     -0.91442083     19040.903    
    424000   1.097139       0.0023323615  -0.0022594098   21.377522      19.748271      1.6292514     -0.86540122     18839.575    
    425000   1.1494305      0.0023323615   0.0023581483   21.361699      19.654794      1.7069043     -0.81729882     12351.033    
    426000   1.121837       0.0023323615  -0.0017195296   21.246651      19.580723      1.665928      -0.99505419     19337.532    
    427000   0.99684282     0.0023323615   0.0030948865   21.162491      19.682179      1.4803116     -0.82182118     20522.556    
    428000   0.94142568     0.0023323615  -0.0032086551   21.128716      19.730699      1.3980171     -0.84436334     21008.789    
    429000   0.89915801     0.0023323615  -0.0028127316   20.968428      19.633179      1.3352496     -1.0007072      20478.194    
    430000   0.94449179     0.0023323615  -0.0032080418   20.856457      19.453887      1.4025703     -1.0130261      20089.828    
    431000   0.95281705     0.0023323615   0.0032214893   20.932465      19.517532      1.4149333     -0.94683777     18876.052    
    432000   1.0517315      0.0023323615   0.0022482742   21.147095      19.585274      1.5618212     -0.91119331     18056.116    
    433000   0.83646726     0.0023323615  -0.0033512993   20.75878       19.516626      1.2421539     -1.0730393      18450.448    
    434000   0.93445511     0.0023323615  -0.0013695782   20.852899      19.465233      1.3876658     -0.98444603     19899.521    
    435000   1.0283024      0.0023323615  -0.0001875105   21.173402      19.646373      1.527029      -0.87747875     20660.801    
    436000   0.98678957     0.0023323615  -0.0009579369   20.913074      19.447691      1.4653825     -1.0773006      20736.576    
    437000   0.95402631     0.0023323615   0.0016432347   21.067901      19.651172      1.4167291     -0.85356843     20460.844    
    438000   0.9081681      0.0023323615  -0.0023142322   20.792445      19.443816      1.3486296     -0.94499983     19793.985    
    439000   1.0422336      0.0023323615   0.0026379321   21.011371      19.463654      1.547717      -1.0355766      18093.206    
    440000   0.96868278     0.0023323615   0.00026282933  20.882855      19.444361      1.4384939     -0.95496523     17254.673    
    441000   0.98601438     0.0023323615  -0.0034323075   20.941536      19.477305      1.4642313     -0.99539193     17379.401    
    442000   1.0272816      0.0023323615  -0.0052361079   21.285025      19.759512      1.5255132     -0.83846844     18453.761    
    443000   0.90237349     0.0023323615   0.0028090462   20.857576      19.517552      1.3400246     -0.96430287     19427.96     
    444000   1.0175153      0.0023323615  -0.00030070984  21.022398      19.511388      1.5110102     -1.0397488      19646.09     
    445000   0.86826263     0.0023323615  -0.00046002755  20.968349      19.678979      1.28937       -0.77139843     19683.854    
    446000   0.9160972      0.0023323615  -0.00020851302  20.934068      19.573664      1.3604043     -0.79957456     20064.023    
    447000   0.98553708     0.0023323615   0.0028002685   20.940202      19.47668       1.4635226     -0.91914483     20091.503    
    448000   1.0094142      0.0023323615  -0.0036137198   21.15081       19.65183       1.4989801     -0.85806176     20444.947    
    449000   1.0968979      0.0023323615   1.8592866e-05  21.450684      19.821791      1.6288934     -0.71596397     20584.29     
    450000   1.0711201      0.0023323615  -0.0020510357   21.329404      19.73879       1.5906133     -0.79113795     20655.56     
    451000   1.0084293      0.0023323615   0.0031725569   21.122587      19.625069      1.4975175     -0.89686441     20199.079    
    452000   1.0423576      0.0023323615   0.0013808223   21.153148      19.605247      1.547901      -0.91426884     20093.06     
    453000   0.95761118     0.0023323615  -0.0017861855   21.125556      19.703504      1.4220526     -0.78017346     19627.67     
    454000   0.98355935     0.0023323615   0.00048307107  20.957978      19.497392      1.4605856     -0.90753871     18879.315    
    455000   0.87227272     0.0023323615  -0.0031647818   20.90103       19.605705      1.295325      -0.84014215     18988.056    
    456000   1.0497496      0.0023323615   0.0020227868   21.243744      19.684866      1.5588781     -0.88605078     19588.495    
    457000   0.83880477     0.0023323615   0.0035306102   20.89809       19.652465      1.2456251     -0.72617417     20541.009    
    458000   0.95275413     0.0023323615  -0.0005720075   20.868044      19.453205      1.4148399     -0.96412417     20874.298    
    459000   1.0616147      0.0023323615   0.0019135363   21.177662      19.601164      1.5764978     -0.8352476      21222.66     
    460000   0.91382294     0.0023323615  -0.00095458277  21.041032      19.684005      1.3570271     -0.78376708     20753.947    
    461000   1.00762        0.0023323615  -0.0017604696   21.123857      19.627541      1.4963158     -0.93289434     19970.332    
    462000   1.2221034      0.0023323615  -0.00015771564  21.401314      19.586491      1.8148236     -0.8435823      19868.821    
    463000   1.022293       0.0023323615   0.0034040554   21.258603      19.740498      1.518105      -0.81391222     18929.592    
    464000   0.97851666     0.0023323615  -0.00060318968  21.234603      19.781505      1.4530972     -0.68425038     19024.186    
    465000   0.79028246     0.0023323615   0.0010095637   20.771246      19.597676      1.1735695     -0.81415388     20091.858    
    466000   1.0066277      0.0023323615   0.00052120559  21.130536      19.635694      1.4948421     -0.86340613     20742.704    
    467000   0.91064134     0.0023323615   0.0042956652   21.076207      19.723905      1.3523024     -0.77037688     20392.046    
    468000   1.0913706      0.0023323615  -0.00020427895  21.4192        19.798514      1.6206854     -0.7637873      20855.53     
    469000   0.8925069      0.0023323615  -0.00091209984  21.109135      19.783762      1.3253728     -0.77309065     21441.552    
    470000   1.0524459      0.0023323615  -0.002658634    21.261099      19.698217      1.5628822     -0.83097484     21174.535    
    471000   1.2584354      0.0023323615  -0.0031535006   21.651262      19.782486      1.8687766     -0.76372639     21546.297    
    472000   0.95101851     0.0023323615  -0.0012803704   20.916957      19.504695      1.4122625     -0.8905547      21686.105    
    473000   0.83313341     0.0023323615  -0.0011612493   20.913698      19.676495      1.2372031     -0.6956866      21580.033    
    474000   0.86668189     0.0023323615  -0.002989728    21.068341      19.781318      1.2870226     -0.72164406     22206.506    
    475000   0.91046153     0.0023323615   0.00096374455  21.271748      19.919712      1.3520354     -0.66009738     22009.917    
    476000   0.97160169     0.0023323615   0.0027390007   21.124582      19.681754      1.4428285     -0.79717556     21657.778    
    477000   0.97856762     0.0023323615  -0.001386274    20.990299      19.537126      1.4531729     -0.82517225     21340.272    
    478000   0.97435829     0.0023323615   0.00019388491  21.153677      19.706755      1.4469221     -0.7507934      20997.254    
    479000   0.92442623     0.0023323615   0.0024041223   21.186694      19.813921      1.372773      -0.66347304     21053.484    
    480000   0.96459601     0.0023323615  -0.00032385355  20.961865      19.52944       1.4324251     -0.81314312     20344.608    
    481000   0.90249619     0.0023323615  -0.0019481044   21.002569      19.662362      1.3402068     -0.85345384     18674.676    
    482000   1.1433552      0.0023323615   0.0027166944   21.390003      19.69212       1.6978825     -0.81340741     18278.635    
    483000   0.92627239     0.0023323615  -0.0068628411   21.162317      19.786802      1.3755145     -0.80415084     18611.311    
    484000   0.83372926     0.0023323615  -0.00082569913  20.870099      19.632011      1.238088      -0.92805623     19599.396    
    485000   0.89475266     0.0023323615   0.0014068883   21.020102      19.691394      1.3287077     -0.79937563     20711.24     
    486000   0.98479841     0.0023323615   0.00096069636  21.1086        19.646174      1.4624256     -0.7499037      21225.919    
    487000   0.95105339     0.0023323615  -0.00048876367  21.02127       19.608955      1.4123143     -0.85349719     20785.143    
    488000   1.0546255      0.0023323615  -0.0017251776   21.172946      19.606827      1.5661189     -0.81088714     21916.787    
    489000   0.91946869     0.0023323615   0.003434358    21.060898      19.695487      1.365411      -0.78961649     20208.33     
    490000   1.0002285      0.0023323615   0.0019966667   21.043487      19.558147      1.4853394     -0.980025       19045.531    
    491000   1.0354163      0.0023323615  -0.0021531874   21.208884      19.671291      1.5375932     -0.8558066      19471.747    
    492000   1.1157327      0.0023323615  -0.00064566341  21.446351      19.789488      1.6568631     -0.76657486     19829.703    
    493000   1.0182915      0.0023323615  -0.0018196438   21.049353      19.53719       1.5121629     -0.86069072     20463.818    
    494000   0.91855982     0.0023323615  -0.0018674336   20.797449      19.433388      1.3640613     -1.1390488      20365.617    
    495000   0.8715517      0.0023323615   0.0048790238   20.799793      19.505539      1.2942543     -0.91941848     19545.457    
    496000   0.9419118      0.0023323615  -0.001791272    20.827         19.428261      1.398739      -1.0532081      19004.597    
    497000   0.97953633     0.0023323615   0.00069492201  20.821725      19.367113      1.4546114     -1.0485333      17234.184    
    498000   0.85629451     0.0023323615   0.0008305302   20.66828       19.396683      1.2715973     -0.94351756     15959.544    
    499000   0.88618547     0.0023323615   0.0034908304   20.924164      19.608179      1.3159854     -0.97648583     17355.633    
    500000   0.96054895     0.0023323615   0.0014674602   20.944093      19.517677      1.4264152     -0.99895813     19062.43     
    501000   1.1719959      0.0023323615   0.0012528671   21.238532      19.498118      1.740414      -0.83821299     19364.13     
    502000   0.94283624     0.0023323615   0.0044693087   20.880535      19.480424      1.4001118     -1.0378891      18800.877    
    503000   0.97610067     0.0023323615   0.0015178966   20.936303      19.486794      1.4495095     -0.92566943     17828.365    
    504000   0.96180919     0.0023323615   0.0028637017   20.899821      19.471534      1.4282867     -0.93716588     16428.748    
    505000   0.97488093     0.0023323615  -0.0021129009   20.874275      19.426577      1.4476982     -1.0057796      16866.73     
    506000   1.043256       0.0023323615   0.00080666464  21.039877      19.490642      1.5492352     -0.98550862     18675.078    
    507000   1.0471016      0.0023323615   0.00041801873  21.160158      19.605212      1.5549458     -0.83768397     19915.482    
    508000   1.068295       0.0023323615   0.00066695894  21.286935      19.700517      1.586418      -0.77909389     20793.305    
    509000   1.0131747      0.0023323615   0.00038433069  21.286794      19.78223       1.5045644     -0.78041435     21893.409    
    510000   1.0456289      0.0023323615   0.0019755152   21.319137      19.766378      1.5527589     -0.79404015     23767.497    
    511000   0.98182469     0.0023323615  -0.0039335582   21.141343      19.683333      1.4580097     -0.85445614     23655.638    
    512000   0.88062739     0.0023323615  -0.00017216551  21.071508      19.763776      1.3077317     -0.82206321     21584.965    
    513000   0.99926517     0.0023323615  -0.00042770677  21.079256      19.595347      1.4839088     -0.87371435     18994.001    
    514000   1.0360029      0.0023323615  -0.00081845869  21.282559      19.744094      1.5384643     -0.83533579     17216.022    
    515000   0.98530924     0.0023323615   0.00056222166  20.872356      19.409172      1.4631842     -0.99585257     17908.919    
    516000   1.127609       0.0023323615   0.0028095446   21.263408      19.588908      1.6744994     -0.9451453      19707.962    
    517000   0.82549848     0.0023323615   0.00040871899  20.720734      19.494868      1.2258652     -0.98294014     21283.263    
    518000   0.952903       0.0023323615  -0.0026542978   21.151828      19.736767      1.415061      -0.79436594     22201.808    
    519000   0.93853222     0.0023323615   0.00066193354  21.195976      19.802256      1.3937203     -0.67236578     21241.055    
    520000   0.97058521     0.0023323615   0.008477123    21.035835      19.594516      1.441319      -0.92675568     19889.401    
    521000   0.91795403     0.0023323615  -0.0034751736   20.810996      19.447834      1.3631617     -0.95734237     19237.008    
    522000   0.94148741     0.0023323615   0.0032149469   20.713783      19.315675      1.3981088     -1.0608357      18699.033    
    523000   1.1157412      0.0023323615   0.0029205819   21.200543      19.543667      1.6568757     -0.96484444     19443.031    
    524000   1.0077804      0.0023323615   0.0042339478   21.177098      19.680544      1.4965539     -0.898676       19578.896    
    525000   1.1539479      0.0023323615  -0.00031484596  21.290834      19.577221      1.7136126     -0.92608243     20342.054    
    526000   0.99466313     0.0023323615   0.0029596271   21.089651      19.612576      1.4770747     -0.85541115     3458.1314    
    527000   0.9673648      0.0023323615   0.00062316569  20.865207      19.42867       1.4365367     -0.96390684     13159.765    
    528000   0.94557585     0.0023323615  -0.0018185801   20.991227      19.587046      1.4041801     -0.85349229     20280.802    
    529000   0.98320357     0.0023323615   0.0014944684   20.988595      19.528537      1.4600573     -0.96361354     20335.87     
    530000   1.0773759      0.0023323615   0.0045435049   21.285029      19.685125      1.5999033     -0.79244968     21019.615    
    531000   1.0474117      0.0023323615  -0.00068200183  21.202874      19.647468      1.5554064     -0.87158105     21370.08     
    532000   1.036756       0.0023323615  -0.00069142661  21.091369      19.551786      1.5395827     -0.86581321     20292.603    
    533000   1.1666296      0.0023323615   0.00076833143  21.224789      19.492344      1.7324449     -0.84136435     19738.338    
    534000   1.0440458      0.0023323615   0.0029050577   21.397278      19.84687       1.550408      -0.71879602     20830.725    
    535000   1.0205809      0.0023323615   0.00067975102  21.045001      19.529438      1.5155626     -0.86619861     21431.939    
    536000   0.95798828     0.0023323615   0.0008331847   21.106603      19.683991      1.4226126     -0.81057671     21476.335    
    537000   1.0116528      0.0023323615  -0.0017602648   21.080623      19.578319      1.5023044     -0.85917242     21836.607    
    538000   1.0168722      0.0023323615  -0.00085263414  21.217422      19.707367      1.5100552     -0.83905054     22378.594    
    539000   0.80395208     0.0023323615  -0.00018858106  20.938283      19.744414      1.1938688     -0.64498079     22509.371    
    540000   0.95385338     0.0023323615  -0.0080136659   20.986465      19.569993      1.4164723     -0.89910125     22942.3      
    541000   0.91058772     0.0023323615   0.00012604669  20.982001      19.629778      1.3522228     -0.81159326     21789.866    
    542000   1.1002607      0.0023323615   0.0027085087   21.247182      19.613294      1.6338872     -0.9236571      20981.073    
    543000   1.0375517      0.0023323615  -0.0011529268   21.18339       19.642626      1.5407642     -0.84228331     20366.892    
    544000   1.1433566      0.0023323615   0.004682016    21.405686      19.707801      1.6978846     -0.73691605     19249.24     
    545000   1.0363584      0.0023323615  -0.0023339447   21.280834      19.741842      1.5389922     -0.92923217     19337.378    
    546000   0.9455434      0.0023323615   0.00081801891  21.009046      19.604914      1.404132      -1.0395286      20271.979    
    547000   0.96414038     0.0023323615   0.00056476433  21.178093      19.746345      1.4317485     -0.87610585     20535.789    
    548000   0.92640955     0.0023323615   0.00012226875  21.042567      19.666848      1.3757182     -0.87375275     20247.61     
    549000   0.94078782     0.0023323615  -0.00013775292  20.968509      19.571439      1.3970699     -0.87135525     20613.193    
    550000   1.0668375      0.0023323615  -0.0035573194   21.150671      19.566417      1.5842536     -0.91143708     21197.407    
    551000   1.1149579      0.0023323615  -0.0016839059   21.369198      19.713485      1.6557124     -0.78511717     22090.395    
    552000   1.1107866      0.0023323615   0.00059718033  21.381024      19.731506      1.649518      -0.87878809     22514.175    
    553000   0.98363114     0.0023323615   0.0036833034   20.986716      19.526024      1.4606922     -0.86590516     22912.897    
    554000   0.9308785      0.0023323615   0.00055979803  20.988446      19.606091      1.3823546     -0.86799211     21796.389    
    555000   0.90004461     0.0023323615  -0.00062129026  21.144785      19.808218      1.3365662     -0.77525028     21288.947    
    556000   1.0023327      0.0023323615   8.9957638e-05  21.13801       19.649546      1.4884641     -0.88518513     20580.356    
    557000   0.92711506     0.0023323615   0.0013464451   21.05835       19.681584      1.3767659     -0.80292022     19240.386    
    558000   0.94449211     0.0023323615   0.0060991921   21.00575       19.60318       1.4025708     -0.8304906      19916.106    
    559000   0.96757466     0.0023323615   0.00078613881  21.232823      19.795974      1.4368484     -0.72248969     21012.123    
    560000   1.0330143      0.0023323615   0.0023525533   21.277188      19.743162      1.5340262     -0.7731061      21253.607    
    561000   0.96037779     0.0023323615   0.0008226241   21.073296      19.647135      1.426161      -0.87865111     21227.81     
    562000   1.1226854      0.0023323615  -0.00012696136  21.547014      19.879827      1.6671878     -0.69354511     21810.412    
    563000   0.82774358     0.0023323615  -0.0033460704   20.98965       19.76045       1.2291992     -0.7621573      21546.598    
    564000   0.95047596     0.0023323615   0.0017294499   20.961459      19.550002      1.4114568     -0.90792778     22417.044    
    565000   0.98033323     0.0023323615   0.0013193747   21.187389      19.731595      1.4557948     -0.75320347     21203.666    
    566000   1.0395305      0.0023323615  -0.0019536963   21.228041      19.684338      1.5437027     -0.68877515     21749.995    
    567000   0.94364335     0.0023323615  -0.00017647149  21.00119       19.59988       1.4013104     -0.88524616     21922.838    
    568000   0.96807988     0.0023323615   0.00056462365  20.971414      19.533816      1.4375986     -0.93770128     20826.965    
    569000   0.94166012     0.0023323615  -0.0017714968   21.002032      19.603667      1.3983653     -0.97580148     20152.334    
    570000   1.0357805      0.0023323615  -0.00014046529  21.341643      19.803509      1.5381341     -0.82399072     19817.215    
    571000   1.0627492      0.0023323615   0.0023733003   21.411382      19.8332        1.5781826     -0.78064964     20112.591    
    572000   1.0431928      0.0023323615  -0.00071721306  21.288537      19.739396      1.5491414     -0.8014234      21011.04     
    573000   0.91328852     0.0023323615   0.00058596382  21.149877      19.793643      1.3562335     -0.77726449     21520.337    
    574000   1.0147316      0.0023323615  -0.0010198945   21.200104      19.693227      1.5068765     -0.77576752     22589.668    
    575000   0.90274967     0.0023323615   0.00080180724  21.016538      19.675955      1.3405833     -0.86358        22973.129    
    576000   1.0262483      0.0023323615   0.0051692243   21.198964      19.674986      1.5239787     -0.87325349     22714.59     
    577000   0.97973821     0.0023323615   0.0018578986   21.153282      19.698371      1.4549112     -0.72458554     22009.486    
    578000   1.1209022      0.0023323615   0.0024493514   21.538067      19.873528      1.6645397     -0.71037444     22440.328    
    579000   1.0140008      0.0023323615   0.00070986947  21.254567      19.748776      1.5057912     -0.83293173     21822.585    
    580000   0.87869831     0.0023323615  -0.0058927355   21.082378      19.777511      1.304867      -0.73513617     20791.828    
    581000   0.98625185     0.0023323615  -5.8468047e-05  21.128845      19.664261      1.464584      -0.76257141     20223.807    
    582000   1.0578859      0.0023323615  -0.001746822    21.425636      19.854676      1.5709605     -0.78655045     20113.536    
    583000   0.97251486     0.0023323615   0.0012308268   20.859175      19.414991      1.4441846     -1.0275177      20050.883    
    584000   0.95564947     0.0023323615  -0.0030916329   20.967813      19.548673      1.4191395     -0.90022137     19310.663    
    585000   1.0975377      0.0023323615   0.0014542713   21.348817      19.718973      1.6298435     -0.92334409     19179.745    
    586000   1.1500472      0.0023323615   0.0044692602   21.224939      19.517119      1.7078201     -0.95363882     19204.58     
    587000   0.94975243     0.0023323615  -0.00027788123  21.045593      19.635211      1.4103824     -0.96621458     19320.415    
    588000   1.0112173      0.0023323615   0.0017359546   21.013026      19.511369      1.5016576     -1.0146719      18354.208    
    589000   0.93230374     0.0023323615  -0.0010726947   20.852632      19.468161      1.3844711     -0.98133114     18392.152    
    590000   1.0611525      0.0023323615   0.0012820068   21.086572      19.51076       1.5758115     -1.0208568      18343.27     
    591000   0.9543233      0.0023323615   0.00071948926  20.773203      19.356033      1.4171701     -1.0813157      19198.057    
    592000   1.0118605      0.0023323615  -0.0030979621   21.308145      19.805532      1.5026128     -0.8323469      20499.13     
    593000   0.97261234     0.0023323615  -0.0018507398   21.281775      19.837445      1.4443293     -0.80658493     19022.475    
    594000   1.1059633      0.0023323615  -0.0038012617   21.304786      19.66243       1.6423556     -0.88256701     20145.44     
    595000   1.0651085      0.0023323615   0.0026621293   21.456187      19.874501      1.5816861     -0.71550505     20870.187    
    596000   0.92319321     0.0023323615  -0.0017378794   21.246265      19.875323      1.3709419     -0.73937411     21426.86     
    597000   1.0065462      0.0023323615   0.001401436    21.205741      19.711019      1.4947212     -0.79804466     22511.929    
    598000   1.1110072      0.0023323615   1.6749693e-05  21.460709      19.810863      1.6498457     -0.62500902     22050.782    
    599000   1.1100667      0.0023323615   0.00033948046  21.413426      19.764977      1.6484491     -0.72578565     22606.947    
    600000   1.017996       0.0023323615  -0.004078305    21.224135      19.712411      1.5117241     -0.84322167     21564.726    
    601000   1.0364128      0.0023323615  -0.00056442411  21.091849      19.552776      1.5390731     -0.84230514     20002.203    
    602000   0.97458407     0.0023323615   0.0011250559   21.032404      19.585147      1.4472573     -0.94874426     18206.792    
    603000   0.9382844      0.0023323615  -0.00032447524  20.532071      19.138719      1.3933523     -1.2664695      17482.354    
    604000   1.0107518      0.0023323615   0.0023758323   21.115706      19.61474       1.5009665     -0.89581141     18146.631    
    605000   0.89806782     0.0023323615   0.0012297885   20.807552      19.473921      1.3336307     -1.121424       18921.762    
    606000   0.84635912     0.0023323615  -0.001626016    20.596102      19.339259      1.2568433     -1.136861       19815.511    
    607000   1.0028167      0.0023323615   0.0033539976   21.246021      19.756838      1.4891827     -0.8660699      21096.251    
    608000   1.1670542      0.0023323615  -0.0013634537   21.297188      19.564113      1.7330754     -0.98248245     22152.942    
    609000   1.0188141      0.0023323615   0.0031370252   21.089107      19.576168      1.5129389     -0.90621025     22414.411    
    610000   1.0214909      0.0023323615   0.0013879727   21.032787      19.515873      1.516914      -0.91514486     20314.745    
    611000   1.1255724      0.0023323615   0.0016460104   21.368908      19.697433      1.6714749     -0.78713853     21648.721    
    612000   1.0939019      0.0023323615   0.0012600264   21.414025      19.789581      1.6244443     -0.85060186     23350.92     
    613000   0.96222789     0.0023323615  -0.00097335412  21.248718      19.81981       1.4289084     -0.66889348     22326.265    
    614000   0.9992112      0.0023323615   0.0058704922   21.197354      19.713525      1.4838286     -0.7963611      22123.597    
    615000   0.94581286     0.0023323615   0.0003380101   21.322869      19.918337      1.4045321     -0.73600234     21653.751    
    616000   1.0242419      0.0023323615  -0.0025084987   21.312781      19.791782      1.5209993     -0.74690318     20703.705    
    617000   1.0862401      0.0023323615   0.00085781381  21.251987      19.63892       1.6130665     -0.84651663     20336.467    
    618000   0.96045747     0.0023323615  -0.0014157785   21.078362      19.652082      1.4262793     -0.96538175     19795.649    
    619000   1.1278886      0.0023323615  -0.0027735974   21.375649      19.700734      1.6749146     -0.78131833     20641.724    
    620000   1.0770451      0.0023323615   0.00023105452  21.142598      19.543186      1.5994119     -0.85657516     22732.459    
    621000   1.0600439      0.0023323615  -0.0017611273   21.196247      19.622082      1.5741652     -0.84253671     22201.517    
    622000   0.98586471     0.0023323615   0.0016865021   21.184822      19.720813      1.4640091     -0.74543645     22222.044    
    623000   1.008956       0.0023323615   0.00027237737  21.121393      19.623093      1.4982997     -0.79595464     21661.645    
    624000   0.8744212      0.0023323615  -0.0040671634   20.875564      19.577048      1.2985155     -0.87982311     21228.424    
    625000   1.1939663      0.0023323615  -0.00068400739  21.455194      19.682154      1.77304       -0.79190683     21457.903    
    626000   0.91295401     0.0023323615   0.0012769364   20.911958      19.556222      1.3557367     -0.87255845     22237.026    
    627000   0.95251128     0.0023323615  -0.0015799421   21.381801      19.967322      1.4144792     -0.6918995      22017.977    
    628000   0.93352043     0.0023323615  -0.0010756157   21.0754        19.689122      1.3862778     -0.80303025     21335.829    
    629000   1.1153499      0.0023323615   0.00047103169  21.214659      19.558364      1.6562946     -0.98060345     20125.524    
    630000   1.0149981      0.0023323615   0.0004768069   21.265711      19.758439      1.5072722     -0.83783037     20485.705    
    631000   1.0268428      0.0023323615   0.0021441563   20.944416      19.419555      1.5248616     -1.0224173      21548.376    
    632000   0.93623565     0.0023323615  -0.0016268134   20.863801      19.473492      1.3903099     -0.96211392     20525.131    
    633000   0.98154117     0.0023323615   0.001907753    21.08653       19.628942      1.4575886     -0.88943084     21248.308    
    634000   0.91387546     0.0023323615  -0.00022931405  20.806106      19.449001      1.3571051     -0.89450263     21922.592    
    635000   0.99981748     0.0023323615   0.0016103452   21.317279      19.83255       1.484729      -0.73522024     22288.878    
    636000   0.99828552     0.0023323615   0.0019801803   21.094703      19.612249      1.482454      -0.84942528     22078.473    
    637000   0.95854564     0.0023323615   0.0013666273   20.949009      19.525568      1.4234403     -0.88411982     22435.657    
    638000   1.0670311      0.0023323615   0.0015139585   21.207026      19.622485      1.5845412     -0.87342358     22594.603    
    639000   1.0544172      0.0023323615  -0.0024301272   21.30451       19.7387        1.5658095     -0.73782887     23775.938    
    640000   1.1319459      0.0023323615  -0.00024595929  21.214385      19.533445      1.6809396     -0.91093241     22348.625    
    641000   0.89128397     0.0023323615  -7.1355953e-05  20.95876       19.635203      1.3235567     -0.87158651     21347.287    
    642000   1.0247081      0.0023323615   0.0010343263   21.199188      19.677496      1.5216915     -0.90883303     22572.187    
    643000   0.85181735     0.0023323615   0.00099911619  20.712542      19.447593      1.2649488     -0.97124865     23661.196    
    644000   0.94295363     0.0023323615  -0.0027956176   21.046028      19.645741      1.4002861     -0.8426506      24654.609    
    645000   0.98291006     0.0023323615  -0.0043610448   21.123369      19.663748      1.4596214     -0.88590071     25338.252    
    646000   0.96872648     0.0023323615  -0.0035904791   21.137537      19.698978      1.4385588     -0.79933773     26210.301    
    647000   1.1194841      0.0023323615   0.0049552824   21.219365      19.556931      1.6624339     -0.85795684     22520.885    
    648000   0.99955584     0.0023323615   0.0041869533   21.160525      19.676185      1.4843404     -0.82514981     21327.809    
    649000   1.167084       0.0023323615  -0.0041045875   21.271882      19.538762      1.7331198     -1.0460815      19346.43     
    650000   1.1553363      0.0023323615  -0.003353188    21.118989      19.403315      1.7156744     -1.044406       19122.503    
    651000   1.1533385      0.0023323615  -0.00063350823  21.200744      19.488037      1.7127076     -1.0604555      18019.795    
    652000   1.0366441      0.0023323615   0.0010127547   21.138196      19.59878       1.5394165     -0.9298947      17777.21     
    653000   1.0672816      0.0023323615   0.00037665776  21.230492      19.645579      1.5849131     -0.84661661     18313.558    
    654000   1.0270558      0.0023323615  -0.00047269782  21.190286      19.665108      1.5251778     -0.90902172     21271.281    
    655000   1.0318029      0.0023323615  -0.0029676552   21.30229       19.770062      1.5322273     -0.66851136     23801.405    
    656000   0.96883107     0.0023323615   0.00074491274  21.192132      19.753417      1.4387141     -0.7406686      24870.137    
    657000   0.91316525     0.0023323615  -0.0030448902   21.189161      19.83311       1.3560504     -0.75088084     24692.316    
    658000   1.1620567      0.0023323615   0.00073248941  21.467662      19.742008      1.7256542     -0.75801015     24031.257    
    659000   1.0979678      0.0023323615  -3.9967895e-05  21.218679      19.588196      1.6304822     -0.81742629     22556.455    
    660000   1.1605632      0.0023323615   7.1526489e-05  21.471411      19.747974      1.7234363     -0.75610612     21274.423    
    661000   0.96920337     0.0023323615   0.00010472487  20.921727      19.48246       1.439267      -0.97312006     18992.934    
    662000   0.93680601     0.0023323615   0.0010797447   21.061356      19.670199      1.3911569     -0.82971319     16992.153    
    663000   1.058427       0.0023323615   0.0014520614   21.139583      19.567818      1.5717641     -0.89715233     17913.406    
    664000   1.0790458      0.0023323615   0.0010176435   21.091382      19.488999      1.6023831     -0.98515269     20241.307    
    665000   0.98344844     0.0023323615  -0.0016062665   21.207426      19.747005      1.4604209     -0.80508263     22137.219    
    666000   0.89067707     0.0023323615   0.0011882996   21.318802      19.996147      1.3226555     -0.79026062     23532.853    
    667000   1.2136744      0.0023323615   0.00048451326  21.40499       19.602683      1.8023065     -0.91650583     25093.129    
    668000   1.1029512      0.0023323615   0.0020715618   21.283279      19.645396      1.6378825     -0.87771632     25428.956    
    669000   0.96430434     0.0023323615   0.00036820212  21.119364      19.687372      1.431992      -0.83314147     26045.879    
    670000   1.061399       0.0023323615   0.00086451143  21.157532      19.581354      1.5761775     -0.92494646     23918.427    
    671000   0.9806862      0.0023323615  -0.0028303406   21.061898      19.605579      1.456319      -1.0138206      20832.33     
    672000   1.0204042      0.0023323615  -0.0011911594   21.045792      19.530492      1.5153002     -0.87869132     18576.579    
    673000   0.99636541     0.0023323615   0.00097746184  20.955945      19.476342      1.4796026     -0.9564351      18142.917    
    674000   0.92306506     0.0023323615  -0.0011500803   20.828961      19.45821       1.3707516     -0.99156923     19004.926    
    675000   1.0663542      0.0023323615   0.0014010801   21.324754      19.741218      1.5835359     -0.73844165     19535.281    
    676000   0.99656439     0.0023323615   0.0015558842   21.141282      19.661384      1.4798981     -0.75557144     19921.52     
    677000   0.92762692     0.0023323615  -0.0019694584   21.112677      19.735151      1.377526      -0.6804432      21918.226    
    678000   0.88018287     0.0023323615  -0.00016787571  21.171165      19.864093      1.3070716     -0.64187241     24665.826    
    679000   0.89599816     0.0023323615   0.00011173973  20.900523      19.569966      1.3305573     -0.78443517     24833.795    
    680000   0.95438963     0.0023323615  -0.00045063954  21.261261      19.843993      1.4172686     -0.55467693     25278.944    
    681000   0.932706       0.0023323615  -0.0020933875   21.226194      19.841125      1.3850684     -0.64591597     24471.954    
    682000   1.0365981      0.0023323615   0.00055269278  21.343791      19.804443      1.5393481     -0.65090177     22010.718    
    683000   0.94212518     0.0023323615  -0.00019124211  20.979962      19.580906      1.3990559     -0.93439504     20265.456    
    684000   0.87934065     0.0023323615  -0.0015734024   21.007583      19.701762      1.3058209     -0.78748842     19413.254    
    685000   0.92907084     0.0023323615  -0.006525255    21.030864      19.651194      1.3796702     -0.89850763     19792.913    
    686000   0.94499941     0.0023323615   0.0037159378   20.96954       19.566216      1.4033241     -0.84503238     20031.938    
    687000   1.0045642      0.0023323615   0.0010724347   21.106704      19.614926      1.4917779     -0.87254165     20416.338    
    688000   1.0748946      0.0023323615   0.001469443    21.444418      19.848199      1.5962186     -0.6492753      21101.515    
    689000   1.1188682      0.0023323615   0.00011955693  21.315692      19.654173      1.6615193     -0.8505118      22041.774    
    690000   0.99290171     0.0023323615  -0.0050630614   21.245328      19.770869      1.474459      -0.84457001     22140.258    
    691000   0.96059705     0.0023323615  -0.00037317937  20.925733      19.499247      1.4264866     -0.97925049     22224.034    
    692000   0.94815057     0.0023323615   0.0013023371   20.914234      19.506231      1.4080036     -0.95105832     21177.73     
    693000   1.0355833      0.0023323615  -0.0010171598   21.259867      19.722026      1.5378413     -0.74908599     20531.565    
    694000   0.99382334     0.0023323615   0.00099611156  21.056527      19.5807        1.4758277     -0.86843843     20643.462    
    695000   1.115636       0.0023323615  -0.0024368941   21.242133      19.585413      1.6567194     -0.85423442     21312.394    
    696000   1.0367979      0.0023323615   0.0024790425   21.388292      19.848647      1.5396449     -0.71692027     20879.547    
    697000   0.98867036     0.0023323615   0.0012100268   21.120975      19.6528        1.4681755     -0.9108525      19381.638    
    698000   1.0515225      0.0023323615  -0.0035968674   21.077832      19.516321      1.561511      -1.0305082      18626.711    
    699000   1.0592228      0.0023323615   0.00017600798  21.149476      19.576531      1.5729458     -0.97164961     19204.356    
    700000   0.89962358     0.0023323615   0.00079369897  20.907559      19.571618      1.335941      -0.91825148     19002.042    
    701000   1.0620821      0.0023323615   0.0062032604   21.132729      19.555537      1.577192      -0.95677991     19490.668    
    702000   1.0418407      0.0023323615  -0.0060020045   21.206882      19.659749      1.5471335     -0.84931224     19371.79     
    703000   0.88430147     0.0023323615  -0.00063693888  20.829842      19.516654      1.3131877     -0.90993549     19146.434    
    704000   1.0708142      0.0023323615  -0.00027075019  20.980123      19.389964      1.5901591     -0.96326274     19170.9      
    705000   1.029311       0.0023323615  -0.00047672332  21.08555       19.557023      1.5285268     -0.94776361     20295.471    
    706000   0.98705152     0.0023323615  -0.0021839115   20.981693      19.515922      1.4657715     -0.91614014     20658.612    
    707000   0.91862323     0.0023323615  -0.0049145025   21.041404      19.677249      1.3641555     -0.81115243     20678.587    
    708000   0.98622008     0.0023323615   0.00057755479  21.073301      19.608764      1.4645368     -0.8444688      20801.058    
    709000   1.0116149      0.0023323615   0.0021737611   21.037218      19.534969      1.5022481     -0.91783477     20709.449    
    710000   1.0510915      0.0023323615  -0.0012147112   21.327064      19.766193      1.5608709     -0.60697749     20201.262    
    711000   1.0259663      0.0023323615  -0.0028246709   21.059647      19.536087      1.52356       -0.85325308     19802.003    
    712000   0.86493977     0.0023323615  -4.5202464e-05  20.899435      19.615         1.2844356     -0.80361134     20034.475    
    713000   0.92404532     0.0023323615   0.0024954841   21.134642      19.762434      1.3722073     -0.83089237     20448.122    
    714000   0.9682296      0.0023323615  -0.0013084824   20.954863      19.517043      1.4378209     -0.89749103     20067.722    
    715000   1.032573       0.0023323615   0.0013627798   21.101587      19.568216      1.533371      -0.90992271     19501.925    
    716000   1.1183829      0.0023323615   0.0018726696   21.351284      19.690485      1.6607986     -0.77434545     20496.571    
    717000   0.97812872     0.0023323615   0.00050700493  20.944397      19.491876      1.4525211     -1.0083857      20931.872    
    718000   0.91941623     0.0023323615   0.0050597027   21.060226      19.694893      1.3653331     -0.75855726     20192.487    
    719000   1.0428404      0.0023323615   0.0029271795   21.366871      19.818254      1.5486179     -0.68547122     19768.021    
    720000   0.98823494     0.0023323615  -0.0012950551   21.225928      19.758399      1.4675289     -0.71899646     19883.51     
    721000   0.98038387     0.0023323615  -0.0022208299   21.10193       19.646059      1.45587       -0.81701722     19261.294    
    722000   0.9750914      0.0023323615   0.00011266704  20.98117       19.533159      1.4480107     -0.80836538     20054.062    
    723000   1.0730594      0.0023323615  -0.0001385287   21.36072       19.767227      1.5934932     -0.68785692     21453.249    
    724000   1.0879855      0.0023323615  -0.0019970432   21.373734      19.758076      1.6156584     -0.67531891     21212.512    
    725000   0.93926403     0.0023323615   0.0042275346   21.114305      19.719498      1.3948071     -0.787564       20295.141    
    726000   0.98119886     0.0023323615  -0.0026568317   21.037112      19.580032      1.4570803     -0.9328408      19593.182    
    727000   0.90946834     0.0023323615   0.0010619991   21.021863      19.671303      1.3505605     -0.85519223     18983.921    
    728000   0.98726712     0.0023323615  -0.0030659336   21.083971      19.617879      1.4660917     -0.86597041     18557.438    
    729000   0.86889849     0.0023323615  -0.0019405221   20.645366      19.355052      1.2903143     -1.0868158      17896.515    
    730000   1.0186404      0.0023323615  -0.0011859927   20.969474      19.456793      1.512681      -0.99965839     17776.121    
    731000   1.1189374      0.0023323615   0.00040669076  21.239591      19.577969      1.6616221     -0.90672026     18569.239    
    732000   1.0553897      0.0023323615  -0.0031583401   21.088638      19.521384      1.5672538     -0.91766003     18825.242    
    733000   0.97466741     0.0023323615  -0.00085329103  21.137198      19.689817      1.4473811     -0.84310527     19425.045    
    734000   0.98113487     0.0023323615  -0.0022984733   21.182634      19.725649      1.4569853     -0.82367696     19554.42     
    735000   1.0837831      0.0023323615  -0.0054024741   21.226058      19.61664       1.6094178     -0.95899669     19411.638    
    736000   0.99626743     0.0023323615   3.8520644e-07  21.2374        19.757942      1.4794571     -0.75472512     19257.44     
    737000   1.1202216      0.0023323615  -0.0008535246   21.342633      19.679103      1.6635291     -0.82413783     20060.003    
    738000   1.0045514      0.0023323615  -0.0018410821   21.111383      19.619625      1.4917588     -0.83165884     22129.837    
    739000   1.1104854      0.0023323615  -0.00097413286  21.16737       19.518299      1.6490708     -0.92658016     22225.895    
    740000   0.89893233     0.0023323615   0.0003828      20.80967       19.474756      1.3349145     -0.91253833     20888.859    
    741000   0.95731102     0.0023323615   0.00093182334  20.98092       19.559313      1.4216069     -0.88615802     20422.864    
    742000   0.93916214     0.0023323615   0.0016681725   20.910969      19.516313      1.3946558     -0.95867932     20234.364    
    743000   1.1942859      0.0023323615   0.0042968121   21.241576      19.468061      1.7735146     -0.93432929     19277.134    
    744000   1.1597078      0.0023323615   0.0047499513   21.218178      19.496012      1.722166      -1.0355753      18521.336    
    745000   1.0838937      0.0023323615   0.0014480127   21.323262      19.71368       1.6095821     -0.82470136     18758.582    
    746000   0.91079678     0.0023323615   0.0047717685   21.070652      19.718119      1.3525332     -0.79454107     20136.482    
    747000   0.90411902     0.0023323615   0.0027572221   21.102953      19.760336      1.3426167     -0.83481191     21007.665    
    748000   0.84973505     0.0023323615  -0.00099419338  21.183978      19.922121      1.2618565     -0.66188736     21980.995    
    749000   1.0477639      0.0023323615   0.0027564384   21.201715      19.645786      1.5559294     -0.87520405     22676.145    
    750000   1.0211073      0.0023323615  -0.002240446    21.285573      19.769229      1.5163444     -0.87356416     22862.376    
    751000   0.94061304     0.0023323615   0.00088012518  21.107231      19.710421      1.3968104     -0.75364256     22022.987    
    752000   0.93039345     0.0023323615   0.0023796954   21.110078      19.728444      1.3816343     -0.72238713     20931.407    
    753000   1.0267862      0.0023323615  -0.0036011289   21.139327      19.614549      1.5247774     -0.87751618     19713.563    
    754000   0.93745546     0.0023323615  -9.4708543e-05  21.010249      19.618127      1.3921214     -0.88603557     18255.878    
    755000   0.93576779     0.0023323615   0.0014560933   21.013498      19.623882      1.3896152     -0.80065639     17893.893    
    756000   1.0158427      0.0023323615  -2.550151e-05   21.040559      19.532032      1.5085264     -0.92088197     18551.775    
    757000   0.96203312     0.0023323615   0.0044428108   20.923409      19.49479       1.4286192     -0.93079051     19415.882    
    758000   1.1515789      0.0023323615   0.00034872886  21.223903      19.513808      1.7100946     -0.91301813     20842.074    
    759000   1.0064366      0.0023323615   0.0014097178   21.053438      19.55888       1.4945584     -0.88119095     22247.058    
    760000   0.85461588     0.0023323615   0.00079355692  20.916499      19.647394      1.2691046     -0.8444211      22900.768    
    761000   1.1341995      0.0023323615   0.00058528342  21.474534      19.790248      1.6842862     -0.81601169     22767.143    
    762000   1.0149399      0.0023323615  -0.0007186125   21.300696      19.793511      1.5071857     -0.77051204     22209.204    
    763000   1.0100468      0.0023323615   0.00060641881  21.122887      19.622968      1.4999195     -0.91258936     21149.261    
    764000   1.014278       0.0023323615  -0.0019992392   21.185069      19.678867      1.5062028     -0.83981406     20266.226    
    765000   0.95222349     0.0023323615  -0.0022949804   21.004548      19.590496      1.4140519     -0.87774923     18847.231    
    766000   0.94792985     0.0023323615  -0.0024785978   21.229055      19.821379      1.4076758     -0.76000597     18236.698    
    767000   0.9651697      0.0023323615  -0.00081525406  21.148553      19.715276      1.433277      -0.82604711     19226.088    
    768000   1.1456589      0.0023323615  -0.00055210273  21.51738       19.816076      1.7013034     -0.9068978      19891.546    
    769000   0.90181393     0.0023323615   0.0021197668   20.864235      19.525041      1.3391937     -0.90842889     19348.436    
    770000   1.125115       0.0023323615  -0.00089735051  21.255645      19.584849      1.6707958     -0.89100219     19717.571    
    771000   1.0599315      0.0023323615   0.00060440102  21.085898      19.5119        1.5739983     -0.98131341     19830.27     
    772000   1.0514302      0.0023323615  -0.001995762    21.285157      19.723783      1.5613739     -0.76018187     20080.387    
    773000   0.99796238     0.0023323615   0.0021195191   21.21447       19.732496      1.4819741     -0.77461382     19427.242    
    774000   1.2156221      0.0023323615   0.00015753205  21.589796      19.784597      1.8051988     -0.68861384     19692.561    
    775000   1.0579798      0.0023323615   0.0012654425   21.328883      19.757783      1.5711        -0.77411146     19490.865    
    776000   1.1818558      0.0023323615  -0.00071955611  21.336472      19.581416      1.7550558     -0.87572757     19344.394    
    777000   1.0987038      0.0023323615   5.6604151e-05  21.252868      19.621293      1.6315752     -0.85384912     19369.538    
    778000   1.0482652      0.0023323615   0.0001190504   21.204151      19.647477      1.5566738     -0.8714969      18280.901    
    779000   1.0587031      0.0023323615  -0.0019591177   21.214492      19.642318      1.5721741     -0.96060738     17369.69     
    780000   0.96780043     0.0023323615  -0.0019935356   21.038706      19.601523      1.4371836     -0.83475687     16674.758    
    781000   1.0084121      0.0023323615  -0.00099459427  21.079295      19.581803      1.497492      -0.89815925     16886.305    
    782000   1.0728284      0.0023323615   0.0013550724   21.311503      19.718353      1.5931501     -0.93852053     18331.983    
    783000   1.0317461      0.0023323615   0.0056114301   21.288572      19.756429      1.5321429     -0.77843238     19403.317    
    784000   1.121404       0.0023323615   0.0021138153   21.407566      19.742281      1.6652849     -0.8648211      20123.235    
    785000   1.0766743      0.0023323615   0.0024501005   21.120018      19.521156      1.5988614     -0.95817565     20545.249    
    786000   1.1550651      0.0023323615  -0.0047236155   21.279283      19.564011      1.7152716     -0.88281272     20870.767    
    787000   1.1408423      0.0023323615  -0.0029670059   21.245647      19.551496      1.6941508     -0.88591278     20383.675    
    788000   1.0666326      0.0023323615  -0.0025211034   21.38356       19.79961       1.5839494     -0.80103163     20567.387    
    789000   1.055402       0.0023323615  -0.0018873238   21.122885      19.555613      1.5672719     -0.95813513     19472.644    
    790000   1.1515144      0.0023323615  -0.00043124987  21.128557      19.418558      1.7099989     -0.97490621     18524.031    
    791000   1.054935       0.0023323615  -0.0025680974   21.388497      19.821918      1.5665785     -0.77684424     19129.807    
    792000   1.1856177      0.0023323615   0.003682796    21.334854      19.574212      1.7606423     -0.84824881     20507.482    
    793000   0.95952681     0.0023323615  -0.00022397039  21.005862      19.580965      1.4248973     -0.87652865     20970.379    
    794000   0.95642973     0.0023323615   0.0013990624   21.113757      19.693459      1.4202982     -0.86482964     20688.175    
    795000   0.95737856     0.0023323615  -0.0029044452   21.195687      19.77398       1.4217072     -0.69669946     20793.665    
    796000   0.98219928     0.0023323615   0.0041222904   21.155342      19.696776      1.4585659     -0.76499186     19800.778    
    797000   0.93662071     0.0023323615  -0.0024726444   21.042264      19.651383      1.3908818     -0.81176566     19355.438    
    798000   0.96744665     0.0023323615  -0.00088543965  21.250495      19.813836      1.4366583     -0.74228077     19623.645    
    799000   0.9907782      0.0023323615   0.0020300164   21.236514      19.765208      1.4713056     -0.79943355     19937.326    
    800000   1.0335973      0.0023323615   0.0029710892   21.217992      19.6831        1.534892      -0.88103049     19543.489    
    801000   1.0806447      0.0023323615   2.9700749e-05  21.49061       19.885852      1.6047573     -0.66916688     19935.016    
    802000   0.94994873     0.0023323615   0.0014731719   21.293797      19.883124      1.4106739     -0.66829256     20767.936    
    803000   0.82850376     0.0023323615   0.00063255096  20.864488      19.63416       1.2303281     -0.88007879     21550.539    
    804000   0.95951349     0.0023323615   0.0011736606   21.077885      19.653007      1.4248775     -0.92617066     21228.799    
    805000   1.0659821      0.0023323615  -0.0030401545   21.285395      19.702411      1.5829834     -0.81836188     20170.514    
    806000   1.0011513      0.0023323615  -0.0012100415   21.131096      19.644386      1.4867097     -0.87463304     18799.014    
    807000   1.0062245      0.0023323615  -0.0014990485   21.354605      19.860361      1.4942433     -0.7639099      17339.427    
    808000   1.0447416      0.0023323615   0.00048152926  21.183097      19.631655      1.5514413     -0.80671602     16670.43     
    809000   0.90833606     0.0023323615  -0.00032777381  21.068188      19.719309      1.348879      -0.70124579     18067.709    
    810000   0.95679352     0.0023323615   0.0017090905   20.963027      19.542188      1.4208384     -0.8928626      20380.458    
    811000   1.0360587      0.0023323615  -0.0005561184   21.097696      19.559149      1.5385471     -0.79265439     21766.021    
    812000   1.0269974      0.0023323615   0.0011498946   21.255128      19.730037      1.5250912     -0.72310996     22261.576    
    813000   0.89980869     0.0023323615  -0.00093481721  21.055262      19.719046      1.3362159     -0.71507791     22490.022    
    814000   0.94216195     0.0023323615  -0.0016060276   21.198741      19.799631      1.3991105     -0.73620031     22114.657    
    815000   0.94659305     0.0023323615  -0.0048423543   20.938969      19.533279      1.4056907     -0.91809839     21331.73     
    816000   0.98841862     0.0023323615  -0.0016526743   21.234597      19.766795      1.4678017     -0.80771763     19990.473    
    817000   1.0825819      0.0023323615  -0.0014369611   21.222182      19.614548      1.6076342     -0.88239482     19596.544    
    818000   1.1563774      0.0023323615   0.0016831498   21.327144      19.609924      1.7172204     -0.93757903     20951.811    
    819000   1.0081796      0.0023323615   0.0026257155   21.050641      19.553494      1.4971466     -0.94553635     20725.066    
    820000   0.97945447     0.0023323615  -0.00010972961  21.130133      19.675644      1.4544899     -0.69243628     19933.105    
    821000   0.99127632     0.0023323615   0.0020395767   21.25528       19.783235      1.4720453     -0.75289463     20820.175    
    822000   0.84785031     0.0023323615   0.00050944521  21.111831      19.852773      1.2590577     -0.75000909     21563.608    
    823000   1.0416321      0.0023323615   0.0026193839   21.039602      19.492778      1.5468236     -0.89582389     22077.511    
    824000   0.94853698     0.0023323615  -0.0035482715   21.248578      19.840001      1.4085774     -0.6668498      21460.357    
    825000   1.0305655      0.0023323615  -0.00020503005  21.064569      19.534179      1.5303898     -0.87289531     16549.151    
    826000   1.1413868      0.0023323615   0.0038259302   21.225908      19.530949      1.6949594     -0.92653124     18733.398    
    827000   1.1232769      0.0023323615   0.0032081717   21.264587      19.596521      1.6680662     -0.83211063     18911.154    
    828000   1.0465426      0.0023323615   0.0003174232   21.111346      19.55723       1.5541157     -0.97810383     18706.788    
    829000   1.1198119      0.0023323615   0.0048162812   21.323472      19.660551      1.6629207     -0.84573403     17731.172    
    830000   1.1442735      0.0023323615  -0.000298372    21.514575      19.815329      1.6992461     -0.79947378     19708.966    
    831000   1.0867532      0.0023323615   0.0022467198   21.343477      19.729649      1.6138285     -0.73197506     20957.583    
    832000   0.92227422     0.0023323615   0.0019415385   21.107685      19.738108      1.3695772     -0.8049197      22863.592    
    833000   0.92661651     0.0023323615   0.001206425    21.122665      19.74664       1.3760255     -0.66701165     23050.502    
    834000   0.97403379     0.0023323615   0.0038241849   21.122296      19.675855      1.4464402     -0.8238815      22655.613    
    835000   0.97130045     0.0023323615   0.0037414385   21.162135      19.719754      1.4423812     -0.69112386     21558.979    
    836000   0.95490359     0.0023323615  -0.0015628728   21.212892      19.79486       1.4180318     -0.71047743     20610.706    
    837000   0.90034774     0.0023323615  -0.0011788429   21.09517       19.758154      1.3370164     -0.73444566     21138.642    
    838000   1.131919       0.0023323615   0.00078368879  21.568481      19.887582      1.6808997     -0.66615948     21637.893    
    839000   1.0969172      0.0023323615  -0.0019991685   21.336872      19.70795       1.628922      -0.81150303     19555.597    
    840000   1.0937854      0.0023323615  -0.00015236252  21.281803      19.657532      1.6242714     -0.87058282     19647.564    
    841000   1.0230023      0.0023323615   0.0053616749   21.230958      19.7118        1.5191583     -0.82508277     21340.217    
    842000   0.9972235      0.0023323615  -0.0016583536   21.264338      19.783461      1.4808769     -0.75808457     21078.591    
    843000   0.94993754     0.0023323615   0.0050148971   21.216594      19.805937      1.4106572     -0.71411313     20588.684    
    844000   1.005891       0.0023323615   0.0015738696   21.068925      19.575177      1.4937481     -0.87230676     20990.272    
    845000   1.0456768      0.0023323615  -0.00023650199  21.208544      19.655714      1.55283       -0.83338962     21381.241    
    846000   0.88965376     0.0023323615   0.00077029162  20.958107      19.636971      1.3211358     -0.84370946     21620.243    
    847000   0.99094691     0.0023323615  -0.0021784797   21.120091      19.648534      1.4715562     -0.81227543     21859.797    
    848000   0.74428687     0.0023323615  -0.0040671887   21.007818      19.902552      1.105266      -0.58635724     23686.479    
    849000   0.87020921     0.0023323615  -0.002789526    21.292053      19.999792      1.2922607     -0.61624221     25043.334    
    850000   1.0642533      0.0023323615   0.0052186368   21.360562      19.780146      1.5804161     -0.69246118     25498.882    
    851000   0.91363112     0.0023323615   0.0010096111   21.203388      19.846645      1.3567422     -0.66264941     22466.69     
    852000   0.92575418     0.0023323615   0.00029430472  20.900965      19.52622       1.374745      -0.92295431     20403.831    
    853000   1.1007619      0.0023323615   0.0012641196   21.409833      19.775202      1.6346314     -0.82992274     20240.289    
    854000   0.86220696     0.0023323615   0.0030845371   20.918868      19.63849       1.2803773     -0.86871252     21516.139    
    855000   0.88985046     0.0023323615   0.0017623832   21.097508      19.77608       1.3214279     -0.69914015     22665.258    
    856000   0.95901411     0.0023323615   0.00051455648  21.120175      19.696039      1.424136      -0.7120461      23616.537    
    857000   0.86416442     0.0023323615   0.0012024674   21.008536      19.725252      1.2832842     -0.76141329     22209.248    
    858000   1.0296168      0.0023323615   0.0011048004   21.33505       19.806069      1.5289809     -0.71327751     21472.449    
    859000   0.87366062     0.0023323615  -0.002341311    20.73648       19.439093      1.297386      -1.0339046      22350.948    
    860000   0.97370506     0.0023323615   0.0039988314   21.000948      19.554996      1.445952      -0.90627706     22286.076    
    861000   0.88279535     0.0023323615  -0.0016326406   21.098167      19.787216      1.3109511     -0.72485363     21410.539    
    862000   0.93949586     0.0023323615  -0.0035058995   20.973216      19.578065      1.3951514     -0.84318722     20595.065    
    863000   0.97380987     0.0023323615   0.0059528414   20.908909      19.462801      1.4461077     -1.0657138      18460.915    
    864000   1.0199477      0.0023323615  -0.0024208645   20.982033      19.467411      1.5146223     -1.0395915      17322.214    
    865000   0.9849959      0.0023323615   0.0058614479   21.148534      19.685815      1.4627189     -0.82956204     17478.153    
    866000   1.0561882      0.0023323615   2.0795298e-05  21.062638      19.494199      1.5684395     -0.9303447      18950.484    
    867000   1.0563058      0.0023323615  -0.0018170004   21.078935      19.510321      1.5686141     -0.87825024     20190.155    
    868000   0.98346285     0.0023323615   0.00018096198  21.040332      19.57989       1.4604423     -0.93915429     21168.702    
    869000   0.96030975     0.0023323615   0.0038531036   20.983422      19.557362      1.42606       -0.92851955     21226.51     
    870000   0.98566068     0.0023323615  -0.0018731544   21.367752      19.904046      1.4637061     -0.75950487     21842.58     
    871000   0.94870138     0.0023323615  -0.0030717007   21.114173      19.705351      1.4088215     -0.73531962     22425.713    
    872000   0.97794405     0.0023323615  -0.0017766751   21.167782      19.715535      1.4522469     -0.72225132     22405.515    
    873000   0.94134393     0.0023323615  -0.00111176     21.059042      19.661146      1.3978957     -0.87950502     21095.391    
    874000   0.91603854     0.0023323615  -0.0024754201   20.668476      19.308159      1.3603172     -1.0284784      19687.356    
    875000   1.165238       0.0023323615   0.0030997973   21.437795      19.707416      1.7303785     -0.898235       18363.907    
    876000   1.0457327      0.0023323615   0.0012851109   20.935039      19.382126      1.5529131     -0.94202873     16670.282    
    877000   0.88391037     0.0023323615  -0.00085009803  20.802786      19.490179      1.3126069     -1.1195817      16046.315    
    878000   1.0982384      0.0023323615  -0.002095358    20.905107      19.274223      1.6308841     -1.1686359      16370.138    
    879000   0.95853538     0.0023323615   0.0043310945   21.063806      19.640381      1.423425      -0.83744162     18412.142    
    880000   0.9888022      0.0023323615   0.00072564759  21.155495      19.687124      1.4683713     -0.79900328     19773.786    
    881000   1.0036707      0.0023323615   0.0054122081   20.99038       19.499929      1.4904509     -0.89635569     20488.303    
    882000   0.91382098     0.0023323615  -0.00025354511  21.146108      19.789084      1.3570242     -0.65809311     21042.197    
    883000   1.0669105      0.0023323615   0.0034227371   21.020366      19.436004      1.584362      -0.9173415      21000.188    
    884000   1.0080262      0.0023323615   0.003688941    21.15082       19.653901      1.4969189     -0.87066362     19490.69     
    885000   1.0417607      0.0023323615   0.00034290844  21.097575      19.550561      1.5470146     -0.81835565     17701.767    
    886000   0.96579935     0.0023323615   0.00089485256  21.179527      19.745315      1.434212      -0.77511539     16194.622    
    887000   1.0499106      0.0023323615  -0.00023755288  21.243779      19.684662      1.5591173     -0.82531779     15178.068    
    888000   0.95265767     0.0023323615  -9.6130573e-06  20.967532      19.552835      1.4146966     -0.93150591     15913.182    
    889000   1.0729719      0.0023323615  -0.0032354345   21.260464      19.667101      1.5933632     -0.91020051     17644.891    
    890000   0.95497444     0.0023323615  -0.0042618288   21.298552      19.880415      1.418137      -0.74688369     19444.485    
    891000   0.89403548     0.0023323615  -0.0014377814   21.105017      19.777374      1.3276427     -0.8017739      20897.706    
    892000   0.91879021     0.0023323615   2.8963534e-05  21.232166      19.867763      1.3644035     -0.70577581     23001.86     
    893000   0.96283365     0.0023323615  -0.0019400771   21.34519       19.915382      1.429808      -0.64091968     24076.838    
    894000   0.88876124     0.0023323615   0.00072723444  21.080735      19.760925      1.3198104     -0.74768406     25264.08     
    895000   0.92761516     0.0023323615   2.1933126e-05  21.13014       19.752632      1.3775085     -0.85359195     24645.606    
    896000   0.99124555     0.0023323615   0.0022337883   21.342087      19.870087      1.4719996     -0.74985392     23954.27     
    897000   0.96546519     0.0023323615   0.0023720518   21.195707      19.761992      1.4337158     -0.81656856     22624.025    
    898000   0.95824106     0.0023323615  -5.8645774e-05  21.192606      19.769618      1.422988      -0.78437626     21038.932    
    899000   0.91411869     0.0023323615   0.00067057823  20.952596      19.59513       1.3574662     -0.84050503     18488.394    
    900000   1.0564845      0.0023323615   0.0011872648   21.185123      19.616244      1.5688794     -0.82949958     17560.898    
    901000   0.94633012     0.0023323615  -0.0019405906   20.964642      19.559341      1.4053002     -0.91558547     16830.189    
    902000   1.0807701      0.0023323615  -0.0023843508   21.006601      19.401657      1.6049436     -1.0571396      16943.256    
    903000   1.0886519      0.0023323615  -0.0012464624   21.035292      19.418644      1.6166481     -1.0127374      17715.493    
    904000   1.0049425      0.0023323615  -0.00022251623  21.275957      19.783617      1.4923396     -0.77376004     19465.292    
    905000   1.1936151      0.0023323615   0.00019408933  21.550914      19.778396      1.7725184     -0.6986963      22414.764    
    906000   1.0035274      0.0023323615   0.00070230404  21.157         19.666762      1.4902383     -0.72791301     21754.992    
    907000   1.0794657      0.0023323615   0.0026258572   21.394459      19.791452      1.6030066     -0.6633678      21390.703    
    908000   1.0933974      0.0023323615   0.0016927501   21.646975      20.02328       1.6236952     -0.58153495     22816.871    
    909000   0.9262703      0.0023323615   0.00015481141  21.084153      19.708641      1.3755114     -0.79549248     24830.411    
    910000   1.0281149      0.0023323615  -0.0005126034   21.13914       19.612389      1.5267506     -0.84792328     24071.292    
    911000   1.0877103      0.0023323615   0.0001669544   21.345391      19.730141      1.6152499     -0.71850395     21916.85     
    912000   0.81899771     0.0023323615  -0.0031450125   20.854318      19.638106      1.2162116     -0.87913577     20335.443    
    913000   0.86951617     0.0023323615   0.00019164635  20.703003      19.411771      1.2912315     -0.99468363     19474.871    
    914000   1.0104059      0.0023323615  -0.0024386717   21.183064      19.682611      1.5004528     -0.95294531     19046.851    
    915000   1.1094948      0.0023323615   0.0026208634   21.288173      19.640573      1.6475997     -0.87365517     18537.362    
    916000   1.0081178      0.0023323615   0.0012188551   21.089622      19.592567      1.497055      -0.7918619      18762.221    
    917000   0.98315402     0.0023323615  -0.005046758    21.195192      19.735209      1.4599837     -0.89189565     18288.21     
    918000   1.1428346      0.0023323615   0.0019923142   21.329702      19.632592      1.6971094     -0.86713886     18863.451    
    919000   0.88114402     0.0023323615  -0.0013306041   20.91324       19.604741      1.3084989     -0.9300009      19501.373    
    920000   1.0456376      0.0023323615   0.0023106332   21.14549       19.592718      1.5527719     -0.87513474     20080.37     
    921000   0.94408209     0.0023323615  -0.002271619    21.017455      19.615493      1.4019619     -0.91059864     20563.518    
    922000   0.95711617     0.0023323615  -0.0024830917   21.119321      19.698004      1.4213175     -0.84957931     20034.812    
    923000   1.0202816      0.0023323615   0.0015288905   20.987594      19.472476      1.5151181     -0.84320523     19060.741    
    924000   0.86048203     0.0023323615   0.0016905567   20.899938      19.622122      1.2778158     -0.89461781     18632.682    
    925000   0.94651958     0.0023323615   0.0010490167   20.93273       19.527148      1.4055816     -0.95596081     19208.916    
    926000   0.874342       0.0023323615   0.0029108474   20.830053      19.531655      1.2983979     -0.94407423     18942.321    
    927000   0.8753015      0.0023323615  -0.003656416    20.865119      19.565297      1.2998227     -0.93714581     18391.064    
    928000   0.98709173     0.0023323615  -0.0029802819   20.993345      19.527514      1.4658312     -0.8524437      19021.974    
    929000   1.0729254      0.0023323615  -0.00048258486  21.356366      19.763072      1.5932942     -0.79690934     20434.483    
    930000   0.93508704     0.0023323615  -0.00079667549  21.194415      19.80581       1.3886043     -0.78402767     21963.428    
    931000   1.0783076      0.0023323615   0.0048374558   21.127039      19.525753      1.6012868     -0.88679552     23223.805    
    932000   1.0339512      0.0023323615   0.0031803643   21.401348      19.86593       1.5354176     -0.749444       23964.011    
    933000   1.0235874      0.0023323615  -0.00040024663  21.508733      19.988706      1.5200273     -0.61793683     23270.722    
    934000   0.97754227     0.0023323615   0.0019713443   21.053108      19.601457      1.4516503     -0.91081235     22270.497    
    935000   0.78148607     0.0023323615  -0.00026233553  20.910319      19.749812      1.1605068     -0.79055116     20867.429    
    936000   1.0810796      0.0023323615  -0.002840241    21.049162      19.443758      1.6054031     -0.98469315     19730.565    
    937000   1.0206787      0.0023323615   0.0024864545   21.06223       19.546522      1.5157079     -0.96290557     19208.362    
    938000   1.10693        0.0023323615  -0.0026338218   21.254648      19.610857      1.643791      -0.93225747     18893.964    
    939000   0.95543004     0.0023323615  -0.0034374265   21.088509      19.669696      1.4188136     -0.87785545     18516.103    
    940000   1.0346197      0.0023323615   0.0018867818   21.127366      19.590955      1.5364102     -0.91702755     19283.532    
    941000   0.88214763     0.0023323615  -0.00019366979  20.960605      19.650615      1.3099892     -0.89181279     20468.38     
    942000   1.0399827      0.0023323615  -0.0028338256   21.104122      19.559748      1.5443743     -0.99522941     20908.484    
    943000   0.82697326     0.0023323615  -0.000825016    20.719042      19.490986      1.2280553     -1.0711267      20198.78     
    944000   0.93337976     0.0023323615  -0.00089397439  20.716687      19.330618      1.3860689     -1.0594073      18829.769    
    945000   0.94166307     0.0023323615  -0.0011737627   21.05597       19.657601      1.3983697     -0.84139643     18335.762    
    946000   0.90531944     0.0023323615   0.0024905911   20.912485      19.568086      1.3443994     -0.8644357      17675.472    
    947000   0.91130896     0.0023323615   0.0011211263   20.930112      19.576818      1.3532938     -0.88463788     17689.4      
    948000   1.0176752      0.0023323615  -0.004704384    20.961232      19.449985      1.5112476     -1.113356       18368.797    
    949000   1.0890321      0.0023323615   0.00089982189  20.901508      19.284296      1.6172127     -1.0940701      19650.093    
    950000   1.0155469      0.0023323615  -0.0067034198   21.154116      19.646029      1.5080871     -0.89475305     19811.354    
    951000   0.93378206     0.0023323615   0.00087339518  20.855331      19.468664      1.3866664     -1.0144046      20307.243    
    952000   0.95278902     0.0023323615  -0.00014285998  21.144213      19.729321      1.4148917     -0.81920322     20507.023    
    953000   1.0158865      0.0023323615  -0.0013993393   21.193355      19.684763      1.5085914     -0.73790273     20129.591    
    954000   1.0125168      0.0023323615   0.00050287712  21.102368      19.598781      1.5035875     -0.92474545     19655.394    
    955000   1.0677317      0.0023323615   0.0021937182   21.080965      19.495384      1.5855816     -0.98089943     19744.675    
    956000   1.1241753      0.0023323615  -0.0022861639   21.335381      19.66598       1.6694004     -0.83104259     19670.272    
    957000   0.85805529     0.0023323615   0.00046876155  20.974615      19.700403      1.2742121     -0.80673848     18447.233    
    958000   1.0538445      0.0023323615   0.0013338275   21.073124      19.508165      1.564959      -0.97357173     18185.261    
    959000   0.99211098     0.0023323615  -0.0049978303   21.123589      19.650304      1.4732848     -0.8259734      19138.515    
    960000   1.0521602      0.0023323615  -0.000788333    21.307396      19.744938      1.5624579     -0.84935912     20230.956    
    961000   1.0115685      0.0023323615   0.00012964344  21.00386       19.50168       1.5021792     -0.89101893     21181.343    
    962000   1.1288665      0.0023323615  -0.00038177266  21.355694      19.679327      1.6763667     -0.82847113     20499.631    
    963000   0.97332889     0.0023323615  -0.00071503973  20.994314      19.54892       1.4453934     -1.017822       19914.835    
    964000   0.85390465     0.0023323615   0.0029966133   20.943663      19.675615      1.2680484     -0.80939472     19658.271    
    965000   1.1498482      0.0023323615   0.00017235425  21.344452      19.636928      1.7075246     -0.84850104     20063.059    
    966000   1.0227167      0.0023323615   0.00038211989  21.24772       19.728986      1.5187343     -0.72025941     19836.024    
    967000   1.0578618      0.0023323615  -0.002002604    21.314887      19.743962      1.5709247     -0.83455546     19458.715    
    968000   0.87951689     0.0023323615  -0.0011009901   21.04862       19.742537      1.3060826     -0.83724879     20379.276    
    969000   1.1372852      0.0023323615   0.0026670884   21.284483      19.595614      1.6888685     -0.84939373     20954.072    
    970000   1.0887942      0.0023323615   0.0029229743   21.279811      19.662952      1.6168595     -0.84804302     19681.664    
    971000   1.0820392      0.0023323615   0.0014968848   21.077193      19.470365      1.6068282     -0.97994031     19327.006    
    972000   0.96448022     0.0023323615   0.0015604775   21.147828      19.715575      1.4322531     -0.89669619     19683.706    
    973000   1.0098033      0.0023323615  -0.0016295556   21.005573      19.506015      1.4995579     -0.89988327     19519.804    
    974000   1.0454094      0.0023323615  -0.0034608662   21.222009      19.669576      1.552433      -0.85570549     18769.881    
    975000   1.0052955      0.0023323615  -0.0029359574   20.962568      19.469704      1.4928638     -0.96214613     19185.278    
    976000   1.0132866      0.0023323615   0.0010613499   21.128588      19.623857      1.5047307     -0.82351514     19861.622    
    977000   0.99369424     0.0023323615   0.0034077635   21.356605      19.88097       1.4756359     -0.70177665     20076.36     
    978000   0.97250265     0.0023323615  -0.0019826534   21.235589      19.791423      1.4441664     -0.80474823     20801.543    
    979000   1.1173433      0.0023323615  -0.0025200399   21.423768      19.764513      1.6592548     -0.69724148     21626.436    
    980000   1.0377741      0.0023323615   0.0031077402   21.316483      19.775388      1.5410946     -0.74479535     20692.799    
    981000   1.1091379      0.0023323615  -0.002198232    21.209054      19.561985      1.6470697     -0.86366279     20306        
    982000   0.86992887     0.0023323615   0.0012292035   20.89047       19.598625      1.2918444     -0.75863454     19671.684    
    983000   0.99836601     0.0023323615   0.00060652109  20.970531      19.487958      1.4825735     -0.89237903     19617.582    
    984000   0.82177225     0.0023323615   0.0015049469   20.863573      19.643242      1.2203318     -0.94794816     18690.534    
    985000   0.97261429     0.0023323615  -0.0035209683   20.635545      19.191213      1.4443322     -1.2190312      17868.228    
    986000   0.9805617      0.0023323615   0.0006276341   20.973175      19.517041      1.4561341     -0.93846251     16467.573    
    987000   0.91038917     0.0023323615   0.00041214901  20.818707      19.466779      1.3519279     -0.96964218     16769.787    
    988000   1.05973        0.0023323615  -0.00051718596  21.185597      19.611898      1.5736991     -0.96358085     18127.124    
    989000   0.9867866      0.0023323615  -0.00045250315  21.093123      19.627745      1.4653781     -0.91048872     19077.419    
    990000   1.0244265      0.0023323615  -0.0029135024   21.144394      19.623121      1.5212733     -0.86400601     19443.307    
    991000   0.97366549     0.0023323615   0.0024722441   21.043908      19.598015      1.4458933     -0.88245947     19762.036    
    992000   1.0459065      0.0023323615   0.00050175662  21.172724      19.619553      1.5531712     -0.96937        20108.442    
    993000   1.1213199      0.0023323615   0.001156465    21.588675      19.923515      1.6651601     -0.71654579     19948.818    
    994000   1.0477886      0.0023323615  -0.004816455    21.288073      19.732107      1.555966      -0.78886591     19814.469    
    995000   1.1221239      0.0023323615  -0.0060977845   21.163471      19.497117      1.666354      -0.97054061     19405.038    
    996000   1.0012108      0.0023323615   0.0047845826   20.965149      19.478351      1.486798      -1.0301165      18625.839    
    997000   0.8137099      0.0023323615   0.0014294891   20.587908      19.379549      1.2083592     -1.0227141      18386.128    
    998000   1.0325902      0.0023323615  -0.00033759315  20.962174      19.428777      1.5333965     -0.96627717     17498.861    
    999000   1.0237048      0.0023323615   0.0022568212   21.184343      19.664141      1.5202016     -0.79331211     17161.94     
   1000000   0.94855445     0.0023323615   0.0031247116   20.91111       19.502507      1.4086034     -0.93696004     19193.535    
Loop time of 51.4027 on 1 procs for 1000000 steps with 100 atoms

Performance: 8404233.706 tau/day, 19454.245 timesteps/s
96.5% CPU use with 1 MPI tasks x 1 OpenMP threads

MPI task timing breakdown:
Section |  min time  |  avg time  |  max time  |%varavg| %total
---------------------------------------------------------------
Pair    | 36.449     | 36.449     | 36.449     |   0.0 | 70.91
Bond    | 1.4729     | 1.4729     | 1.4729     |   0.0 |  2.87
Neigh   | 4.9416     | 4.9416     | 4.9416     |   0.0 |  9.61
Comm    | 3.4873     | 3.4873     | 3.4873     |   0.0 |  6.78
Output  | 1.9708     | 1.9708     | 1.9708     |   0.0 |  3.83
Modify  | 2.6625     | 2.6625     | 2.6625     |   0.0 |  5.18
Other   |            | 0.4188     |            |       |  0.81

Nlocal:            100 ave         100 max         100 min
Histogram: 1 0 0 0 0 0 0 0 0 0
Nghost:            444 ave         444 max         444 min
Histogram: 1 0 0 0 0 0 0 0 0 0
Neighs:           2923 ave        2923 max        2923 min
Histogram: 1 0 0 0 0 0 0 0 0 0

Total # of neighbors = 2923
Ave neighs/atom = 29.23
Ave special neighs/atom = 1.98
Neighbor list builds = 98043
Dangerous builds = 81246

write_data      ${outputfile_assembled} nofix nocoeff
write_data      7_assembled.data nofix nocoeff
System init for write_data ...
Generated 0 of 6 mixed pair_coeff terms from geometric mixing rule

Total wall time: 0:00:53
