LAMMPS (23 Jun 2022 - Update 1)
OMP_NUM_THREADS environment is not set. Defaulting to 1 thread. (src/comm.cpp:98)
  using 1 OpenMP thread(s) per MPI task


variable        runtime equal 1000000
variable		subsample_rate equal 1000

variable		outputfile_created string '3_created.data'
variable		outputfile_relaxed string '5_relaxed.data'
variable		outputfile_selfasb string '6_a_self_assemble.lammpstrj'
variable		outputfile_trajlin string '6_b_trajlin.data'
variable		outputfile_assembled string '7_assembled.data'

units           lj
atom_style      full
dimension       3
boundary        p p p
timestep        0.005

read_data       ${outputfile_created}
read_data       3_created.data
Reading data file ...
  orthogonal box = (0 0 0) to (35 35 35)
  1 by 1 by 1 MPI processor grid
  reading atoms ...
  100 atoms
  reading velocities ...
  100 velocities
  scanning bonds ...
  1 = max bonds/atom
  reading bonds ...
  99 bonds
Finding 1-2 1-3 1-4 neighbors ...
  special bond factors lj:    0        0        0       
  special bond factors coul:  0        0        0       
     2 = max # of 1-2 neighbors
     2 = max # of 1-3 neighbors
     4 = max # of 1-4 neighbors
     6 = max # of special neighbors
  special bonds CPU = 0.000 seconds
  read_data CPU = 0.005 seconds

bond_style      fene
bond_coeff      * 30.0 1.5 1.0 1.0
special_bonds   fene
Finding 1-2 1-3 1-4 neighbors ...
  special bond factors lj:    0        1        1       
  special bond factors coul:  0        1        1       
     2 = max # of 1-2 neighbors
     6 = max # of special neighbors
  special bonds CPU = 0.000 seconds

variable        Temp equal 1.0
variable        velSeed equal 926458

velocity        all create ${Temp} ${velSeed}
velocity        all create 1 ${velSeed}
velocity        all create 1 926458

### Output
thermo_style    custom step temp density press etotal pe ke epair spcpu
thermo          1000

###########################################################################
# Soft relaxation (to remove overlaps of particles)
######################################################################

pair_style      soft 1.0
pair_coeff      * * 0.0
variable        prefactor equal ramp(0,300)
fix             rampSoft all adapt 1 pair soft a * * v_prefactor

minimize        0.0 1.0e-8 1000 100000
WARNING: Using 'neigh_modify every 1 delay 0 check yes' setting during minimization (src/min.cpp:187)
Generated 0 of 6 mixed pair_coeff terms from geometric mixing rule
Neighbor list info ...
  update every 1 steps, delay 0 steps, check yes
  max neighbors/atom: 2000, page size: 100000
  master list distance cutoff = 1.3
  ghost atom cutoff = 1.3
  binsize = 0.65, bins = 54 54 54
  1 neighbor lists, perpetual/occasional/extra = 1 0 0
  (1) pair soft, perpetual
      attributes: half, newton on
      pair build: half/bin/newton
      stencil: half/bin/3d
      bin: standard
WARNING: Communication cutoff 1.3 is shorter than a bond length based estimate of 1.7550000000000001. This may lead to errors. (src/comm.cpp:727)
Per MPI rank memory allocation (min/avg/max) = 8.346 | 8.346 | 8.346 Mbytes
   Step          Temp         Density         Press          TotEng         PotEng         KinEng         E_pair         S/CPU     
         0   1              0.0023323615  -0.0039617958   21.524174      20.039174      1.485          0              0            
       362   1              0.0023323615   0.0023090379   21.485548      20.000548      1.485          0              71034.615    
Loop time of 0.00509862 on 1 procs for 362 steps with 100 atoms

99.1% CPU use with 1 MPI tasks x 1 OpenMP threads

Minimization stats:
  Stopping criterion = force tolerance
  Energy initial, next-to-last, final = 
      20.0391741078675   20.0005480767337   20.0005480767337
  Force two-norm initial, final = 11.878422 7.9509778e-09
  Force max component initial, final = 6.6117807 1.3572772e-09
  Final line search alpha, max atom move = 1 1.3572772e-09
  Iterations, force evaluations = 362 738

MPI task timing breakdown:
Section |  min time  |  avg time  |  max time  |%varavg| %total
---------------------------------------------------------------
Pair    | 0.00021426 | 0.00021426 | 0.00021426 |   0.0 |  4.20
Bond    | 0.0023495  | 0.0023495  | 0.0023495  |   0.0 | 46.08
Neigh   | 0.0013623  | 0.0013623  | 0.0013623  |   0.0 | 26.72
Comm    | 0.00018112 | 0.00018112 | 0.00018112 |   0.0 |  3.55
Output  | 0          | 0          | 0          |   0.0 |  0.00
Modify  | 0          | 0          | 0          |   0.0 |  0.00
Other   |            | 0.0009914  |            |       | 19.44

Nlocal:            100 ave         100 max         100 min
Histogram: 1 0 0 0 0 0 0 0 0 0
Nghost:             20 ave          20 max          20 min
Histogram: 1 0 0 0 0 0 0 0 0 0
Neighs:              0 ave           0 max           0 min
Histogram: 1 0 0 0 0 0 0 0 0 0

Total # of neighbors = 0
Ave neighs/atom = 0
Ave special neighs/atom = 1.98
Neighbor list builds = 17
Dangerous builds = 0

fix             nvtSoft all nvt temp ${Temp} ${Temp} 0.5
fix             nvtSoft all nvt temp 1 ${Temp} 0.5
fix             nvtSoft all nvt temp 1 1 0.5
run             100000
Generated 0 of 6 mixed pair_coeff terms from geometric mixing rule
WARNING: Communication cutoff 1.3 is shorter than a bond length based estimate of 1.7550000000000001. This may lead to errors. (src/comm.cpp:727)
Per MPI rank memory allocation (min/avg/max) = 7.221 | 7.221 | 7.221 Mbytes
   Step          Temp         Density         Press          TotEng         PotEng         KinEng         E_pair         S/CPU     
       362   1              0.0023323615   0.0023090379   21.485548      20.000548      1.485          0              0            
      1000   0.90989032     0.0023323615  -0.0021940042   21.776974      20.425787      1.3511871      0.00036425437  78634.423    
      2000   0.86546688     0.0023323615   0.0034714157   21.677128      20.39191       1.2852183      0.0025814786   78071.137    
      3000   0.98199538     0.0023323615   0.0028144228   21.866132      20.407869      1.4582631      0.0011756043   74435.084    
      4000   1.004495       0.0023323615  -0.0014058211   21.945624      20.453949      1.4916751      0.011986179    74502.702    
      5000   1.1222705      0.0023323615   0.0044495116   21.986385      20.319813      1.6665718      0.0050317639   74678.182    
      6000   1.0538243      0.0023323615   0.0023957538   21.985713      20.420784      1.564929       0.012100514    75390.811    
      7000   1.0210598      0.0023323615  -0.00038820026  21.904665      20.388391      1.5162738      0              76767.664    
      8000   0.94819751     0.0023323615   0.0024943091   21.747889      20.339816      1.4080733      0              76867.094    
      9000   0.92364502     0.0023323615   0.0020053029   21.724166      20.352554      1.3716129      1.7780894e-05  76049.739    
     10000   0.86685188     0.0023323615   0.00078277366  21.644879      20.357604      1.287275       0.0098636418   76542.01     
     11000   1.0057103      0.0023323615   0.00010113276  21.8558        20.362321      1.4934798      0.020705341    76241.78     
     12000   0.97901664     0.0023323615  -0.0026996968   21.871206      20.417366      1.4538397      0.0052928539   76102.557    
     13000   0.97718436     0.0023323615  -6.1641422e-06  21.963706      20.512587      1.4511188      0.025022446    76013.944    
     14000   1.0530014      0.0023323615  -0.0009993112   21.947994      20.384287      1.5637071      0.0020860456   75114.177    
     15000   0.99094527     0.0023323615   0.0011068478   21.895146      20.423592      1.4715537      0.0015091113   76329.702    
     16000   0.91285091     0.0023323615  -0.00025424173  21.87524       20.519657      1.3555836      0.0047853639   75919.359    
     17000   0.82806978     0.0023323615  -0.00054698156  21.701984      20.472301      1.2296836      0              76135.705    
     18000   1.043278       0.0023323615  -6.6143919e-05  22.003299      20.454031      1.5492679      0.0034319132   76906.305    
     19000   1.0879249      0.0023323615  -0.0017804642   21.998985      20.383416      1.6155685      0.015376175    75233.749    
     20000   1.1144506      0.0023323615   0.0025198298   22.190904      20.535944      1.6549592      0              76510.497    
     21000   1.0427751      0.0023323615   0.0011345349   22.099492      20.550971      1.548521       0.00040047813  76506.224    
     22000   1.0586695      0.0023323615   0.0017882747   22.05673       20.484606      1.5721242      0              76440.835    
     23000   1.0058426      0.0023323615  -0.0055245362   21.954628      20.460951      1.4936763      0.0027619031   75628.795    
     24000   0.98273442     0.0023323615   0.0015147357   21.862067      20.402707      1.4593606      0              75974.425    
     25000   0.95835343     0.0023323615   0.0017808774   21.937761      20.514606      1.4231548      0.00020839942  75900.591    
     26000   0.93993778     0.0023323615  -0.0021777292   21.884849      20.489042      1.3958076      0.0088889834   76289.918    
     27000   0.9308188      0.0023323615  -0.00011239942  21.842252      20.459986      1.3822659      0.021612409    75391.271    
     28000   1.0149581      0.0023323615   0.0041996387   21.906846      20.399633      1.5072129      0.0064059022   75999.993    
     29000   0.92841138     0.0023323615  -2.5398808e-05  21.987185      20.608494      1.3786909      0.0046112484   75733.404    
     30000   1.021043       0.0023323615   0.001589158    22.097958      20.581709      1.5162489      0.016799508    73264.598    
     31000   1.0465985      0.0023323615  -0.0021744286   22.037917      20.483718      1.5541987      0.0057879149   76303.568    
     32000   0.98907108     0.0023323615  -0.0015558606   22.044089      20.575318      1.4687705      0.009448173    75856.344    
     33000   1.0918536      0.0023323615  -0.0025643847   22.039275      20.417873      1.6214025      0              74894.754    
     34000   0.99801543     0.0023323615   0.0016279766   21.932339      20.450286      1.4820529      0.017384617    77403.467    
     35000   1.0352271      0.0023323615  -0.0052971711   22.076004      20.538692      1.5373122      0.00010473809  75892.624    
     36000   1.1141579      0.0023323615  -0.00093279925  22.222491      20.567966      1.6545245      0.00033678641  76870.474    
     37000   1.0369415      0.0023323615   0.00013065175  22.217841      20.677983      1.5398581      0.013788831    75994.731    
     38000   1.0515596      0.0023323615   0.0021717558   22.070766      20.5092        1.561566       0.0067894678   76638.448    
     39000   1.0238495      0.0023323615   0.00026414509  22.040141      20.519725      1.5204165      0.00044464649  75776.129    
     40000   1.0749111      0.0023323615  -0.0026849368   22.039327      20.443084      1.596243       0.012651334    74237.716    
     41000   0.99070886     0.0023323615  -0.0030385564   22.03241       20.561207      1.4712027      0.00092855646  77308.382    
     42000   0.95315224     0.0023323615   0.0019788197   21.965263      20.549832      1.4154311      0.020233689    75517.157    
     43000   1.0644183      0.0023323615  -0.0011168725   22.287172      20.706511      1.5806611      0.039694129    75858.485    
     44000   1.0253747      0.0023323615  -0.006676522    22.066233      20.543552      1.5226814      0              74967.992    
     45000   0.94179556     0.0023323615  -0.0047206018   21.970644      20.572077      1.3985664      0.019869988    75395.489    
     46000   1.0083495      0.0023323615  -0.0017646918   21.972114      20.474715      1.497399       0.00026040605  75603.476    
     47000   0.98767959     0.0023323615  -0.00080218158  22.091674      20.62497       1.4667042      0.024266258    75352.681    
     48000   1.1473449      0.0023323615  -0.0025885687   22.080512      20.376705      1.7038072      0.00065962995  75526.413    
     49000   1.0679312      0.0023323615   0.0017688272   21.970482      20.384604      1.5858779      0.014142422    76648.751    
     50000   0.9581935      0.0023323615   0.0014398836   21.955202      20.532284      1.4229173      0.0055011948   76272.956    
     51000   1.0215759      0.0023323615  -0.00093292688  21.934681      20.41764       1.5170402      0              76044.06     
     52000   0.98079591     0.0023323615   0.0040701936   21.977374      20.520892      1.4564819      0.0020862422   76693.098    
     53000   1.0090927      0.0023323615   0.0013324753   22.095438      20.596935      1.4985027      0              75897.878    
     54000   0.97519627     0.0023323615   0.0013260734   22.070151      20.621984      1.4481665      0.026885444    76917.385    
     55000   1.1805087      0.0023323615  -0.001586238    22.424088      20.671033      1.7530554      0.024690954    76396.546    
     56000   0.98387121     0.0023323615   0.0037155145   22.104425      20.643376      1.4610487      0.01435493     76120.028    
     57000   1.0723812      0.0023323615  -0.0037916262   22.122726      20.53024       1.592486       0.013635549    76523.934    
     58000   1.0152349      0.0023323615   0.00021908047  22.082827      20.575203      1.5076238      0.00077375639  76394.614    
     59000   1.1424502      0.0023323615  -0.0052108657   22.30072       20.604182      1.6965385      0.013308184    77416.248    
     60000   1.0359703      0.0023323615  -0.00097887545  22.188218      20.649802      1.538416       0.00011346294  75607.655    
     61000   1.1646839      0.0023323615  -0.002085017    22.239945      20.51039       1.7295556      0.012918477    77864.919    
     62000   1.101836       0.0023323615   0.0010338878   22.171386      20.53516       1.6362265      0.001396566    76665.587    
     63000   0.96616435     0.0023323615   0.00097550571  21.903821      20.469067      1.4347541      0.013027663    78029.755    
     64000   1.0068907      0.0023323615  -0.0020278726   22.061652      20.566419      1.4952327      0.013750276    76383.218    
     65000   0.98723233     0.0023323615   0.0022441476   22.031073      20.565033      1.46604        0.0066686189   76842.593    
     66000   1.0273881      0.0023323615  -0.0003515278   22.183579      20.657908      1.5256713      0              75129.047    
     67000   0.96528212     0.0023323615  -0.00014822656  21.9396        20.506156      1.4334439      0.010365557    76986.858    
     68000   1.069702       0.0023323615   9.4754668e-05  22.081119      20.492611      1.5885075      0.00049153926  74278.433    
     69000   1.1229502      0.0023323615   0.0011504079   22.200329      20.532748      1.6675811      0.0068454249   77028.571    
     70000   1.0062775      0.0023323615  -0.00085311964  22.094021      20.599699      1.4943221      0.013222355    75093.775    
     71000   1.0906935      0.0023323615   0.00015260357  22.145362      20.525682      1.6196798      0.018338513    76200.456    
     72000   1.010401       0.0023323615  -6.0487182e-06  22.154105      20.653659      1.5004455      0.0013793953   75088.345    
     73000   1.1177599      0.0023323615  -0.0034084797   22.254435      20.594562      1.6598735      0.00011231735  77779.12     
     74000   0.9768019      0.0023323615   0.00016143893  22.07312       20.622569      1.4505508      0.0084515956   75838.194    
     75000   1.1360996      0.0023323615   0.002159116    22.161595      20.474487      1.6871079      0.0089909162   76563.494    
     76000   0.97379329     0.0023323615  -0.00068458621  21.988928      20.542845      1.446083       0              75588.189    
     77000   0.94876793     0.0023323615  -0.0016073976   21.923496      20.514575      1.4089204      0.017745108    75886.859    
     78000   0.83947996     0.0023323615  -0.00062768559  21.726727      20.480099      1.2466277      0.0054510099   76403.439    
     79000   1.0090614      0.0023323615  -0.00080262643  22.068192      20.569736      1.4984562      0.00023011166  76954.155    
     80000   1.1217643      0.0023323615  -0.0038177864   22.367902      20.702082      1.66582        0.032902439    76181.967    
     81000   1.0240158      0.0023323615   0.00023547123  22.031597      20.510933      1.5206635      0.0068767308   75805.707    
     82000   1.003236       0.0023323615  -0.0022802982   21.894199      20.404393      1.4898055      0.019136282    74830.292    
     83000   1.0554159      0.0023323615   0.004011718    22.104562      20.537269      1.5672927      0.0080869707   74586.494    
     84000   0.83527346     0.0023323615  -0.0034122221   21.874648      20.634267      1.2403811      0.0030083664   75941.994    
     85000   1.036002       0.0023323615   0.0013573923   21.962923      20.42446       1.5384629      0.015709144    76542.127    
     86000   0.9432002      0.0023323615  -0.0032183248   21.913588      20.512936      1.4006523      0.013730309    76487.463    
     87000   0.95566008     0.0023323615  -0.00049614223  21.91653       20.497375      1.4191552      0.0035862035   75536.534    
     88000   0.93373351     0.0023323615  -0.00097093893  21.870485      20.483891      1.3865943      0.0018212145   74933.04     
     89000   0.9684944      0.0023323615  -0.00047342045  21.973429      20.535215      1.4382142      0.00087524744  75540.768    
     90000   0.98293324     0.0023323615  -0.0032204602   22.050919      20.591263      1.4596559      0.015353933    76753.782    
     91000   1.0832827      0.0023323615   0.0048517083   22.11977       20.511095      1.6086749      0.0052867789   77773.422    
     92000   0.85899662     0.0023323615  -0.0013049519   21.765697      20.490087      1.27561        0.0024124001   76517.721    
     93000   0.96176266     0.0023323615  -4.4223672e-05  21.874222      20.446004      1.4282176      0.0045653365   77324.612    
     94000   0.96019503     0.0023323615   0.00024459347  21.944954      20.519064      1.4258896      3.8053462e-05  76750.3      
     95000   0.94702149     0.0023323615  -0.0033658915   21.86315       20.456823      1.4063269      0              77216.696    
     96000   0.91119348     0.0023323615  -0.0013197298   21.825018      20.471896      1.3531223      0.00043282989  75743.064    
     97000   1.0016687      0.0023323615  -0.0019514304   22.013024      20.525546      1.487478       0.0048369955   75448.881    
     98000   1.02143        0.0023323615  -0.0057874974   22.177965      20.661142      1.5168235      0              74409.064    
     99000   1.032786       0.0023323615   0.0018228259   21.975336      20.441649      1.5336871      7.1595851e-05  77397.104    
    100000   1.0594928      0.0023323615   0.0036169719   22.011024      20.437677      1.5733468      0.00032948157  76010.062    
    100362   1.1904942      0.0023323615  -0.00089755607  22.316856      20.548972      1.7678839      0.00063845255  75668.09     
Loop time of 1.3144 on 1 procs for 100000 steps with 100 atoms

Performance: 32866788.935 tau/day, 76080.530 timesteps/s
99.2% CPU use with 1 MPI tasks x 1 OpenMP threads

MPI task timing breakdown:
Section |  min time  |  avg time  |  max time  |%varavg| %total
---------------------------------------------------------------
Pair    | 0.049655   | 0.049655   | 0.049655   |   0.0 |  3.78
Bond    | 0.125      | 0.125      | 0.125      |   0.0 |  9.51
Neigh   | 0.80084    | 0.80084    | 0.80084    |   0.0 | 60.93
Comm    | 0.055013   | 0.055013   | 0.055013   |   0.0 |  4.19
Output  | 0.001123   | 0.001123   | 0.001123   |   0.0 |  0.09
Modify  | 0.24912    | 0.24912    | 0.24912    |   0.0 | 18.95
Other   |            | 0.03365    |            |       |  2.56

Nlocal:            100 ave         100 max         100 min
Histogram: 1 0 0 0 0 0 0 0 0 0
Nghost:             60 ave          60 max          60 min
Histogram: 1 0 0 0 0 0 0 0 0 0
Neighs:             36 ave          36 max          36 min
Histogram: 1 0 0 0 0 0 0 0 0 0

Total # of neighbors = 36
Ave neighs/atom = 0.36
Ave special neighs/atom = 1.98
Neighbor list builds = 9821
Dangerous builds = 8265
unfix           nvtSoft
unfix           rampSoft
reset_timestep  0

write_data      ${outputfile_relaxed}
write_data      5_relaxed.data
System init for write_data ...
Generated 0 of 6 mixed pair_coeff terms from geometric mixing rule
WARNING: Communication cutoff 1.3 is shorter than a bond length based estimate of 1.7550000000000001. This may lead to errors. (src/comm.cpp:727)
WARNING: Not all mixed pair coeffs generated from mixing. Use write_data with 'pair ij' option to store all pair coeffs. (src/write_data.cpp:309)

###########################################################################
# Full LJ with Coulomb
######################################################################

# Cutoffs and parameters:
# - Values: Marcel Verkade's Bachelor Thesis
# - Mapping to atom groups: Patrick Onck's paper
# - 1: aliphatic, 2: aromatic, 3: anion, 4: cation
# pair_style	lj/cut/coul/cut <lj_cut_global> <coul_cut_global>
# pair_coeff	<type_1>  <type_2>  <eps>  <sigma>  <r_cut_lj>  <r_cut_coul>

# Problem: Onck's model is much more complex, and Marcel has no sigma reported
# Using sigma=1 randomly

variable		glob_ljeps equal 1.0
variable		glob_ljsig 	equal 1.0
variable		glob_coulcut equal 10.0
variable		att_ljcut equal 2.50
variable		rep_ljcut equal 1.12

pair_style		lj/cut/coul/cut 						${att_ljcut} 	${glob_coulcut}
pair_style		lj/cut/coul/cut 						2.5 	${glob_coulcut}
pair_style		lj/cut/coul/cut 						2.5 	10
pair_coeff		1 1 	${glob_ljeps} 	${glob_ljsig}	${att_ljcut} 	${glob_coulcut}
pair_coeff		1 1 	1 	${glob_ljsig}	${att_ljcut} 	${glob_coulcut}
pair_coeff		1 1 	1 	1	${att_ljcut} 	${glob_coulcut}
pair_coeff		1 1 	1 	1	2.5 	${glob_coulcut}
pair_coeff		1 1 	1 	1	2.5 	10
pair_coeff		1 2 	${glob_ljeps} 	${glob_ljsig}	${att_ljcut} 	${glob_coulcut}
pair_coeff		1 2 	1 	${glob_ljsig}	${att_ljcut} 	${glob_coulcut}
pair_coeff		1 2 	1 	1	${att_ljcut} 	${glob_coulcut}
pair_coeff		1 2 	1 	1	2.5 	${glob_coulcut}
pair_coeff		1 2 	1 	1	2.5 	10
pair_coeff		1 3 	${glob_ljeps} 	${glob_ljsig}	${rep_ljcut} 	${glob_coulcut}
pair_coeff		1 3 	1 	${glob_ljsig}	${rep_ljcut} 	${glob_coulcut}
pair_coeff		1 3 	1 	1	${rep_ljcut} 	${glob_coulcut}
pair_coeff		1 3 	1 	1	1.12 	${glob_coulcut}
pair_coeff		1 3 	1 	1	1.12 	10
pair_coeff		1 4 	${glob_ljeps} 	${glob_ljsig}	${rep_ljcut} 	${glob_coulcut}
pair_coeff		1 4 	1 	${glob_ljsig}	${rep_ljcut} 	${glob_coulcut}
pair_coeff		1 4 	1 	1	${rep_ljcut} 	${glob_coulcut}
pair_coeff		1 4 	1 	1	1.12 	${glob_coulcut}
pair_coeff		1 4 	1 	1	1.12 	10
pair_coeff		2 2 	${glob_ljeps} 	${glob_ljsig}	${att_ljcut} 	${glob_coulcut}
pair_coeff		2 2 	1 	${glob_ljsig}	${att_ljcut} 	${glob_coulcut}
pair_coeff		2 2 	1 	1	${att_ljcut} 	${glob_coulcut}
pair_coeff		2 2 	1 	1	2.5 	${glob_coulcut}
pair_coeff		2 2 	1 	1	2.5 	10
pair_coeff		2 3 	${glob_ljeps} 	${glob_ljsig}	${rep_ljcut} 	${glob_coulcut}
pair_coeff		2 3 	1 	${glob_ljsig}	${rep_ljcut} 	${glob_coulcut}
pair_coeff		2 3 	1 	1	${rep_ljcut} 	${glob_coulcut}
pair_coeff		2 3 	1 	1	1.12 	${glob_coulcut}
pair_coeff		2 3 	1 	1	1.12 	10
pair_coeff		2 4 	${glob_ljeps} 	${glob_ljsig}	${att_ljcut} 	${glob_coulcut}
pair_coeff		2 4 	1 	${glob_ljsig}	${att_ljcut} 	${glob_coulcut}
pair_coeff		2 4 	1 	1	${att_ljcut} 	${glob_coulcut}
pair_coeff		2 4 	1 	1	2.5 	${glob_coulcut}
pair_coeff		2 4 	1 	1	2.5 	10
pair_coeff		3 3 	${glob_ljeps} 	${glob_ljsig}	${rep_ljcut} 	${glob_coulcut}
pair_coeff		3 3 	1 	${glob_ljsig}	${rep_ljcut} 	${glob_coulcut}
pair_coeff		3 3 	1 	1	${rep_ljcut} 	${glob_coulcut}
pair_coeff		3 3 	1 	1	1.12 	${glob_coulcut}
pair_coeff		3 3 	1 	1	1.12 	10
pair_coeff		3 4 	${glob_ljeps} 	${glob_ljsig}	${att_ljcut} 	${glob_coulcut}
pair_coeff		3 4 	1 	${glob_ljsig}	${att_ljcut} 	${glob_coulcut}
pair_coeff		3 4 	1 	1	${att_ljcut} 	${glob_coulcut}
pair_coeff		3 4 	1 	1	2.5 	${glob_coulcut}
pair_coeff		3 4 	1 	1	2.5 	10
pair_coeff		4 4 	${glob_ljeps} 	${glob_ljsig}	${rep_ljcut} 	${glob_coulcut}
pair_coeff		4 4 	1 	${glob_ljsig}	${rep_ljcut} 	${glob_coulcut}
pair_coeff		4 4 	1 	1	${rep_ljcut} 	${glob_coulcut}
pair_coeff		4 4 	1 	1	1.12 	${glob_coulcut}
pair_coeff		4 4 	1 	1	1.12 	10


fix             noDriftRot 	all momentum 10 linear 1 1 1 angular
fix             nvt1 		all nvt temp ${Temp} ${Temp} 0.5
fix             nvt1 		all nvt temp 1 ${Temp} 0.5
fix             nvt1 		all nvt temp 1 1 0.5

# dump          assemble 	all custom 1000 				${outputfile_selfasb} id type xu yu zu vx vy vz
dump            lindump 	all custom ${subsample_rate} 	${outputfile_trajlin} id type xu yu zu vx vy vz
dump            lindump 	all custom 1000 	${outputfile_trajlin} id type xu yu zu vx vy vz
dump            lindump 	all custom 1000 	6_b_trajlin.data id type xu yu zu vx vy vz

run             ${runtime}
run             1000000
Generated 0 of 6 mixed pair_coeff terms from geometric mixing rule
Neighbor list info ...
  update every 1 steps, delay 10 steps, check yes
  max neighbors/atom: 2000, page size: 100000
  master list distance cutoff = 10.3
  ghost atom cutoff = 10.3
  binsize = 5.15, bins = 7 7 7
  1 neighbor lists, perpetual/occasional/extra = 1 0 0
  (1) pair lj/cut/coul/cut, perpetual
      attributes: half, newton on
      pair build: half/bin/newton
      stencil: half/bin/3d
      bin: standard
Per MPI rank memory allocation (min/avg/max) = 7.712 | 7.712 | 7.712 Mbytes
   Step          Temp         Density         Press          TotEng         PotEng         KinEng         E_pair         S/CPU     
         0   1.1904942      0.0023323615  -0.0012766986   22.037046      20.269162      1.7678839     -0.27917177     0            
      1000   0.95739706     0.0023323615   0.0031253131   21.442214      20.02048       1.4217346     -0.50461669     33689.72     
      2000   0.99988524     0.0023323615   0.0012962674   21.347589      19.862759      1.4848296     -0.61772393     31050.889    
      3000   1.0010742      0.0023323615   0.0020393852   21.073606      19.58701       1.4865952     -0.89734466     26301.995    
      4000   0.90046912     0.0023323615   0.0020255152   20.921703      19.584506      1.3371966     -0.79559525     21041.363    
      5000   0.99202602     0.0023323615   0.0041460388   20.78548       19.312321      1.4731586     -1.1084473      18899.76     
      6000   1.0394039      0.0023323615  -0.0012436021   21.011526      19.468011      1.5435147     -1.046533       18317.783    
      7000   1.0573051      0.0023323615   0.0015582998   21.020821      19.450723      1.5700981     -1.1028243      18554.565    
      8000   1.0094592      0.0023323615   0.00023085327  20.605634      19.106587      1.4990469     -1.4498487      18290.336    
      9000   1.0036013      0.0023323615  -0.00055669206  20.900651      19.410303      1.4903479     -1.1536424      18299.872    
     10000   0.77760406     0.0023323615  -0.0063423899   20.39931       19.244568      1.154742      -1.3398343      18244.206    
     11000   1.0172608      0.0023323615   0.0021543322   20.773038      19.262405      1.5106323     -1.3309742      18194.431    
     12000   0.95929782     0.0023323615   0.00024583441  20.978565      19.554007      1.4245573     -1.0693712      18283.199    
     13000   0.96787991     0.0023323615   0.0026617661   20.891882      19.45458       1.4373017     -0.97728147     18555.397    
     14000   1.0611996      0.0023323615   0.0014256756   20.875703      19.299821      1.5758815     -1.1487264      18591.984    
     15000   1.1146133      0.0023323615   0.0052064147   20.919663      19.264462      1.6552008     -1.179916       18538.537    
     16000   0.97659616     0.0023323615  -8.7276051e-05  20.733498      19.283253      1.4502453     -1.2445631      18433.385    
     17000   1.1668428      0.0023323615  -0.0044249749   21.177056      19.444295      1.7327615     -1.0195022      18462.185    
     18000   1.1039379      0.0023323615  -0.0016671901   20.891956      19.252609      1.6393477     -1.2964418      18447.575    
     19000   0.94708847     0.0023323615  -0.00095481315  20.569026      19.162599      1.4064264     -1.3525734      18364.948    
     20000   0.90227813     0.0023323615   0.0012921863   20.658794      19.318911      1.339883      -1.1501583      18693.92     
     21000   0.90656435     0.0023323615  -0.00024970316  20.520835      19.174587      1.3462481     -1.3424355      18533.477    
     22000   1.017184       0.0023323615  -0.00064074322  20.86238       19.351861      1.5105182     -1.1949553      18431.771    
     23000   1.0650571      0.0023323615   0.0033322591   20.762175      19.180565      1.5816098     -1.3244956      18435.638    
     24000   0.84350217     0.0023323615   0.0014122122   20.429511      19.176911      1.2526007     -1.3024498      18381.564    
     25000   0.95746373     0.0023323615   0.0028536051   20.567762      19.145928      1.4218336     -1.3447038      18378.383    
     26000   0.96030621     0.0023323615  -0.0029569167   21.029755      19.603701      1.4260547     -1.0726905      18518.288    
     27000   0.9879407      0.0023323615  -0.0026163593   20.594321      19.127229      1.4670919     -1.3259215      18504.333    
     28000   0.99942595     0.0023323615   0.0011061694   20.764764      19.280616      1.4841475     -1.2083894      18509.522    
     29000   1.0237915      0.0023323615   0.00077712726  20.9449        19.42457       1.5203304     -1.1157716      18565.682    
     30000   1.0230857      0.0023323615   0.0039203111   21.321364      19.802081      1.5192822     -0.85170475     18564.041    
     31000   1.1800092      0.0023323615  -0.00018311624  21.183222      19.430909      1.7523137     -1.1552558      18703.788    
     32000   1.0815153      0.0023323615  -0.0033037054   21.064182      19.458132      1.6060502     -1.199578       18511.643    
     33000   1.0158726      0.0023323615  -0.00018715104  20.889286      19.380715      1.5085709     -1.1182231      18648.236    
     34000   0.91038652     0.0023323615   0.00087644804  20.520357      19.168433      1.351924      -1.3788837      18638.733    
     35000   0.98290411     0.0023323615  -0.005894739    20.604981      19.145369      1.4596126     -1.4881654      18570.293    
     36000   1.0892421      0.0023323615   0.00060692025  20.571623      18.954099      1.6175245     -1.4611283      18519.213    
     37000   1.1101478      0.0023323615   7.8855484e-05  20.742818      19.094249      1.6485694     -1.3859648      18540.844    
     38000   0.93379214     0.0023323615   0.00048045175  20.586626      19.199944      1.3866813     -1.1968517      18596.609    
     39000   1.0023303      0.0023323615   0.0041702878   20.716012      19.227551      1.4884605     -1.1548625      18614.831    
     40000   0.93475588     0.0023323615  -0.0026246955   21.158365      19.770252      1.3881125     -0.75179754     18730.305    
     41000   1.0387947      0.0023323615   0.000983649    20.69062       19.14801       1.5426101     -1.3880975      18621.593    
     42000   0.96121669     0.0023323615  -0.0014750319   20.571436      19.144029      1.4274068     -1.4517954      18403.978    
     43000   1.040336       0.0023323615   0.003408929    20.703875      19.158976      1.544899      -1.3836704      18403.061    
     44000   0.95647429     0.0023323615   0.0010191427   20.926265      19.505901      1.4203643     -0.98262774     18535.287    
     45000   0.91474907     0.0023323615   0.0013769338   20.784661      19.426259      1.3584024     -1.113492       18696.136    
     46000   0.82875435     0.0023323615  -0.0014549083   20.403662      19.172962      1.2307002     -1.2342316      18659.437    
     47000   0.94478502     0.0023323615   0.00019580919  20.839641      19.436635      1.4030058     -1.0822724      18540.345    
     48000   1.0077947      0.0023323615  -0.00029592519  20.608736      19.112161      1.4965752     -1.2787126      18479.102    
     49000   1.025697       0.0023323615  -0.002767214    20.538192      19.015032      1.5231601     -1.4420149      18339.101    
     50000   0.96876702     0.0023323615  -0.00010291457  20.686372      19.247753      1.438619      -1.3399648      18439.409    
     51000   0.88478147     0.0023323615   0.0013440261   20.409089      19.095189      1.3139005     -1.3718665      18501.582    
     52000   0.98229524     0.0023323615   0.0030482463   20.586485      19.127777      1.4587084     -1.3881276      18610.26     
     53000   0.94035606     0.0023323615  -0.0019824118   20.613843      19.217414      1.3964288     -1.3416017      18752.179    
     54000   0.9259301      0.0023323615  -0.0027078452   20.595017      19.220011      1.3750062     -1.3451876      18639.101    
     55000   0.92841413     0.0023323615  -0.00325694     20.60857       19.229875      1.378695      -1.286981       18649.982    
     56000   0.98356469     0.0023323615   0.0036668312   20.633393      19.172799      1.4605936     -1.2880466      18642.91     
     57000   0.91507375     0.0023323615   0.0001574447   20.458441      19.099556      1.3588845     -1.3999542      18613.783    
     58000   0.96865067     0.0023323615   0.0023315928   20.5559        19.117454      1.4384463     -1.403184       18542.249    
     59000   0.91310973     0.0023323615  -0.0057065387   20.916463      19.560495      1.355968      -1.1140157      18555.272    
     60000   1.165089       0.0023323615   0.00079318     20.800943      19.070786      1.7301572     -1.3861297      18654.576    
     61000   0.94922823     0.0023323615  -0.006503667    20.653764      19.24416       1.4096039     -1.4162244      18554.331    
     62000   1.0889279      0.0023323615  -0.002777862    20.866254      19.249196      1.617058      -1.3259988      18534.512    
     63000   0.99636732     0.0023323615  -0.00051096031  20.680857      19.201252      1.4796055     -1.3561419      18421.919    
     64000   1.1130089      0.0023323615   0.0011694715   20.789096      19.136278      1.6528183     -1.4048434      18345.145    
     65000   0.93059595     0.0023323615  -0.0013507945   20.623359      19.241424      1.381935      -1.314393       18381.321    
     66000   1.0703622      0.0023323615   0.0025011015   20.762634      19.173147      1.5894879     -1.2852885      18472.063    
     67000   1.0328176      0.0023323615   0.0015463501   21.0829        19.549166      1.5337342     -0.93889543     18535.149    
     68000   1.022816       0.0023323615   0.0013795856   20.848533      19.329651      1.5188818     -1.0863843      18638.482    
     69000   1.0295654      0.0023323615  -0.00079366986  20.648296      19.119391      1.5289047     -1.459017       18535.962    
     70000   0.75969302     0.0023323615  -0.0011570713   20.073833      18.945689      1.1281441     -1.5619987      18563.409    
     71000   1.0483918      0.0023323615   0.0030499877   20.718222      19.161361      1.5568618     -1.2985395      18599.946    
     72000   1.1031927      0.0023323615   2.8612187e-05  20.629239      18.990998      1.6382411     -1.497554       18783.162    
     73000   0.84777433     0.0023323615   0.0052372025   20.498834      19.239889      1.2589449     -1.3054488      18752.999    
     74000   0.92853023     0.0023323615  -0.0024422059   20.777879      19.399012      1.3788674     -1.2845894      18662.459    
     75000   1.1154499      0.0023323615   0.004159305    21.1234        19.466957      1.6564431     -1.1608359      18425.966    
     76000   0.94874736     0.0023323615   0.00041826581  20.590575      19.181685      1.4088898     -1.2646559      18605.695    
     77000   1.0902927      0.0023323615   2.5572649e-05  20.924477      19.305392      1.6190846     -1.2074595      18546.387    
     78000   0.92386072     0.0023323615   0.0064851302   20.672545      19.300612      1.3719332     -1.2569815      18452.605    
     79000   1.0018056      0.0023323615   0.00060774486  20.706345      19.218663      1.4876813     -1.2317554      18686.532    
     80000   1.104859       0.0023323615   0.00077152954  20.384349      18.743633      1.6407156     -1.6420226      18430.175    
     81000   0.9693985      0.0023323615   0.00058278603  20.44628       19.006723      1.4395568     -1.5091513      18364.563    
     82000   0.92820573     0.0023323615  -0.0037665388   20.776208      19.397822      1.3783855     -1.1138695      18457.324    
     83000   0.94742667     0.0023323615  -0.00017470071  20.746531      19.339602      1.4069286     -1.2168669      18627.296    
     84000   0.93591039     0.0023323615  -0.00085188447  20.409066      19.019239      1.3898269     -1.4602642      18563.278    
     85000   0.89175557     0.0023323615  -0.0019169094   20.314021      18.989764      1.324257      -1.5977329      18495.192    
     86000   1.0857379      0.0023323615   0.0014836206   20.695642      19.083321      1.6123208     -1.5924919      18580.951    
     87000   1.1035043      0.0023323615  -0.0030750689   21.001532      19.362828      1.6387039     -1.1623092      18668.885    
     88000   0.98999599     0.0023323615   0.0015955358   20.731855      19.261711      1.470144      -1.231772       18765.632    
     89000   0.95584423     0.0023323615  -0.0026941215   20.922584      19.503156      1.4194287     -1.1182882      18636.394    
     90000   1.0664941      0.0023323615   0.0026317601   20.959187      19.375443      1.5837438     -1.1849524      18689.415    
     91000   0.9930945      0.0023323615  -0.00071434968  20.551331      19.076585      1.4747453     -1.4229897      18480.802    
     92000   1.0375932      0.0023323615  -0.0018285195   20.866915      19.326089      1.5408259     -1.0723788      18582.459    
     93000   1.1722492      0.0023323615  -0.0035171814   20.994988      19.254198      1.7407901     -1.3231167      18700.017    
     94000   1.0457483      0.0023323615   0.0027445737   20.801923      19.248987      1.5529363     -1.3140673      18521.866    
     95000   0.96087774     0.0023323615  -0.0010286986   20.579853      19.15295       1.4269034     -1.3744691      18585.442    
     96000   0.96096751     0.0023323615   0.0014007565   20.555834      19.128798      1.4270367     -1.3273117      18521.498    
     97000   0.97976826     0.0023323615  -0.0018482075   20.850883      19.395927      1.4549559     -1.2343374      18565.33     
     98000   0.88935046     0.0023323615   0.0005256063   20.539733      19.219048      1.3206854     -1.3599461      18500.251    
     99000   0.94776873     0.0023323615   0.00050856757  20.557368      19.149932      1.4074366     -1.2806935      18523.468    
    100000   1.0037687      0.0023323615   0.0059271423   20.667018      19.176422      1.4905966     -1.367905       18310.589    
    101000   1.0937381      0.0023323615   0.00079837367  20.942821      19.31862       1.624201      -1.2483851      18284.1      
    102000   0.92307438     0.0023323615  -0.002023024    20.836562      19.465797      1.3707655     -1.2107244      18425.048    
    103000   1.0639898      0.0023323615  -0.0025794877   20.913755      19.33373       1.5800249     -1.2444621      18716.874    
    104000   1.0474961      0.0023323615   0.0017390797   20.935908      19.380376      1.5555317     -1.0002994      18642.583    
    105000   0.97871704     0.0023323615  -0.00029519351  20.892029      19.438634      1.4533948     -1.1284047      18800.101    
    106000   0.98653887     0.0023323615  -0.0036915678   20.716647      19.251637      1.4650102     -1.2824762      18726.531    
    107000   0.88282778     0.0023323615  -0.002343937    20.613919      19.30292       1.3109993     -1.1446317      18491.933    
    108000   0.93462187     0.0023323615  -0.0010240041   20.664252      19.276338      1.3879135     -1.2167343      18579.45     
    109000   0.94778034     0.0023323615   0.0039030596   20.494635      19.087182      1.4074538     -1.4067155      18559.233    
    110000   0.96030351     0.0023323615  -0.0011780358   20.649321      19.223271      1.4260507     -1.2932426      18572.279    
    111000   0.9262351      0.0023323615   0.0025918601   20.723708      19.348248      1.3754591     -1.1315964      18576.518    
    112000   0.91408233     0.0023323615  -0.0016790134   20.758957      19.401545      1.3574123     -1.1544066      18779.405    
    113000   0.9194521      0.0023323615  -0.0011129003   20.608458      19.243071      1.3653864     -1.2312758      18532.726    
    114000   0.97214899     0.0023323615   0.0031854814   21.182575      19.738934      1.4436413     -0.85536023     18502.886    
    115000   1.080013       0.0023323615  -0.0032696427   20.866639      19.26282       1.6038192     -1.2181114      18590.001    
    116000   1.2261651      0.0023323615   0.0021965796   21.06926       19.248405      1.8208552     -1.2529302      18724.04     
    117000   0.970192       0.0023323615  -0.00077177261  20.77591       19.335175      1.4407351     -1.2642438      18530.7      
    118000   0.96351106     0.0023323615  -0.00057569661  20.843558      19.412744      1.4308139     -1.1665874      18612.756    
    119000   1.0055826      0.0023323615  -0.00028643494  20.890661      19.39737       1.4932902     -1.0843688      18704.737    
    120000   0.90936136     0.0023323615  -0.0042156143   20.763008      19.412606      1.3504016     -1.0668124      18615.675    
    121000   1.1567759      0.0023323615  -0.0024870704   21.058332      19.34052       1.7178122     -1.2525009      18628.119    
    122000   1.0253666      0.0023323615   0.001197048    20.478067      18.955397      1.5226695     -1.5237043      18408.485    
    123000   0.98822784     0.0023323615  -0.0052325014   20.735985      19.268467      1.4675183     -1.2680973      18420.026    
    124000   1.094395       0.0023323615   0.0066240977   20.948476      19.3233        1.6251765     -1.2429322      18445.024    
    125000   1.0996202      0.0023323615  -0.00026212572  20.766378      19.133442      1.632936      -1.3242743      18548.869    
    126000   1.0044601      0.0023323615   0.00029287388  20.55096       19.059337      1.4916232     -1.4394812      18640.01     
    127000   1.039935       0.0023323615  -0.0030751619   20.849584      19.305281      1.5443034     -1.2499587      18491.364    
    128000   1.1072232      0.0023323615   0.0022309512   20.874369      19.230142      1.6442265     -1.2067891      18514.16     
    129000   1.1294972      0.0023323615   0.00042769194  21.086233      19.40893       1.6773034     -1.2653302      18475.8      
    130000   0.91681388     0.0023323615  -0.0041641831   20.65771       19.296242      1.3614686     -1.1939481      18493.965    
    131000   0.87857221     0.0023323615  -0.00015408947  20.813026      19.508346      1.3046797     -1.1291962      18412.404    
    132000   1.0026367      0.0023323615   0.0023849571   20.624627      19.135711      1.4889156     -1.3072978      18622.625    
    133000   0.9666152      0.0023323615   0.00089134317  21.133349      19.697925      1.4354236     -1.0395318      18535.696    
    134000   1.0807532      0.0023323615  -0.0019175802   20.904436      19.299517      1.6049185     -1.1830649      18594.607    
    135000   0.99278124     0.0023323615   3.8202639e-05  20.599546      19.125265      1.4742801     -1.4062554      18562.046    
    136000   0.8555522      0.0023323615  -0.0023955768   20.246648      18.976153      1.270495      -1.4495886      18379.686    
    137000   0.95369987     0.0023323615   0.001177038    20.508937      19.092693      1.4162443     -1.3109799      18482.242    
    138000   0.93651553     0.0023323615  -0.0016387348   20.505027      19.114301      1.3907256     -1.255986       18531.656    
    139000   0.9266139      0.0023323615   0.0019581244   20.51675       19.140728      1.3760216     -1.3590735      18586.359    
    140000   1.082716       0.0023323615  -0.0012064963   20.707197      19.099364      1.6078332     -1.4536997      18490.816    
    141000   1.0623706      0.0023323615  -0.00091237237  20.848985      19.271365      1.5776203     -1.3506247      18368.034    
    142000   1.1264061      0.0023323615   0.0040772761   20.741792      19.069079      1.6727131     -1.5021473      18541.495    
    143000   1.0325512      0.0023323615   0.001123203    20.700461      19.167122      1.5333386     -1.3793876      18454.382    
    144000   1.0058085      0.0023323615   0.0011293817   20.770409      19.276783      1.4936256     -1.3106884      18656.121    
    145000   0.97017182     0.0023323615   0.0031595374   20.597972      19.157266      1.4407052     -1.3269484      18642.454    
    146000   1.0073348      0.0023323615   0.0010012183   20.847364      19.351472      1.4958922     -1.1081413      18495.15     
    147000   1.2015945      0.0023323615   0.0025911985   21.060703      19.276335      1.7843678     -1.2353951      18693.661    
    148000   0.93782242     0.0023323615  -0.001917907    20.645169      19.252503      1.3926663     -1.331639       18619.366    
    149000   1.0198983      0.0023323615  -0.0031125175   20.682365      19.167816      1.514549      -1.1638857      18505.897    
    150000   1.0160472      0.0023323615   0.0021782213   20.776024      19.267194      1.5088301     -1.2934957      18489.422    
    151000   1.0968128      0.0023323615   0.0019384012   20.91714       19.288373      1.628767      -1.0906407      18793.071    
    152000   0.8748648      0.0023323615  -0.0033745134   20.674541      19.375367      1.2991742     -1.2627411      18805.23     
    153000   0.84470037     0.0023323615   0.00076339668  20.658167      19.403787      1.2543801     -1.1279763      18872.914    
    154000   0.90892071     0.0023323615   0.0015055115   20.602398      19.252651      1.3497472     -1.2710765      18742.868    
    155000   0.93003759     0.0023323615  -0.0048556329   20.825602      19.444497      1.3811058     -1.1361922      18818.228    
    156000   0.97309121     0.0023323615  -0.0035705392   20.700162      19.255121      1.4450404     -1.1767698      18744.688    
    157000   1.040336       0.0023323615  -0.00073155024  21.024779      19.47988       1.5448989     -1.039753       18787.228    
    158000   1.0507493      0.0023323615  -0.001583       20.710099      19.149736      1.5603627     -1.3366884      18603.51     
    159000   0.86849501     0.0023323615   0.0022446762   20.613836      19.32412       1.2897151     -1.1571181      18369.788    
    160000   0.92420968     0.0023323615  -0.00034800695  20.410869      19.038418      1.3724514     -1.4695518      18471.868    
    161000   1.0950806      0.0023323615   0.0041158547   20.859276      19.233081      1.6261947     -1.2190757      18500.313    
    162000   1.0550615      0.0023323615   0.00014889989  20.906976      19.34021       1.5667663     -1.3096849      18544.971    
    163000   0.91201281     0.0023323615  -0.00016802911  20.493045      19.138706      1.354339      -1.3926292      18514.544    
    164000   0.94205239     0.0023323615   0.0014112099   20.803928      19.40498       1.3989478     -1.1876429      18557.204    
    165000   0.79950008     0.0023323615   0.0036129877   20.52354       19.336282      1.1872576     -1.1868236      18633.475    
    166000   1.0910469      0.0023323615  -0.0023324067   20.888533      19.268328      1.6202046     -1.2503852      18536.444    
    167000   1.0696289      0.0023323615  -0.00087180444  20.68677       19.098371      1.588399      -1.3483918      18514.541    
    168000   1.1281881      0.0023323615   0.0016637247   20.780662      19.105303      1.6753593     -1.3211375      18451.278    
    169000   0.95712577     0.0023323615   0.0015027642   20.679738      19.258406      1.4213318     -1.2700961      18621.287    
    170000   1.0380363      0.0023323615  -0.0035371614   20.643151      19.101667      1.5414839     -1.3498021      18581.726    
    171000   0.99671145     0.0023323615   0.00073027713  20.683747      19.203631      1.4801165     -1.2595261      18647.191    
    172000   0.98798003     0.0023323615   0.003283065    20.76424       19.297089      1.4671503     -1.1595337      18635.131    
    173000   0.81347185     0.0023323615  -0.0033477165   20.534596      19.326591      1.2080057     -1.1611406      18686.724    
    174000   0.98213989     0.0023323615  -0.00012753155  20.827041      19.368563      1.4584777     -1.1935733      18626.072    
    175000   1.0193987      0.0023323615   0.0010517422   21.054365      19.540558      1.5138071     -0.98425509     18667.862    
    176000   1.0350476      0.0023323615  -0.0024166259   20.972731      19.435685      1.5370457     -1.1026763      18546.063    
    177000   1.2402511      0.0023323615  -0.00080293384  21.160458      19.318685      1.8417728     -1.0766419      18666.717    
    178000   1.0990757      0.0023323615   0.00032481187  21.233478      19.601351      1.6321274     -0.80724275     18838.835    
    179000   0.92765555     0.0023323615   0.00097528211  20.809495      19.431927      1.3775685     -1.077145       18695.387    
    180000   1.0887423      0.0023323615   0.001659229    21.020497      19.403715      1.6167823     -1.0119934      18556.976    
    181000   0.93299691     0.0023323615   0.0010708271   20.446161      19.060661      1.3855004     -1.4529228      18594.146    
    182000   1.0819873      0.0023323615  -0.0019467647   20.945508      19.338757      1.6067511     -1.1917573      18555.134    
    183000   0.89714888     0.0023323615   0.001231902    20.834634      19.502368      1.3322661     -1.1040106      18590.073    
    184000   0.92736502     0.0023323615  -0.0014197721   20.84144       19.464303      1.3771371     -1.1233018      18562.239    
    185000   1.1542572      0.0023323615  -0.00074187257  20.732673      19.018601      1.7140719     -1.3662168      18451.51     
    186000   0.92085052     0.0023323615  -0.0013908851   20.890805      19.523342      1.367463      -1.0462018      18481.261    
    187000   1.0285095      0.0023323615   0.0028859722   21.05423       19.526893      1.5273367     -1.037468       18644.408    
    188000   0.88671282     0.0023323615  -0.00010622551  20.735138      19.418369      1.3167685     -1.1836554      18689.317    
    189000   0.93365055     0.0023323615  -0.0025700112   20.847237      19.460766      1.3864711     -1.0976881      18688.176    
    190000   0.84232338     0.0023323615   0.0027943246   20.384362      19.133512      1.2508502     -1.3258651      18690.766    
    191000   0.96393365     0.0023323615  -0.0032937003   20.696848      19.265406      1.4314415     -1.2543637      18661.031    
    192000   1.069889       0.0023323615  -0.00035825738  21.060899      19.472114      1.5887851     -1.1032538      18658.495    
    193000   1.0630812      0.0023323615   8.4656989e-05  21.047539      19.468863      1.5786755     -1.0187112      18776.943    
    194000   1.0995709      0.0023323615  -0.002450152    20.944971      19.312108      1.6328628     -1.2938399      18755.854    
    195000   0.96275305     0.0023323615  -0.00025856411  20.84261       19.412922      1.4296883     -1.1353608      18718.018    
    196000   0.90867975     0.0023323615  -0.0013733602   20.424811      19.075422      1.3493894     -1.2906917      18621.589    
    197000   0.91446194     0.0023323615   0.00096143127  20.518494      19.160518      1.357976      -1.420073       18528.687    
    198000   1.0404374      0.0023323615  -0.00067619417  20.817434      19.272384      1.5450496     -1.2241698      18535.043    
    199000   0.97281985     0.0023323615   0.0042816519   20.633445      19.188808      1.4446375     -1.3588979      18527.546    
    200000   1.1889446      0.0023323615  -0.00059255065  20.889171      19.123588      1.7655828     -1.3995278      18497.481    
    201000   1.0489408      0.0023323615   0.00042796216  20.743353      19.185676      1.5576771     -1.2611072      18637.873    
    202000   0.96474308     0.0023323615  -0.0020206063   20.692716      19.260073      1.4326435     -1.209319       18689.625    
    203000   0.92468313     0.0023323615  -0.0060513554   20.429682      19.056528      1.3731545     -1.5633279      18586.483    
    204000   1.0122812      0.0023323615   0.0037363798   20.894831      19.391594      1.5032375     -1.1326768      18658.244    
    205000   0.99792026     0.0023323615   0.0035208658   20.63921       19.157298      1.4819116     -1.3261165      18524.437    
    206000   1.0808571      0.0023323615   0.0011622859   20.801679      19.196606      1.6050727     -1.2998237      18528.963    
    207000   1.0757254      0.0023323615  -0.0044783118   20.709329      19.111877      1.5974522     -1.423505       18534.891    
    208000   0.99493844     0.0023323615  -0.00091803638  20.527869      19.050385      1.4774836     -1.4117667      18423.817    
    209000   1.0140733      0.0023323615   0.0024649362   20.456673      18.950774      1.5058989     -1.5236241      18375.659    
    210000   0.90698791     0.0023323615  -0.00076387679  20.772796      19.425919      1.346877      -1.2039555      18373.055    
    211000   0.91611791     0.0023323615   0.0016915631   20.927492      19.567057      1.3604351     -1.0986284      18628.909    
    212000   1.0740966      0.0023323615  -0.0027243402   20.983793      19.38876       1.5950334     -1.1311121      18566.003    
    213000   1.1416031      0.0023323615   2.0024703e-05  20.924031      19.22875       1.6952806     -1.1886041      18559.057    
    214000   0.85840099     0.0023323615   0.0013505251   20.503868      19.229142      1.2747255     -1.2635332      18748.674    
    215000   0.90821839     0.0023323615   0.0016330275   20.60479       19.256085      1.3487043     -1.1640675      18682.065    
    216000   1.079998       0.0023323615  -0.00054979385  20.569782      18.965985      1.603797      -1.5435938      18459.751    
    217000   1.0612572      0.0023323615   0.0052029524   20.741624      19.165657      1.5759669     -1.3194555      18443.006    
    218000   0.90150732     0.0023323615  -0.00053887187  20.195239      18.856501      1.3387384     -1.6514029      18508.451    
    219000   0.94229604     0.0023323615   0.0021572698   20.336891      18.937582      1.3993096     -1.5693653      18443.992    
    220000   0.81966925     0.0023323615   0.0047350969   20.455898      19.238689      1.2172088     -1.3481921      18458.153    
    221000   1.1285061      0.0023323615   0.0036433382   20.789409      19.113577      1.6758316     -1.4052127      18585.13     
    222000   0.9787907      0.0023323615   0.0010676623   20.550398      19.096894      1.4535042     -1.3552645      18381.987    
    223000   1.1927204      0.0023323615  -0.0010854244   20.646274      18.875085      1.7711898     -1.6199127      18357.73     
    224000   1.0763534      0.0023323615  -0.0012896202   20.568104      18.969719      1.5983848     -1.4904272      18352.191    
    225000   0.93044415     0.0023323615  -0.0023912056   20.510421      19.128712      1.3817096     -1.4346355      18380.701    
    226000   1.0585698      0.0023323615   0.0010358467   20.792717      19.220741      1.5719761     -1.205735       18466.004    
    227000   1.0146268      0.0023323615   0.0031723172   20.797185      19.290464      1.5067208     -1.231785       18638.785    
    228000   0.87968863     0.0023323615  -0.00049877538  20.541395      19.235057      1.3063376     -1.2840257      18752.852    
    229000   0.89612789     0.0023323615  -0.0037628127   20.750282      19.419532      1.3307499     -1.1863797      18478.824    
    230000   1.1131271      0.0023323615   0.00028400998  21.089124      19.436131      1.6529937     -1.1493889      18602.868    
    231000   0.94806513     0.0023323615  -0.00090360858  20.721246      19.313369      1.4078767     -1.2158346      18497.968    
    232000   1.1821057      0.0023323615  -7.4242224e-05  21.122455      19.367028      1.7554269     -1.1161889      18432.04     
    233000   0.94180961     0.0023323615   0.0023372783   20.569356      19.170769      1.3985873     -1.2868119      18503.918    
    234000   0.94872832     0.0023323615   0.0032980996   20.649813      19.240951      1.4088616     -1.2160043      18505.887    
    235000   1.0020635      0.0023323615  -0.0011380304   20.682515      19.194451      1.4880644     -1.2595158      18525.933    
    236000   0.97549181     0.0023323615   0.00077671446  20.804404      19.355799      1.4486053     -1.2069538      18500.077    
    237000   0.97592218     0.0023323615   0.005348245    20.851251      19.402006      1.4492444     -1.1326933      18548.5      
    238000   1.1192145      0.0023323615   0.00035231202  20.689692      19.027658      1.6620335     -1.5261271      18530.125    
    239000   0.949873       0.0023323615  -0.0018963298   20.899574      19.489013      1.4105614     -1.073285       18530.259    
    240000   1.0164359      0.0023323615  -0.00032984921  20.488936      18.979528      1.5094073     -1.546965       18498.311    
    241000   0.95075156     0.0023323615  -0.00019473971  20.635791      19.223925      1.4118661     -1.2070195      18561.987    
    242000   0.91816745     0.0023323615  -0.0035535063   20.825708      19.46223       1.3634787     -1.1135488      18602.005    
    243000   0.96106091     0.0023323615   0.0021774122   20.558402      19.131226      1.4271754     -1.4648503      18541.003    
    244000   0.97904954     0.0023323615  -0.002776889    20.636628      19.182739      1.4538886     -1.2435253      18556.29     
    245000   1.0105595      0.0023323615  -0.0011150497   20.847283      19.346602      1.5006809     -1.2390542      18503.328    
    246000   0.93972261     0.0023323615   0.0016457999   20.414255      19.018767      1.3954881     -1.4167985      18566.697    
    247000   0.88340093     0.0023323615  -0.0018362527   20.547877      19.236027      1.3118504     -1.29809        18525.427    
    248000   1.1047143      0.0023323615   0.0006667637   21.221009      19.580508      1.6405008     -1.1254331      18533.783    
    249000   0.92755703     0.0023323615  -0.0025314444   20.699115      19.321693      1.3774222     -1.2068416      18771.148    
    250000   1.0073922      0.0023323615   0.0027930739   20.963574      19.467596      1.4959774     -1.0841533      18638.225    
    251000   0.94112817     0.0023323615  -0.0015096885   20.712097      19.314521      1.3975753     -1.1174675      18640.929    
    252000   0.89780204     0.0023323615  -0.0028944229   20.515505      19.182269      1.333236      -1.4776156      18456.826    
    253000   1.1388056      0.0023323615  -0.0018586127   21.077318      19.386192      1.6911263     -1.2129617      18504.326    
    254000   1.0182621      0.0023323615   0.0012786935   20.968445      19.456325      1.5121193     -1.0862503      18550.972    
    255000   1.0173333      0.0023323615  -0.00071443855  20.43312       18.92238       1.5107399     -1.6322862      18432.547    
    256000   1.0299452      0.0023323615   0.0016722598   20.830557      19.301089      1.5294686     -1.3598861      18446.231    
    257000   1.0743076      0.0023323615   0.0012757868   20.764933      19.169586      1.5953467     -1.3600401      18373.789    
    258000   0.89760707     0.0023323615   0.0017162295   20.657741      19.324795      1.3329465     -1.3944606      18390.583    
    259000   1.0576499      0.0023323615  -0.00068199214  20.468036      18.897426      1.5706102     -1.5198654      18531.319    
    260000   0.88156885     0.0023323615  -0.0020350183   20.430223      19.121094      1.3091297     -1.3325156      18481.12     
    261000   1.0329921      0.0023323615  -0.0025372285   20.852187      19.318194      1.5339932     -1.3492746      18404.439    
    262000   1.0064757      0.0023323615  -0.00037535475  20.574797      19.080181      1.4946164     -1.3771285      18512.886    
    263000   1.0751602      0.0023323615  -0.0013296163   20.795107      19.198494      1.5966129     -1.2667459      18521.828    
    264000   0.97151994     0.0023323615  -8.0911207e-05  20.841339      19.398632      1.4427071     -1.2968088      18518.34     
    265000   0.98343787     0.0023323615   0.003004795    20.620392      19.159987      1.4604052     -1.3209511      18507.895    
    266000   0.92647984     0.0023323615  -0.0054438252   20.468627      19.092804      1.3758226     -1.4328605      18787.546    
    267000   1.0100046      0.0023323615  -0.0036945519   20.561059      19.061202      1.4998568     -1.4230843      18518.731    
    268000   1.0811539      0.0023323615   0.00034153767  20.973499      19.367985      1.6055135     -1.1632808      18579.097    
    269000   1.0905018      0.0023323615   0.00183584     20.816285      19.19689       1.6193952     -1.262853       18548.011    
    270000   1.0113499      0.0023323615  -0.0029210176   20.636478      19.134623      1.5018546     -1.4781854      18383.081    
    271000   1.1207283      0.0023323615   0.0017559869   20.816289      19.152008      1.6642815     -1.3968903      18421.953    
    272000   1.1106371      0.0023323615   0.0049385837   20.835573      19.186277      1.6492962     -1.3825023      18367.033    
    273000   1.108581       0.0023323615  -0.0030335151   20.892934      19.246692      1.6462427     -1.3930077      18487.265    
    274000   0.98373974     0.0023323615  -4.459446e-06   20.516908      19.056054      1.4608535     -1.476731       18393.569    
    275000   1.0599905      0.0023323615  -0.0020714238   20.694753      19.120667      1.5740859     -1.497063       18498.781    
    276000   1.0215778      0.0023323615  -0.00058880079  20.835873      19.31883       1.5170431     -1.1806967      18397.031    
    277000   1.0375132      0.0023323615  -0.0016794526   20.722293      19.181586      1.5407071     -1.3295221      18378.302    
    278000   1.0358554      0.0023323615   0.00017474654  20.805195      19.266949      1.5382453     -1.1474966      18439.576    
    279000   0.95285452     0.0023323615   0.0026632924   20.604831      19.189842      1.414989      -1.2933921      18372.645    
    280000   0.92235002     0.0023323615  -0.00075970888  20.672561      19.302871      1.3696898     -1.2318484      18610.468    
    281000   1.058177       0.0023323615   0.004964529    20.690852      19.119459      1.5713928     -1.2412979      18519.086    
    282000   0.94883222     0.0023323615  -0.0044644224   20.742791      19.333775      1.4090159     -1.1792438      18688.312    
    283000   0.97033334     0.0023323615  -0.0027457474   20.660906      19.219961      1.440945      -1.2224068      18535.883    
    284000   0.89676317     0.0023323615  -0.0051598358   20.505102      19.173409      1.3316933     -1.3380034      18538.327    
    285000   1.0176915      0.0023323615   0.0013571107   20.842009      19.330737      1.5112718     -1.1391835      18619.752    
    286000   1.0368925      0.0023323615   0.00017197271  20.764737      19.224952      1.5397854     -1.281708       18596.197    
    287000   1.0211211      0.0023323615   0.0041051325   20.89486       19.378495      1.5163649     -1.2354807      18722.291    
    288000   0.99740674     0.0023323615  -0.0020352525   20.74556       19.264411      1.481149      -1.246479       18564.676    
    289000   1.0854986      0.0023323615  -0.0016591687   20.911456      19.29949       1.6119654     -1.2487126      18514.143    
    290000   1.047507       0.0023323615  -0.000847185    20.843683      19.288135      1.5555479     -1.2813512      18501.716    
    291000   0.97543763     0.0023323615  -0.0022053867   20.563623      19.115098      1.4485249     -1.4291293      18527.257    
    292000   1.1533327      0.0023323615   0.0020635093   20.67316       18.960461      1.7126991     -1.56573        18302.946    
    293000   1.0030361      0.0023323615  -0.0011320145   20.873717      19.384208      1.4895086     -1.200952       18333.341    
    294000   1.0359336      0.0023323615  -0.0014753375   20.745462      19.2071        1.5383614     -1.3428277      18500.241    
    295000   0.97171281     0.0023323615  -3.60016e-05    20.990349      19.547355      1.4429935     -1.0839913      18592.698    
    296000   0.96507082     0.0023323615  -0.0019763524   20.593741      19.160611      1.4331302     -1.3827115      18522.736    
    297000   1.0052222      0.0023323615  -0.0017575082   20.605986      19.113231      1.492755      -1.2650863      18511.564    
    298000   0.92969136     0.0023323615   0.00289286     20.423386      19.042795      1.3805917     -1.3798138      18576.068    
    299000   1.0974321      0.0023323615  -0.0010250018   20.576138      18.946452      1.6296867     -1.5366159      18468.03     
    300000   1.0651681      0.0023323615   0.0020051945   20.670933      19.089159      1.5817746     -1.3904654      18392.193    
    301000   0.97157682     0.0023323615   0.0023705499   20.727733      19.284942      1.4427916     -1.274764       18509.161    
    302000   1.0724728      0.0023323615   1.9711324e-05  21.018466      19.425844      1.5926221     -1.1676433      18637.845    
    303000   1.0522355      0.0023323615  -0.00016540733  20.636456      19.073886      1.5625697     -1.4480242      18415.961    
    304000   1.0871312      0.0023323615  -0.0032127892   20.725598      19.111208      1.6143899     -1.4090968      18438.21     
    305000   1.0802021      0.0023323615  -0.00094824546  20.732734      19.128634      1.6041001     -1.3708233      18519.491    
    306000   1.0303514      0.0023323615  -0.0012516397   20.575829      19.045757      1.5300718     -1.4117282      18546.518    
    307000   0.8507396      0.0023323615  -0.0031214662   20.518102      19.254754      1.2633483     -1.3791994      18589.956    
    308000   0.87721481     0.0023323615  -0.0011149434   20.552504      19.24984       1.302664      -1.1581056      18637.556    
    309000   1.2146141      0.0023323615   0.0061015243   21.06415       19.260448      1.8037019     -1.2861728      18604.391    
    310000   0.99328103     0.0023323615   0.0015253275   20.710121      19.235099      1.4750223     -1.237418       18515.588    
    311000   0.91056662     0.0023323615  -0.00063973367  20.476868      19.124677      1.3521914     -1.3159861      18490.481    
    312000   0.9756429      0.0023323615  -0.0032607494   20.70578       19.25695       1.4488297     -1.2630271      18563.192    
    313000   1.104368       0.0023323615   0.0020182885   21.02146       19.381474      1.6399865     -1.2149397      18532.437    
    314000   0.94349022     0.0023323615   0.00082782204  20.571338      19.170255      1.401083      -1.3049548      18449.845    
    315000   1.0315354      0.0023323615   0.0014603329   20.874846      19.343016      1.5318301     -1.0435821      18532.252    
    316000   1.0811447      0.0023323615  -0.0024294843   20.67051       19.06501       1.6054998     -1.3616218      18506.151    
    317000   0.9822997      0.0023323615   0.0024215767   20.840943      19.382228      1.4587151     -1.0926319      18545.078    
    318000   1.0634732      0.0023323615  -0.00026521445  21.045071      19.465813      1.5792577     -1.2298484      18518.086    
    319000   0.92244733     0.0023323615   0.0034687619   20.590548      19.220713      1.3698343     -1.2177691      18469.117    
    320000   0.88974969     0.0023323615  -0.0016673114   20.452664      19.131386      1.3212783     -1.3467273      18538.34     
    321000   1.0246099      0.0023323615  -0.00012168521  20.742052      19.220506      1.5215457     -1.3455474      18491.142    
    322000   1.003344       0.0023323615   0.00045344153  20.793405      19.303439      1.4899658     -1.2283586      18709.439    
    323000   1.1021444      0.0023323615  -0.0047393082   21.177731      19.541047      1.6366844     -0.98936551     18643.057    
    324000   0.95164072     0.0023323615   0.0027906325   20.776221      19.363035      1.4131865     -1.3344847      18620.064    
    325000   0.98467413     0.0023323615  -0.0011769875   20.71967       19.257429      1.4622411     -1.314048       18629.34     
    326000   0.91483078     0.0023323615  -0.00023919021  20.530158      19.171634      1.3585237     -1.3611848      18481.517    
    327000   0.92703547     0.0023323615   0.0025757102   20.590021      19.213374      1.3766477     -1.2329336      18660.369    
    328000   1.0196851      0.0023323615   8.4566501e-05  20.88922       19.374987      1.5142323     -1.1858381      18563.271    
    329000   0.97562417     0.0023323615  -0.0009832772   20.792135      19.343333      1.4488019     -1.2169876      18583.393    
    330000   1.0100941      0.0023323615  -0.00173522     20.635741      19.135752      1.4999897     -1.3939428      18473.838    
    331000   1.0781858      0.0023323615  -0.0018269938   20.883974      19.282868      1.601106      -1.2704155      18565.989    
    332000   1.0334896      0.0023323615   0.00047433717  20.728004      19.193272      1.534732      -1.3300197      18463.896    
    333000   1.1500144      0.0023323615   1.517757e-05   20.941387      19.233616      1.7077713     -1.3006315      18420.366    
    334000   0.95269657     0.0023323615   0.0041748228   20.650968      19.236214      1.4147544     -1.1804983      18501.331    
    335000   0.96925595     0.0023323615  -0.0019643381   20.819136      19.379791      1.4393451     -1.1293361      18464.747    
    336000   0.99687187     0.0023323615  -0.0042253779   20.879936      19.399581      1.4803547     -1.1872968      18672.416    
    337000   0.92236893     0.0023323615   0.00069586468  20.583695      19.213977      1.3697179     -1.3750508      18576.168    
    338000   1.0915524      0.0023323615  -0.0018876363   20.806755      19.1858        1.6209553     -1.2696055      18575.515    
    339000   1.0795796      0.0023323615  -0.0028470419   20.800338      19.197162      1.6031757     -1.2998969      18512.958    
    340000   0.85063349     0.0023323615   0.0016182696   20.412339      19.149149      1.2631907     -1.3784585      18489.898    
    341000   1.1004557      0.0023323615   0.0025639341   20.736453      19.102276      1.6341768     -1.4039938      18513.504    
    342000   1.0408149      0.0023323615   0.00038507166  20.716953      19.171343      1.5456102     -1.3365553      18535.315    
    343000   1.0899382      0.0023323615  -0.00052878727  21.014456      19.395898      1.6185583     -1.1460911      18455.58     
    344000   0.93471308     0.0023323615  -0.00073941516  20.931307      19.543258      1.3880489     -1.0926029      18565.737    
    345000   1.1542988      0.0023323615   0.00048821388  20.97897       19.264836      1.7141337     -1.294828       18500.814    
    346000   1.0606926      0.0023323615  -0.00046297759  20.854017      19.278889      1.5751286     -1.3076292      18411.13     
    347000   1.0505351      0.0023323615   0.00019260127  20.846232      19.286187      1.5600446     -1.3081723      18622.347    
    348000   1.1775963      0.0023323615   4.9116126e-05  21.035031      19.286301      1.7487305     -1.2832238      18570.891    
    349000   0.9233445      0.0023323615  -0.00051790357  20.588585      19.217418      1.3711666     -1.280653       18673.027    
    350000   1.0728099      0.0023323615  -0.0021247097   20.976241      19.383119      1.5931227     -1.2406242      18701.188    
    351000   0.9625342      0.0023323615   0.00071099499  20.827051      19.397688      1.4293633     -1.1288231      18798.866    
    352000   0.91101308     0.0023323615  -0.00092172378  20.770468      19.417613      1.3528544     -1.0855687      18728.309    
    353000   1.0902045      0.0023323615  -0.0020591341   20.767089      19.148136      1.6189536     -1.4664858      18565.958    
    354000   0.96338534     0.0023323615   0.00029568651  20.902605      19.471977      1.4306272     -1.1083678      18540.011    
    355000   1.1344002      0.0023323615   0.0027588131   20.857071      19.172486      1.6845844     -1.3188794      18470.098    
    356000   1.0861658      0.0023323615   0.0012541836   20.696089      19.083133      1.6129563     -1.4491409      18243.686    
    357000   0.86867434     0.0023323615  -0.00038237794  20.528271      19.23829       1.2899814     -1.327212       18467.392    
    358000   0.96747117     0.0023323615   0.00046117457  20.63032       19.193625      1.4366947     -1.2394675      18501.589    
    359000   1.0399879      0.0023323615   0.0040236011   20.972806      19.428424      1.544382      -1.1309025      18572.007    
    360000   1.1363332      0.0023323615  -0.0016389983   20.884154      19.196699      1.6874548     -1.2893901      18376.532    
    361000   1.0007642      0.0023323615  -0.00089848234  20.80608       19.319946      1.4861348     -1.253425       18318.815    
    362000   1.0269277      0.0023323615   0.00081082475  20.678543      19.153556      1.5249876     -1.3283122      18260.187    
    363000   0.77999156     0.0023323615  -0.0017220257   20.304851      19.146563      1.1582875     -1.413876       18374.293    
    364000   1.0713414      0.0023323615   0.00015714415  20.93102       19.340078      1.5909419     -1.2744074      18352.862    
    365000   1.0449667      0.0023323615   0.00411897     20.697107      19.145331      1.5517755     -1.4780627      18353.541    
    366000   0.97853724     0.0023323615   0.00086114769  20.684622      19.231494      1.4531278     -1.3249261      18416.273    
    367000   0.89716158     0.0023323615  -0.00078833486  20.417629      19.085344      1.3322849     -1.3854574      18551.644    
    368000   1.0286375      0.0023323615   0.0021144646   20.766517      19.23899       1.5275267     -1.2456741      18502.991    
    369000   1.1901536      0.0023323615  -6.7911566e-05  21.36083       19.593452      1.7673781     -0.90240368     18664.657    
    370000   0.97847119     0.0023323615  -0.001614758    20.763267      19.310238      1.4530297     -1.3041151      18514.658    
    371000   1.0431041      0.0023323615   0.0012309628   21.172823      19.623813      1.5490096     -0.90301393     18686.994    
    372000   0.95263603     0.0023323615  -0.0011676739   21.045828      19.631163      1.4146645     -1.006743       19186.912    
    373000   1.0734746      0.0023323615   0.00017219737  20.92054       19.326431      1.5941098     -1.1374406      18787.716    
    374000   0.84499648     0.0023323615  -0.0027540297   20.352969      19.09815       1.2548198     -1.3442643      18632.212    
    375000   1.0162756      0.0023323615   0.00021468975  20.821513      19.312344      1.5091693     -1.2668051      18495.206    
    376000   0.99024467     0.0023323615   0.00090168868  20.947888      19.477375      1.4705133     -1.1022153      18631.517    
    377000   0.87434038     0.0023323615   1.5587232e-05  20.840723      19.542327      1.2983955     -0.99890734     18777.805    
    378000   0.98566025     0.0023323615  -0.0005990868   20.95371       19.490005      1.4637055     -0.9802811      18924.528    
    379000   0.91093924     0.0023323615  -0.0038467838   20.674794      19.322049      1.3527448     -1.0297664      18908.198    
    380000   0.9181576      0.0023323615  -0.0028656822   20.457906      19.094442      1.363464      -1.2886095      18477.576    
    381000   0.94257595     0.0023323615  -0.0014216549   20.847929      19.448203      1.3997253     -1.1248249      18461.024    
    382000   0.95002092     0.0023323615  -0.0048783118   20.798586      19.387805      1.4107811     -1.1180802      18773.048    
    383000   0.92035259     0.0023323615  -0.00054717819  20.650611      19.283888      1.3667236     -1.2498184      18833.891    
    384000   1.1021482      0.0023323615   0.0021407123   21.115969      19.479279      1.6366901     -1.0323449      18703.241    
    385000   0.91048892     0.0023323615   0.0013278499   20.656055      19.303979      1.352076      -1.1371543      18822.256    
    386000   0.9468263      0.0023323615   0.00066862027  20.329758      18.923721      1.4060371     -1.5591984      18564.804    
    387000   0.93960212     0.0023323615  -0.0010917637   20.656409      19.2611        1.3953091     -1.2964965      18524.341    
    388000   1.0030526      0.0023323615   0.0001526883   20.735652      19.246118      1.4895331     -1.2205159      18762.274    
    389000   0.94057161     0.0023323615   0.00099038232  20.613722      19.216973      1.3967488     -1.2103849      18765.939    
    390000   1.0853312      0.0023323615   0.0043967773   21.049351      19.437634      1.6117168     -1.2279859      18562.215    
    391000   1.0755163      0.0023323615  -0.0013140589   20.887376      19.290234      1.5971418     -1.194776       18696.245    
    392000   0.89731237     0.0023323615   0.0014178141   20.765073      19.432564      1.3325089     -1.0613663      18741.51     
    393000   1.0738427      0.0023323615   0.0027492442   20.651762      19.057106      1.5946565     -1.4632855      18467.795    
    394000   1.0101024      0.0023323615  -0.0001385391   20.767548      19.267545      1.5000021     -1.4080404      18232.832    
    395000   1.017109       0.0023323615   0.0016112064   20.351825      18.841418      1.5104069     -1.6683894      18310.958    
    396000   0.99373859     0.0023323615  -0.0021040232   20.584967      19.109266      1.4757018     -1.4923625      18232.499    
    397000   0.89596617     0.0023323615  -0.00084019917  20.835277      19.504767      1.3305098     -1.2168782      18515.52     
    398000   0.81566602     0.0023323615  -0.0034485749   20.711259      19.499995      1.211264      -0.99598455     18714.049    
    399000   0.84872236     0.0023323615   0.0012850681   20.689334      19.428981      1.2603527     -1.1718035      18523.619    
    400000   1.0569086      0.0023323615  -0.0020675158   20.733114      19.163605      1.5695093     -1.3046483      18401.308    
    401000   0.93726968     0.0023323615  -6.7426673e-05  20.37249       18.980645      1.3918455     -1.4692897      18408.119    
    402000   0.94693141     0.0023323615  -0.0014414139   20.794994      19.388801      1.4061931     -1.1944815      18444.469    
    403000   1.1434645      0.0023323615   0.0019316609   20.896162      19.198117      1.6980448     -1.3006917      18617.738    
    404000   1.0099176      0.0023323615   1.6386941e-05  20.816263      19.316536      1.4997276     -1.1639747      18448.843    
    405000   0.96447149     0.0023323615   0.0042468547   20.684908      19.252668      1.4322402     -1.2005298      18678.052    
    406000   0.88137711     0.0023323615  -0.00043460124  20.527685      19.21884       1.308845      -1.1825712      18727.289    
    407000   0.88289568     0.0023323615   0.00060657785  20.560952      19.249852      1.3111001     -1.2708763      18516.41     
    408000   1.034811       0.0023323615  -0.0025238979   20.888315      19.35162       1.5366943     -1.2598833      18508.179    
    409000   1.0176385      0.0023323615   0.0017852391   20.904462      19.393269      1.5111932     -1.1322672      18630.776    
    410000   0.93398382     0.0023323615  -0.00064195317  20.755328      19.368362      1.386966      -1.165255       18582.777    
    411000   0.93102469     0.0023323615  -0.0020927421   20.636045      19.253473      1.3825717     -1.2778081      18638.983    
    412000   0.99598843     0.0023323615   0.0020227335   20.870274      19.391232      1.4790428     -1.1199427      18541.533    
    413000   1.0204426      0.0023323615  -0.0032338932   20.599462      19.084104      1.5153573     -1.4465785      18121.632    
    414000   0.89083428     0.0023323615   0.0032410051   20.449503      19.126615      1.3228889     -1.3926744      18310.186    
    415000   0.95830683     0.0023323615  -7.4490255e-05  20.699907      19.276822      1.4230856     -1.2906006      18352.785    
    416000   1.0412212      0.0023323615  -0.00069920729  20.59495       19.048736      1.5462136     -1.3408425      18627.059    
    417000   0.94021651     0.0023323615  -0.0012217003   20.577549      19.181327      1.3962215     -1.2578577      18619.821    
    418000   0.92672688     0.0023323615   0.0017201086   20.582374      19.206185      1.3761894     -1.3499959      18526.118    
    419000   1.0882723      0.0023323615   1.3690027e-05  20.940094      19.32401       1.6160843     -1.1219644      18383.03     
    420000   0.95155925     0.0023323615   0.00048038474  20.69345       19.280384      1.4130655     -1.1931919      18428.518    
    421000   1.0769858      0.0023323615   0.0025575179   20.93032       19.330996      1.5993239     -1.1785476      18532.647    
    422000   0.91767934     0.0023323615   0.00027695794  20.395554      19.0328        1.3627538     -1.4185862      18430.308    
    423000   1.0215838      0.0023323615   0.0010983365   20.758445      19.241393      1.5170519     -1.210097       18615.748    
    424000   1.0461387      0.0023323615   0.00061092094  20.958567      19.405051      1.5535159     -1.0769471      18640.404    
    425000   0.95498329     0.0023323615   0.00049599368  20.491948      19.073798      1.4181502     -1.4019654      18556.204    
    426000   1.1078108      0.0023323615  -0.0023442108   20.734629      19.08953       1.645099      -1.4124478      18500.231    
    427000   0.90012713     0.0023323615  -0.001085757    20.618708      19.282019      1.3366888     -1.3121847      18444.244    
    428000   0.98212389     0.0023323615  -0.0069612916   20.738018      19.279564      1.458454      -1.2563132      18607.745    
    429000   1.0647883      0.0023323615   0.0023515091   20.673163      19.091952      1.5812107     -1.4296654      18529.754    
    430000   0.90933702     0.0023323615   0.0025172905   20.631737      19.281371      1.3503655     -1.1741417      18601.433    
    431000   0.91449475     0.0023323615  -0.0041970731   20.995482      19.637457      1.3580247     -0.98821898     18625.443    
    432000   1.095305       0.0023323615   0.0015595742   20.570057      18.943529      1.6265279     -1.6033582      18532.066    
    433000   0.95448332     0.0023323615   0.0014875008   20.904869      19.487461      1.4174077     -1.1208358      18477.589    
    434000   0.93890132     0.0023323615   0.0017399957   20.560051      19.165782      1.3942685     -1.2929949      18728.596    
    435000   1.1565368      0.0023323615   0.0037438212   20.706983      18.989526      1.7174572     -1.5173932      18379.916    
    436000   1.0205607      0.0023323615   0.0010447635   20.473383      18.95785       1.5155327     -1.62708        18360.928    
    437000   1.113282       0.0023323615   0.0014288787   20.971688      19.318464      1.6532238     -1.22143        18516.773    
    438000   0.9462317      0.0023323615   0.0013818775   20.607768      19.202614      1.4051541     -1.3161839      18522.117    
    439000   1.0061876      0.0023323615  -0.0053097683   20.7647        19.270512      1.4941886     -1.3363857      18465.044    
    440000   0.92225265     0.0023323615  -5.8904809e-05  20.724674      19.355129      1.3695452     -1.1354361      18417.3      
    441000   1.1484078      0.0023323615  -0.00092825392  20.807581      19.102195      1.7053856     -1.3647348      18517.536    
    442000   1.0749481      0.0023323615  -0.00080815116  20.855718      19.25942       1.5962979     -1.2427493      18484.851    
    443000   0.93337085     0.0023323615   4.1667962e-05  20.478371      19.092315      1.3860557     -1.3927863      18648.344    
    444000   0.93287294     0.0023323615   0.00046758417  20.854457      19.469141      1.3853163     -1.1512886      18552.137    
    445000   1.0655465      0.0023323615   0.00082237088  20.50664       18.924303      1.5823365     -1.5810977      18457.255    
    446000   1.0089232      0.0023323615  -0.0018520502   20.578254      19.080004      1.4982509     -1.3073429      18501.654    
    447000   0.92418019     0.0023323615  -0.0050564849   20.795565      19.423157      1.3724076     -1.160959       18481.651    
    448000   0.86614101     0.0023323615  -0.005078018    20.769084      19.482865      1.2862194     -1.2068792      18594.198    
    449000   1.0606591      0.0023323615   0.0022453009   20.801889      19.22681       1.5750787     -1.3839123      18463.774    
    450000   0.95440097     0.0023323615  -0.0017637487   20.571456      19.15417       1.4172854     -1.3785389      18328.937    
    451000   1.091459       0.0023323615  -0.00022263195  20.737336      19.11652       1.6208166     -1.3197932      18520.096    
    452000   0.99687365     0.0023323615  -0.0032639657   20.722974      19.242616      1.4803574     -1.3095192      18490.673    
    453000   1.0920282      0.0023323615  -0.0011116569   21.136257      19.514595      1.6216619     -1.0119649      18472.043    
    454000   0.87632789     0.0023323615   0.0025645974   20.887871      19.586524      1.3013469     -0.95485872     18879.082    
    455000   0.97568453     0.0023323615   0.00097657097  20.759016      19.310124      1.4488915     -1.3025358      18883.369    
    456000   0.95787425     0.0023323615  -0.0033737961   21.021626      19.599183      1.4224433     -1.0432134      18913.114    
    457000   0.89957281     0.0023323615   0.0018746384   20.42405       19.088184      1.3358656     -1.407105       18610.278    
    458000   0.97626748     0.0023323615  -0.0027273715   20.642915      19.193158      1.4497572     -1.3789785      18422.361    
    459000   1.0125071      0.0023323615   0.00030008559  20.694057      19.190484      1.5035731     -1.3915695      18425.711    
    460000   1.1920491      0.0023323615  -0.00076711111  20.949218      19.179025      1.770193      -1.3091135      18444.002    
    461000   1.0512812      0.0023323615   0.002577893    20.746454      19.185301      1.5611526     -1.3059665      18596.485    
    462000   1.0171693      0.0023323615  -0.0016972294   20.7568        19.246304      1.5104964     -1.2461409      18717.144    
    463000   1.0844648      0.0023323615   0.0013049271   20.760966      19.150536      1.6104302     -1.3583621      18517.718    
    464000   0.84281714     0.0023323615  -0.0016749477   20.639523      19.38794       1.2515835     -1.2502008      18529.183    
    465000   0.99863118     0.0023323615  -5.9926177e-05  20.748759      19.265792      1.4829673     -1.2194812      18526.827    
    466000   0.98015983     0.0023323615  -0.00077535217  20.680398      19.22486       1.4555373     -1.236253       18550.658    
    467000   1.0262358      0.0023323615   0.00010891408  20.833538      19.309578      1.5239601     -1.1865698      18480.775    
    468000   0.92749476     0.0023323615  -0.0037435185   20.682972      19.305642      1.3773297     -1.2304205      18628.273    
    469000   1.0847973      0.0023323615   0.0043175826   20.974832      19.363908      1.610924      -1.0644557      18392.62     
    470000   0.96624139     0.0023323615  -0.0014934424   20.832125      19.397256      1.4348685     -1.1358833      18553.32     
    471000   0.99999683     0.0023323615  -0.00017630753  20.634466      19.149471      1.4849953     -1.3845667      18560.7      
    472000   1.0253855      0.0023323615   0.00072108422  20.742542      19.219845      1.5226974     -1.1800951      18724.426    
    473000   0.88088465     0.0023323615   0.0026884239   20.778929      19.470816      1.3081137     -1.1416766      19391.423    
    474000   0.91255129     0.0023323615  -0.0017849836   20.760579      19.405441      1.3551387     -1.0008013      19805.227    
    475000   0.91862186     0.0023323615  -0.00055014266  20.673351      19.309197      1.3641535     -1.2510542      20232.639    
    476000   0.91101318     0.0023323615   0.0010044642   20.784534      19.431679      1.3528546     -1.1770458      20521.743    
    477000   1.0331305      0.0023323615  -0.0021962545   21.042917      19.508719      1.5341988     -0.94707422     19386.557    
    478000   0.92361553     0.0023323615  -0.00062475723  20.767328      19.395759      1.3715691     -1.1772939      18767.622    
    479000   1.0198319      0.0023323615   0.0010622474   20.686237      19.171786      1.5144504     -1.330371       18570.124    
    480000   0.92978335     0.0023323615  -0.0024604446   20.678606      19.297878      1.3807283     -1.2508438      18622.385    
    481000   1.0339194      0.0023323615  -0.0016168307   20.767587      19.232216      1.5353703     -1.2443589      18636.972    
    482000   1.1073801      0.0023323615  -0.0015141201   20.763027      19.118567      1.6444594     -1.3784311      18639.54     
    483000   1.1037312      0.0023323615  -0.0017143973   20.709746      19.070706      1.6390409     -1.445472       18428.861    
    484000   1.159315       0.0023323615  -0.0002850128   20.806485      19.084903      1.7215828     -1.4853935      18463.029    
    485000   1.0095808      0.0023323615   0.0048212333   20.840088      19.34086       1.4992275     -1.1938572      18470.785    
    486000   1.0162893      0.0023323615   0.00063908907  20.693436      19.184247      1.5091896     -1.3252902      18478.205    
    487000   1.0515966      0.0023323615   0.003999737    21.03488       19.473259      1.5616209     -1.0557377      18517.752    
    488000   1.0549597      0.0023323615   0.00086938359  20.768702      19.202087      1.5666151     -1.3287328      18563.271    
    489000   1.0503336      0.0023323615  -0.0016534911   20.989208      19.429463      1.5597454     -1.1149253      18515.561    
    490000   1.1216566      0.0023323615   0.0022449448   20.893211      19.22755       1.6656601     -1.3015742      18645.69     
    491000   1.0981997      0.0023323615   0.0017375872   20.511958      18.881131      1.6308266     -1.521153       18559.578    
    492000   1.0875627      0.0023323615   0.00063216423  20.537207      18.922176      1.6150306     -1.4483167      18505.65     
    493000   0.89602147     0.0023323615  -0.0033771564   20.363203      19.032612      1.3305919     -1.4737711      18410.597    
    494000   0.98286832     0.0023323615  -0.0027657723   20.828644      19.369084      1.4595595     -1.1148943      18545.484    
    495000   0.98870815     0.0023323615  -0.00016444489  20.655193      19.186961      1.4682316     -1.257645       18631.753    
    496000   0.94055765     0.0023323615  -0.0011807374   20.546219      19.149491      1.3967281     -1.2248396      18560.441    
    497000   0.94840511     0.0023323615   0.0011113407   20.152303      18.743922      1.4083816     -1.6407038      18381.777    
    498000   1.1001272      0.0023323615   0.0023670579   20.843046      19.209357      1.6336889     -1.3140587      18575.726    
    499000   0.96166416     0.0023323615   0.00084904127  20.580781      19.152709      1.4280713     -1.2602557      18702.004    
    500000   1.0906681      0.0023323615   0.0010005971   20.839087      19.219445      1.6196421     -1.3122245      18645.686    
    501000   1.0116481      0.0023323615  -0.00033143288  20.660278      19.157981      1.5022974     -1.3919488      18597.205    
    502000   0.95155406     0.0023323615  -0.00050884602  20.718892      19.305834      1.4130578     -1.1716687      18744.262    
    503000   1.0399643      0.0023323615   0.0032549243   20.961388      19.417041      1.544347      -1.0868401      18831.507    
    504000   1.0437818      0.0023323615   0.0010410642   20.871186      19.32117       1.550016      -1.223189       18623.934    
    505000   1.0880828      0.0023323615   0.00044758346  20.713594      19.097791      1.6158029     -1.371843       18690.829    
    506000   1.083653       0.0023323615   0.0038221738   21.046726      19.437502      1.6092247     -1.2319081      18490.152    
    507000   0.86026211     0.0023323615  -0.0040688553   20.515587      19.238097      1.2774892     -1.1921005      18703.238    
    508000   0.9802945      0.0023323615  -0.00058094555  20.76941       19.313672      1.4557373     -1.253611       18742.809    
    509000   0.93661916     0.0023323615   0.0021243142   20.649717      19.258837      1.3908794     -1.1940416      18743.523    
    510000   1.0071271      0.0023323615   0.0028541141   20.712087      19.216503      1.4955838     -1.1723408      18865.266    
    511000   0.94441708     0.0023323615   0.0016929785   20.629775      19.227316      1.4024594     -1.2590506      18660.107    
    512000   1.0268314      0.0023323615  -0.0017899048   20.942943      19.418099      1.5248446     -1.0921463      18593.131    
    513000   1.087487       0.0023323615   0.0019614488   20.983134      19.368216      1.6149182     -1.1311047      18576.452    
    514000   1.0484301      0.0023323615  -0.0011550392   20.97863       19.421712      1.5569188     -1.1313032      18548.731    
    515000   0.895106       0.0023323615  -0.00074622811  20.299475      18.970242      1.3292324     -1.3883653      18471.711    
    516000   0.89577819     0.0023323615  -0.0026891032   20.607025      19.276794      1.3302306     -1.2212089      18648.149    
    517000   1.0295774      0.0023323615  -0.0022881183   20.759844      19.230921      1.5289224     -1.3630785      18610.42     
    518000   1.0347386      0.0023323615  -0.0033793813   20.58744       19.050853      1.5365868     -1.4107703      18679.488    
    519000   0.92820106     0.0023323615  -0.0016751214   20.57142       19.193041      1.3783786     -1.3281114      18625.905    
    520000   0.91683619     0.0023323615  -0.0052980859   20.722872      19.36137       1.3615017     -1.2165844      18517.069    
    521000   1.1095219      0.0023323615  -0.0017911737   20.698997      19.051357      1.64764       -1.431607       18467.026    
    522000   1.0035848      0.0023323615   0.0011307098   20.756462      19.266139      1.4903234     -1.2298869      18391.105    
    523000   0.86690219     0.0023323615   0.0025479595   20.424546      19.137196      1.2873498     -1.3112032      18460.359    
    524000   1.0529115      0.0023323615  -0.0025443387   20.644643      19.081069      1.5635735     -1.4898192      18467.224    
    525000   0.87746814     0.0023323615   0.0041640821   20.136074      18.833034      1.3030402     -1.7073428      18509.113    
    526000   0.95925769     0.0023323615   0.0013465201   20.605808      19.181311      1.4244977     -1.3736275      18480.771    
    527000   1.0756012      0.0023323615   0.0044759993   20.851723      19.254455      1.5972678     -1.3187265      18506.728    
    528000   1.0682568      0.0023323615  -7.2179675e-06  20.676341      19.08998       1.5863614     -1.4604084      18668.854    
    529000   1.0467813      0.0023323615  -0.0014460199   20.635833      19.081363      1.5544702     -1.3543432      18796.161    
    530000   1.0232768      0.0023323615   0.0045295169   20.87319       19.353624      1.519566      -1.320266       18586.217    
    531000   1.0331425      0.0023323615  -0.0009457193   20.77887       19.244653      1.5342166     -1.2630375      18486.768    
    532000   0.96272228     0.0023323615  -0.0018052665   20.67416       19.244518      1.4296426     -1.2515868      18520.178    
    533000   0.93561064     0.0023323615  -0.0007148196   20.557016      19.167634      1.3893818     -1.3435732      18648.752    
    534000   0.98946609     0.0023323615   0.0019279396   20.694748      19.225391      1.4693571     -1.1918783      18592.709    
    535000   0.9981503      0.0023323615  -0.0015370276   20.810776      19.328523      1.4822532     -1.1312441      18467.815    
    536000   1.03435        0.0023323615   0.0028729708   20.832269      19.296259      1.5360098     -1.1958051      18690.92     
    537000   0.96937719     0.0023323615  -0.00027351068  20.622858      19.183333      1.4395251     -1.3247969      18597.503    
    538000   0.98508549     0.0023323615  -0.0018497906   20.694576      19.231724      1.4628519     -1.3560538      18430.165    
    539000   1.047982       0.0023323615  -7.7912356e-05  20.749988      19.193735      1.5562533     -1.3035405      18503.791    
    540000   1.0059229      0.0023323615  -0.0012495731   20.613795      19.12          1.4937955     -1.3671216      18483.56     
    541000   1.2604061      0.0023323615  -0.00023269049  21.043458      19.171755      1.8717031     -1.3537717      18325.343    
    542000   0.96354762     0.0023323615  -0.0028649626   20.553824      19.122956      1.4308682     -1.4111362      18506.367    
    543000   0.9958373      0.0023323615   9.5518237e-05  20.514569      19.035751      1.4788184     -1.4157272      18399.9      
    544000   0.98715203     0.0023323615   0.0044309539   20.528345      19.062424      1.4659208     -1.4124573      18340.405    
    545000   0.9180856      0.0023323615   0.0030910686   20.752194      19.388837      1.3633571     -1.1202908      18408.143    
    546000   0.86369055     0.0023323615  -0.00021448513  20.517153      19.234572      1.2825805     -1.2150045      18625.679    
    547000   0.89606158     0.0023323615  -0.00094568419  20.825525      19.494874      1.3306514     -1.0866683      18587.314    
    548000   0.99495476     0.0023323615  -0.00013219042  20.749947      19.272439      1.4775078     -1.3692475      18499.11     
    549000   1.0843713      0.0023323615  -0.0012791977   20.719738      19.109446      1.6102914     -1.464161       18450.62     
    550000   0.99738214     0.0023323615  -0.0005857526   20.446675      18.965562      1.4811125     -1.5627961      18315.413    
    551000   1.0884975      0.0023323615  -0.0022883239   20.996655      19.380237      1.6164187     -1.1034867      18627.682    
    552000   0.99493564     0.0023323615  -0.0035914023   20.873456      19.395977      1.4774794     -1.1001144      18767.326    
    553000   0.9102888      0.0023323615   0.0024058082   20.635274      19.283495      1.3517789     -1.2381896      18644.255    
    554000   1.0347712      0.0023323615   0.001873389    20.845451      19.308815      1.5366352     -1.2738087      18595.171    
    555000   1.0665621      0.0023323615  -0.0013911039   21.091301      19.507456      1.5838448     -0.98531402     18690.045    
    556000   0.97655748     0.0023323615   0.0027950572   20.809563      19.359375      1.4501879     -1.1406648      18723.646    
    557000   1.006683       0.0023323615   0.00070430674  20.693209      19.198285      1.4949243     -1.2787672      18477.559    
    558000   1.0471157      0.0023323615  -0.00068078136  20.91178       19.356813      1.5549669     -1.2229395      18491.285    
    559000   1.0278159      0.0023323615  -0.0004333224   20.734381      19.208075      1.5263066     -1.3684415      18387.633    
    560000   1.1265722      0.0023323615   0.0010559283   20.963364      19.290404      1.6729598     -1.1950257      18442.973    
    561000   0.9655589      0.0023323615   0.0036684046   20.582317      19.148462      1.433855      -1.3721815      18387.47     
    562000   1.0701713      0.0023323615  -0.00032462799  20.941591      19.352387      1.5892044     -1.1738102      18387.792    
    563000   1.1571778      0.0023323615  -0.000535601    20.940763      19.222353      1.7184091     -1.2156924      18712.747    
    564000   0.88284581     0.0023323615   0.00025421404  20.536257      19.225231      1.311026      -1.245618       18919.689    
    565000   1.0844787      0.0023323615  -0.0007640943   20.845391      19.23494       1.6104509     -1.1801343      18934.838    
    566000   0.8737969      0.0023323615  -0.0039685346   20.644672      19.347083      1.2975884     -1.1987664      18790.942    
    567000   1.0276897      0.0023323615  -0.0031441602   20.884954      19.358835      1.5261192     -1.1317772      19165.231    
    568000   0.92206156     0.0023323615   0.0040792188   20.873435      19.504173      1.3692614     -1.0481599      19014.259    
    569000   1.1155861      0.0023323615   7.9780054e-05  20.988774      19.332128      1.6566454     -1.1679899      18654.15     
    570000   0.98515639     0.0023323615  -0.001899048    20.717457      19.2545        1.4629572     -1.2686002      18713.224    
    571000   1.0969809      0.0023323615  -0.00064574815  20.75013       19.121113      1.6290166     -1.3450761      18680.639    
    572000   0.99616806     0.0023323615  -0.0020573856   20.908013      19.428704      1.4793096     -1.1896589      18531.907    
    573000   1.0927946      0.0023323615   0.0022275088   20.684476      19.061676      1.6227999     -1.4451226      18463.278    
    574000   0.95395804     0.0023323615  -0.0022334083   20.683601      19.266974      1.4166277     -1.2651019      18384.713    
    575000   0.93143745     0.0023323615   0.00039768634  20.742793      19.359608      1.3831846     -1.1334917      18590.291    
    576000   0.99795448     0.0023323615  -0.00043332757  21.031351      19.549388      1.4819624     -1.0654778      18715.509    
    577000   1.1271403      0.0023323615   0.00081883006  21.116062      19.442258      1.6738034     -1.1674893      19226.062    
    578000   1.0252125      0.0023323615   0.0017276522   20.961405      19.438965      1.5224405     -1.0739762      19349.793    
    579000   1.0578871      0.0023323615  -0.0034327769   20.715631      19.144668      1.5709623     -1.4013731      18839.874    
    580000   0.89452808     0.0023323615  -0.0021877266   20.868264      19.53989       1.3283742     -1.0680815      18688.096    
    581000   1.0416557      0.0023323615   0.00057502999  20.921925      19.375067      1.5468587     -1.1796204      18866.725    
    582000   1.1325942      0.0023323615  -0.00059495526  20.912031      19.230129      1.6819023     -1.2919971      18746.329    
    583000   1.091814       0.0023323615  -0.00015642098  21.051144      19.4298        1.6213437     -1.1109714      18763.734    
    584000   0.99812751     0.0023323615   0.0012031718   20.959975      19.477756      1.4822193     -1.0485428      18845.184    
    585000   1.0434896      0.0023323615   0.00056228469  20.695927      19.146345      1.549582      -1.3058074      18694.459    
    586000   1.1153345      0.0023323615   0.00017550681  20.788415      19.132143      1.6562718     -1.2805058      18724.63     
    587000   1.0486403      0.0023323615  -0.0040095764   20.762147      19.204916      1.5572308     -1.3122157      18783.325    
    588000   0.9065158      0.0023323615  -0.0046306289   20.79566       19.449484      1.346176      -1.1824406      18828.014    
    589000   0.7483546      0.0023323615  -9.0449719e-05  20.60582       19.494513      1.1113066     -0.99505799     18810.163    
    590000   1.0332169      0.0023323615   0.0026591859   20.737055      19.202728      1.534327      -1.2428006      18686.812    
    591000   0.87596068     0.0023323615   0.0019851165   20.762916      19.462115      1.3008016     -1.1071129      18529.706    
    592000   0.98993109     0.0023323615   0.0014777947   20.746747      19.2767        1.4700477     -1.2090076      18554.917    
    593000   1.0809495      0.0023323615  -0.00033830543  20.810776      19.205566      1.60521       -1.3473771      18562.232    
    594000   0.96912842     0.0023323615   0.0017891626   21.01159       19.572434      1.4391557     -1.0438273      18700.382    
    595000   1.024088       0.0023323615   0.0017449646   20.863128      19.342357      1.5207707     -1.1361694      19046.054    
    596000   1.1571156      0.0023323615  -0.0022808873   20.979924      19.261607      1.7183167     -1.2651394      18734.358    
    597000   1.1492126      0.0023323615   0.0017537228   20.899236      19.192655      1.7065808     -1.4003674      18569.971    
    598000   1.1507078      0.0023323615  -0.0026196132   20.984532      19.275731      1.7088012     -1.1890333      18583.407    
    599000   1.0006164      0.0023323615  -0.0025859118   21.06315       19.577234      1.4859154     -1.0252466      18645.164    
    600000   0.91599871     0.0023323615   0.0014028181   20.591533      19.231275      1.3602581     -1.3221777      18439.071    
    601000   0.89507288     0.0023323615   0.00071819711  20.655373      19.326189      1.3291832     -1.1457501      18507.445    
    602000   1.0922486      0.0023323615  -0.001439508    21.104103      19.482114      1.6219892     -1.1707405      18527.484    
    603000   1.027425       0.0023323615   0.0018430709   20.909508      19.383782      1.5257262     -1.3098672      18518.457    
    604000   1.1109097      0.0023323615   0.0027721118   21.00264       19.352939      1.6497009     -1.1575099      18614.748    
    605000   1.0743075      0.0023323615   0.0042623257   20.975645      19.380298      1.5953467     -1.1433766      18921.962    
    606000   0.94487107     0.0023323615   0.0034525136   20.695051      19.291918      1.4031335     -1.2824675      18533.693    
    607000   0.911062       0.0023323615   0.00061062659  20.519437      19.16651       1.3529271     -1.4109105      18575.332    
    608000   0.83002302     0.0023323615  -0.00074774826  20.465379      19.232795      1.2325842     -1.1894416      18655.761    
    609000   1.0582921      0.0023323615   0.00023257103  20.663321      19.091758      1.5715637     -1.355464       18461.458    
    610000   1.1083501      0.0023323615   0.002742943    20.90267       19.25677       1.6458999     -1.1921443      18377.588    
    611000   1.052113       0.0023323615  -0.0012404368   20.920631      19.358243      1.5623879     -1.1759571      18461.352    
    612000   1.0997158      0.0023323615   0.0021146739   20.578396      18.945318      1.6330779     -1.5000259      18486.535    
    613000   1.0230658      0.0023323615  -0.00088651843  20.742114      19.222862      1.5192527     -1.2889546      18291.894    
    614000   1.0135745      0.0023323615  -0.00018516393  20.931937      19.426779      1.5051581     -1.0693431      18551.234    
    615000   0.90872438     0.0023323615   0.0034623468   20.683369      19.333913      1.3494557     -1.2926768      18467.009    
    616000   0.89559289     0.0023323615  -0.0033076939   20.803373      19.473418      1.3299554     -1.142968       18314.741    
    617000   1.1032805      0.0023323615  -0.0003523781   20.708493      19.070122      1.6383716     -1.4184767      18388.507    
    618000   1.1045442      0.0023323615   0.0007567939   20.806345      19.166097      1.6402482     -1.3961222      18367.297    
    619000   0.91053596     0.0023323615   0.0011373141   20.474054      19.121908      1.3521459     -1.3931982      18424.069    
    620000   1.0228275      0.0023323615  -0.004038575    20.909318      19.390419      1.5188988     -1.0230417      18493.845    
    621000   0.84966798     0.0023323615   0.00011505061  20.717596      19.455839      1.2617569     -1.119788       18736.289    
    622000   1.0778086      0.0023323615   0.0024088514   20.877665      19.277119      1.6005458     -1.2096172      18719.756    
    623000   1.1104203      0.0023323615   0.0042040917   20.808329      19.159355      1.6489742     -1.2786821      18591.448    
    624000   0.95190684     0.0023323615  -0.00015077014  20.658658      19.245077      1.4135817     -1.3519967      18404.487    
    625000   1.0723625      0.0023323615  -0.00093337075  20.718802      19.126344      1.5924584     -1.3710344      18509.13     
    626000   1.0322771      0.0023323615   0.0049532187   20.523368      18.990437      1.5329316     -1.448402       18493.04     
    627000   1.0161596      0.0023323615   0.0021575448   20.628648      19.119651      1.508997      -1.2849184      18534.22     
    628000   1.1980093      0.0023323615   0.0021030768   21.033261      19.254217      1.7790438     -1.2985739      18444.254    
    629000   1.0245198      0.0023323615  -0.0016779435   20.456104      18.934692      1.521412      -1.4338707      18528.588    
    630000   1.140713       0.0023323615   0.0019432974   20.911822      19.217864      1.6939588     -1.3979902      18390.397    
    631000   0.91331808     0.0023323615  -0.001772913    20.496488      19.140211      1.3562773     -1.3711777      18443.085    
    632000   0.84389011     0.0023323615   0.00068297999  20.359447      19.10627       1.2531768     -1.3616243      18491.83     
    633000   1.0611275      0.0023323615   0.0028674919   20.473397      18.897623      1.5757744     -1.5687082      18426.395    
    634000   1.1178207      0.0023323615   0.0016564425   20.727724      19.067761      1.6599637     -1.3956479      18408.166    
    635000   1.0599321      0.0023323615   0.0019153525   20.981234      19.407234      1.5739992     -1.1233674      18652.669    
    636000   1.0588154      0.0023323615  -0.0019806994   20.829294      19.256954      1.5723409     -1.1663833      18711.007    
    637000   0.94994802     0.0023323615   0.0018092997   20.537599      19.126927      1.4106728     -1.3853319      18556.718    
    638000   1.1379756      0.0023323615  -1.913222e-05   20.852742      19.162848      1.6898937     -1.3509699      18641.131    
    639000   1.2198948      0.0023323615  -0.00099307881  20.914601      19.103057      1.8115438     -1.2754356      18439.913    
    640000   1.0366112      0.0023323615  -0.0017154722   20.92362       19.384252      1.5393676     -1.168411       18523.997    
    641000   1.0575417      0.0023323615  -0.0018986092   20.872033      19.301583      1.5704494     -1.2700912      18557.369    
    642000   0.96573804     0.0023323615   0.00080780138  20.921959      19.487838      1.434121      -1.2235107      18483.711    
    643000   0.99554966     0.0023323615   0.00069267298  20.518524      19.040133      1.4783912     -1.5061564      18550.134    
    644000   1.0083169      0.0023323615   0.0016941936   20.967031      19.469681      1.4973506     -1.1397304      18475.017    
    645000   0.91645701     0.0023323615  -0.001906656    20.812097      19.451159      1.3609387     -1.2426985      18608.817    
    646000   1.16174        0.0023323615   3.9673969e-06  21.033532      19.308348      1.7251839     -1.1579377      18472.939    
    647000   0.97840525     0.0023323615   0.003043358    20.607628      19.154696      1.4529318     -1.312548       18553.672    
    648000   0.92423213     0.0023323615  -0.0044118904   20.70274       19.330255      1.3724847     -1.2173699      18407.82     
    649000   1.0518586      0.0023323615  -0.00011445854  20.661539      19.099529      1.5620101     -1.435967       18445.277    
    650000   1.1045016      0.0023323615   0.0024265652   20.848062      19.207877      1.6401849     -1.2217987      18572.643    
    651000   1.0610948      0.0023323615   0.0012037824   20.925402      19.349676      1.5757258     -1.0841308      18675.315    
    652000   1.0076545      0.0023323615  -0.0037663185   20.743605      19.247238      1.4963669     -1.175915       18465.908    
    653000   1.0147026      0.0023323615  -0.00026285247  21.077549      19.570716      1.5068333     -0.93876865     19650.846    
    654000   1.0719624      0.0023323615   0.0027728543   21.132947      19.541083      1.5918642     -1.0525314      19878.676    
    655000   0.95807658     0.0023323615   0.0022157979   20.792675      19.369932      1.4227437     -1.2326363      20077.319    
    656000   0.9461895      0.0023323615   0.0032567909   20.592119      19.187027      1.4050914     -1.3126609      20025.61     
    657000   0.93059513     0.0023323615  -0.0023474775   20.721532      19.339598      1.3819338     -1.1869325      19968.891    
    658000   0.91983105     0.0023323615  -0.0017358541   20.660731      19.294782      1.3659491     -1.2351611      20103.709    
    659000   0.9782856      0.0023323615   0.005237119    20.944336      19.491582      1.4527541     -1.0740597      20026.325    
    660000   1.013532       0.0023323615  -0.0059311438   20.984251      19.479156      1.505095      -1.0774764      20245.324    
    661000   0.99167462     0.0023323615   0.0033765483   20.736505      19.263869      1.4726368     -1.2981934      20260.402    
    662000   1.0881913      0.0023323615  -0.0011959431   20.967706      19.351742      1.6159641     -1.1931367      20122.714    
    663000   0.88253287     0.0023323615   0.0019416731   20.553504      19.242942      1.3105613     -1.2327119      20193.135    
    664000   0.92952311     0.0023323615  -0.0026388005   20.621662      19.24132       1.3803418     -1.3231097      20189.957    
    665000   0.97899045     0.0023323615  -0.0034398977   21.02694       19.573139      1.4538008     -1.1063328      20074.186    
    666000   1.0702028      0.0023323615  -0.0027842214   20.709943      19.120692      1.5892511     -1.4051609      20083.241    
    667000   1.1042745      0.0023323615   0.0038268275   20.855525      19.215677      1.6398477     -1.4613924      19969.198    
    668000   0.96688356     0.0023323615  -0.0040910136   20.629887      19.194064      1.4358221     -1.2878995      20255.76     
    669000   0.95971341     0.0023323615   0.0016493936   20.738904      19.31373       1.4251744     -1.2295383      20175.469    
    670000   1.0437021      0.0023323615   0.0026744836   20.95814       19.408242      1.5498977     -1.1698306      20205.537    
    671000   1.0807041      0.0023323615   0.0049217611   20.883719      19.278873      1.6048455     -1.2186667      20169.032    
    672000   0.90150391     0.0023323615  -0.0031254991   20.666887      19.328154      1.3387333     -1.1760021      20123.254    
    673000   0.90320041     0.0023323615  -0.0033367228   20.357274      19.016022      1.3412526     -1.3679103      19718.547    
    674000   0.96787105     0.0023323615   0.0019391024   20.827999      19.390711      1.4372885     -1.1674066      20067.486    
    675000   1.0173501      0.0023323615  -0.0020882151   20.760671      19.249906      1.5107648     -1.2178082      20013.837    
    676000   1.0600848      0.0023323615   0.0035931588   20.820997      19.246771      1.5742259     -1.3468917      20069.451    
    677000   1.0090272      0.0023323615   0.0054064961   20.803739      19.305333      1.4984053     -1.2290307      20013.158    
    678000   1.0378897      0.0023323615  -0.0011169466   20.835413      19.294147      1.5412662     -1.2424058      20156.178    
    679000   0.94703713     0.0023323615  -0.0011409711   20.687407      19.281057      1.4063501     -1.214952       20127.64     
    680000   0.97764843     0.0023323615  -0.0044411836   21.088455      19.636647      1.4518079     -0.97130631     20144.141    
    681000   1.1113271      0.0023323615   0.0022563769   21.055293      19.404972      1.6503208     -1.0805021      20127.863    
    682000   0.87622284     0.0023323615   0.0030859034   20.452375      19.151184      1.3011909     -1.2881445      20223.608    
    683000   0.92262207     0.0023323615  -0.0020011531   20.932751      19.562657      1.3700938     -0.97266833     20195.889    
    684000   0.99996783     0.0023323615  -0.0021260602   20.829642      19.34469       1.4849522     -1.0615894      20200.364    
    685000   0.90449004     0.0023323615   0.0018161614   20.930892      19.587725      1.3431677     -0.85002754     20574.51     
    686000   0.9792126      0.0023323615  -0.00057991657  20.68199       19.22786       1.4541307     -1.2552292      20443.177    
    687000   1.2508562      0.0023323615   0.0011561959   21.133204      19.275682      1.8575214     -1.3036733      19979.979    
    688000   1.0509145      0.0023323615  -0.0002041466   20.808362      19.247754      1.560608      -1.2086864      20115.256    
    689000   0.93952084     0.0023323615   0.00045831165  20.802137      19.406949      1.3951884     -1.1627344      20116.606    
    690000   0.97838141     0.0023323615  -0.00015129044  20.657818      19.204922      1.4528964     -1.2652846      20146.865    
    691000   1.0065181      0.0023323615  -0.00075169856  20.993117      19.498438      1.4946793     -1.0469592      20292.683    
    692000   1.0358502      0.0023323615  -0.00084997045  20.722242      19.184004      1.5382376     -1.3305998      20466.354    
    693000   1.171159       0.0023323615   0.0015697606   21.332061      19.59289       1.7391711     -0.9635168      20479.544    
    694000   1.0528084      0.0023323615  -0.00093597979  20.754311      19.19089       1.5634205     -1.2728932      20209.567    
    695000   1.0078555      0.0023323615  -0.0030312146   20.645099      19.148433      1.4966654     -1.4163001      19976.148    
    696000   1.0668188      0.0023323615   0.0024815953   20.760981      19.176756      1.5842259     -1.3691018      19937.567    
    697000   1.0983577      0.0023323615   0.0023632485   20.778388      19.147327      1.6310612     -1.3000034      20243.657    
    698000   0.96430769     0.0023323615   0.00075701138  20.570834      19.138837      1.4319969     -1.3036335      20225.633    
    699000   1.029408       0.0023323615  -0.00090123962  20.727485      19.198815      1.5286709     -1.3232462      20195.77     
    700000   0.81089613     0.0023323615  -0.0010353263   20.51827       19.31409       1.2041808     -1.2917635      20136.135    
    701000   0.94115502     0.0023323615   0.0025491733   20.263946      18.866331      1.3976152     -1.4687335      20051.083    
    702000   0.90917355     0.0023323615  -0.00011544559  20.619521      19.269398      1.3501227     -1.2903206      19896.956    
    703000   1.1182602      0.0023323615   0.00256604     20.956544      19.295927      1.6606164     -1.193111       19848.353    
    704000   1.0976235      0.0023323615  -0.00088941945  20.772219      19.142249      1.6299709     -1.3274744      20097.148    
    705000   0.96826054     0.0023323615  -2.0284349e-05  20.732938      19.295071      1.4378669     -1.3265493      20014.033    
    706000   0.97218001     0.0023323615   0.000303719    20.585209      19.141522      1.4436873     -1.3260775      19978.44     
    707000   1.0751383      0.0023323615   0.0012341933   20.727485      19.130905      1.5965804     -1.3185664      20102.482    
    708000   1.0227517      0.0023323615   0.00036393399  20.816643      19.297857      1.5187863     -1.2225816      20232.565    
    709000   0.88022326     0.0023323615  -0.0005765652   20.356027      19.048896      1.3071315     -1.357499       20034.139    
    710000   0.95137655     0.0023323615   0.00050496063  20.783462      19.370668      1.4127942     -1.2553514      19960.816    
    711000   1.0050165      0.0023323615  -0.0013458268   20.720071      19.227621      1.4924494     -1.3194901      19921.216    
    712000   1.141459       0.0023323615  -0.00024052546  21.042483      19.347417      1.6950666     -1.1091816      20024.697    
    713000   0.90171435     0.0023323615   0.0030251422   20.448006      19.10896       1.3390458     -1.4662556      19988.574    
    714000   0.91058933     0.0023323615  -0.0050782454   20.468165      19.11594       1.3522252     -1.4586011      19949.191    
    715000   0.95374691     0.0023323615  -0.0049366328   20.623124      19.206809      1.4163142     -1.3365298      20075.643    
    716000   1.0836365      0.0023323615   0.0010448797   20.779152      19.169952      1.6092002     -1.3496326      19950.359    
    717000   0.95527252     0.0023323615   0.0020478051   20.856349      19.437769      1.4185797     -1.1829392      19985.724    
    718000   0.89245945     0.0023323615  -0.0016610406   20.588901      19.263599      1.3253023     -1.1947117      20200.916    
    719000   0.99929301     0.0023323615   0.004189134    20.747878      19.263928      1.4839501     -1.1791063      20081.924    
    720000   0.93677185     0.0023323615   0.0013460093   20.91093       19.519823      1.3911062     -0.96294894     20235.699    
    721000   1.0853719      0.0023323615  -0.0031811874   20.729534      19.117757      1.6117773     -1.541697       20131.432    
    722000   1.0493375      0.0023323615   0.00025491998  20.907292      19.349026      1.5582662     -1.1890811      20133.917    
    723000   0.98961029     0.0023323615   0.0011899822   20.509974      19.040403      1.4695713     -1.3726495      20080.809    
    724000   1.1435724      0.0023323615  -0.0010761031   20.943715      19.24551       1.6982051     -1.2986979      20002.466    
    725000   0.99757001     0.0023323615   0.0027765855   21.119969      19.638577      1.4813915     -1.200252       20270.705    
    726000   0.99878921     0.0023323615   0.0017396409   20.719147      19.235945      1.483202      -1.2791095      20111.543    
    727000   0.92859623     0.0023323615  -0.00076476167  20.605111      19.226146      1.3789654     -1.178786       20192.379    
    728000   1.0713747      0.0023323615   0.001031283    20.785664      19.194673      1.5909914     -1.252332       20159.793    
    729000   0.94104371     0.0023323615  -0.0010618436   20.704033      19.306583      1.3974499     -1.2297374      20193.695    
    730000   0.90831061     0.0023323615  -0.0039438911   20.714683      19.365842      1.3488413     -1.2288668      20060.375    
    731000   0.94786584     0.0023323615   0.0011571726   20.558849      19.151269      1.4075808     -1.3046919      20071.634    
    732000   0.87527226     0.0023323615   0.0017776046   20.701773      19.401993      1.2997793     -1.2167471      20123.298    
    733000   1.0038614      0.0023323615  -0.0023353894   20.910515      19.419781      1.4907342     -1.2212727      20253.487    
    734000   0.93212739     0.0023323615  -0.0034855701   21.02436       19.640151      1.3842092     -1.0383431      20157.179    
    735000   0.93975365     0.0023323615  -0.0024540422   20.62871       19.233176      1.3955342     -1.3121203      20074.319    
    736000   0.92023552     0.0023323615   0.0041694644   20.588549      19.221999      1.3665497     -1.2654489      20169.341    
    737000   1.1184951      0.0023323615   0.0013063781   20.938103      19.277138      1.6609653     -1.3433029      20156.922    
    738000   0.93110317     0.0023323615   0.0025249271   20.39039       19.007702      1.3826882     -1.4454387      20248.523    
    739000   1.07145        0.0023323615  -0.001281976    20.874906      19.283803      1.5911032     -1.2399908      20185.596    
    740000   1.104597       0.0023323615   0.0014500263   20.748733      19.108407      1.6403266     -1.3261115      20260.04     
    741000   1.0582736      0.0023323615  -0.0008545752   20.720821      19.149284      1.5715363     -1.42876        20166.672    
    742000   1.0609873      0.0023323615  -0.0034897353   20.621673      19.046107      1.5755661     -1.412005       20121.935    
    743000   0.95017182     0.0023323615  -0.003271227    20.414123      19.003118      1.4110052     -1.4823032      19940.634    
    744000   1.0119851      0.0023323615  -0.0015929868   20.874738      19.37194       1.5027979     -1.2634228      19914.511    
    745000   0.95997253     0.0023323615   0.0015875946   20.547804      19.122245      1.4255592     -1.5239859      19998.394    
    746000   1.0508746      0.0023323615  -0.0033636287   20.723127      19.162579      1.5605487     -1.3888178      19869.397    
    747000   1.008449       0.0023323615  -0.00080123715  20.698588      19.201041      1.4975468     -1.3773327      19772.444    
    748000   0.92420758     0.0023323615  -0.0044822515   20.454263      19.081815      1.3724483     -1.4647476      19976.316    
    749000   0.88649841     0.0023323615  -0.0016774218   20.737752      19.421301      1.3164501     -1.2571863      19857.913    
    750000   0.90894664     0.0023323615   0.0013169434   20.529114      19.179328      1.3497858     -1.4125792      19904.44     
    751000   0.90965853     0.0023323615   0.00071960238  20.351396      19.000553      1.3508429     -1.557947       19856.25     
    752000   0.94447507     0.0023323615  -0.00076963391  20.661986      19.259441      1.4025455     -1.336967       19764.942    
    753000   0.95102113     0.0023323615   0.0021904544   20.631113      19.218847      1.4122664     -1.3419348      19879.916    
    754000   0.89889046     0.0023323615  -0.0010808079   20.642484      19.307632      1.3348523     -1.315984       19627.001    
    755000   0.97245488     0.0023323615  -0.0032767377   20.853493      19.409398      1.4440955     -1.1605907      19868.016    
    756000   1.0403337      0.0023323615  -0.0022055054   20.929912      19.385017      1.5448955     -1.1142015      20071.703    
    757000   0.91526706     0.0023323615   0.00054790913  20.799535      19.440364      1.3591716     -1.0916473      20095.024    
    758000   0.96990907     0.0023323615   0.0022644995   20.692294      19.251979      1.440315      -1.2490476      20149.427    
    759000   0.96963429     0.0023323615   0.002741008    20.722287      19.28238       1.4399069     -1.2519261      20079.779    
    760000   0.99976801     0.0023323615  -0.00022994431  20.763662      19.279007      1.4846555     -1.3121538      20153.675    
    761000   0.91863463     0.0023323615  -0.00075686034  20.336769      18.972596      1.3641724     -1.5632981      19900.924    
    762000   0.92695585     0.0023323615   0.0015687284   20.682371      19.305842      1.3765294     -1.264999       19782.625    
    763000   1.036442       0.0023323615  -0.0011264125   20.725282      19.186166      1.5391164     -1.5120471      20070.464    
    764000   1.0089963      0.0023323615  -0.0058843093   20.754961      19.256601      1.4983595     -1.2433112      20080.154    
    765000   1.0810651      0.0023323615  -0.0043207424   20.77061       19.165229      1.6053816     -1.3765633      19890.652    
    766000   0.95342564     0.0023323615  -0.002097548    20.673021      19.257184      1.4158371     -1.3191889      19146.834    
    767000   0.81857248     0.0023323615  -0.00096198759  20.500951      19.285371      1.2155801     -1.2094703      19089.124    
    768000   1.0019124      0.0023323615  -0.002852391    20.624497      19.136657      1.4878399     -1.4492483      18775.972    
    769000   0.96861255     0.0023323615  -0.0021409708   20.770804      19.332415      1.4383896     -1.2704471      18686.899    
    770000   0.92866911     0.0023323615  -0.00098339073  20.710069      19.330995      1.3790736     -1.2570866      19883.678    
    771000   0.96059694     0.0023323615   0.0021081402   20.549223      19.122736      1.4264865     -1.4861727      19984        
    772000   1.0647702      0.0023323615   0.0018945915   20.891022      19.309838      1.5811837     -1.3018813      20143.011    
    773000   0.9429163      0.0023323615   0.0037172814   20.656496      19.256266      1.4002307     -1.3748038      20072.72     
    774000   1.0368272      0.0023323615   0.0046366566   20.495982      18.956294      1.5396884     -1.5244886      20126.188    
    775000   1.0986625      0.0023323615  -0.0021213211   20.864846      19.233333      1.6315137     -1.2296192      20099.191    
    776000   1.0483711      0.0023323615  -0.00027238857  20.867231      19.3104        1.556831      -1.2767733      20080.264    
    777000   1.1128669      0.0023323615   0.00091904538  20.712071      19.059463      1.6526073     -1.4714362      20180.23     
    778000   0.91882875     0.0023323615   0.00017773285  20.793277      19.428816      1.3644607     -1.1713705      20114.255    
    779000   1.1116008      0.0023323615   0.0025434541   20.880773      19.230046      1.6507272     -1.2202985      20015.534    
    780000   0.9740525      0.0023323615   0.0046594746   20.641592      19.195124      1.446468      -1.368421       19995.285    
    781000   1.0207748      0.0023323615   0.0014671772   20.781481      19.265631      1.5158506     -1.3379529      20232.659    
    782000   1.056764       0.0023323615  -0.0010061637   21.097358      19.528063      1.5692946     -1.1077882      20151.611    
    783000   1.1962165      0.0023323615   0.0020260958   21.185641      19.40926       1.7763815     -1.150805       20078.551    
    784000   0.89228335     0.0023323615  -0.0023955716   20.761766      19.436725      1.3250408     -1.1034395      20095.582    
    785000   0.9807687      0.0023323615  -0.00020321559  20.622697      19.166256      1.4564415     -1.3949944      20170.581    
    786000   0.93010568     0.0023323615  -0.0012418536   20.650035      19.268828      1.3812069     -1.4641637      20208.127    
    787000   1.157451       0.0023323615  -0.0016213938   21.045922      19.327107      1.7188148     -1.3111315      20016.132    
    788000   0.94216758     0.0023323615  -0.0033014128   20.463894      19.064775      1.3991189     -1.5069253      20007.366    
    789000   1.1218998      0.0023323615   0.0035338755   20.885408      19.219387      1.6660211     -1.2548819      20081.738    
    790000   0.96177743     0.0023323615   0.0026252651   20.767395      19.339155      1.4282395     -1.1949071      20065.666    
    791000   1.0959579      0.0023323615   0.0054619706   21.025577      19.39808       1.6274975     -1.1343261      20212.636    
    792000   1.1446792      0.0023323615   0.0018093549   21.101586      19.401738      1.6998485     -1.1079684      20376.794    
    793000   1.2055424      0.0023323615   4.6347111e-05  21.029722      19.239491      1.7902305     -1.3016353      20255.18     
    794000   0.98309693     0.0023323615   0.0028268613   20.776204      19.316305      1.4598989     -1.221835       20118.747    
    795000   1.0922698      0.0023323615  -0.0022893271   20.853192      19.231171      1.6220207     -1.2669715      20144.372    
    796000   0.94377233     0.0023323615  -0.00024397214  21.008057      19.606555      1.4015019     -1.0641324      20391.41     
    797000   0.98508965     0.0023323615   0.0021488351   20.714877      19.252019      1.4628581     -1.222439       20393.318    
    798000   0.99123879     0.0023323615   0.0012430609   20.597704      19.125714      1.4719896     -1.3876309      20207.501    
    799000   1.0555297      0.0023323615   0.00032269081  20.9079        19.340439      1.5674616     -1.1859147      20019.336    
    800000   1.0918338      0.0023323615   0.00091817623  20.975417      19.354044      1.6213732     -1.2303629      20187.486    
    801000   1.100904       0.0023323615  -7.8221253e-05  20.94156       19.306717      1.6348424     -1.0967789      20199.375    
    802000   0.95158165     0.0023323615   0.0032489014   20.585486      19.172387      1.4130988     -1.3165093      20107.719    
    803000   0.90129337     0.0023323615   0.00086239218  20.53827       19.199849      1.3384207     -1.3666099      20114.802    
    804000   0.97801054     0.0023323615   0.0065784544   20.785905      19.333559      1.4523457     -1.2473407      20170.267    
    805000   1.0379294      0.0023323615  -0.00029013815  20.69535       19.154025      1.5413252     -1.3418191      20022.733    
    806000   0.8313053      0.0023323615  -0.0059643028   20.641941      19.407453      1.2344884     -1.1525521      20046.359    
    807000   0.98992999     0.0023323615  -0.00041160215  20.469766      18.99972       1.470046      -1.5288283      20064.017    
    808000   1.050331       0.0023323615   0.002907274    20.742164      19.182422      1.5597415     -1.4075592      19952.321    
    809000   1.1156391      0.0023323615   0.0066910104   20.932927      19.276203      1.6567241     -1.2021909      20028.109    
    810000   0.92731807     0.0023323615   0.0037328802   20.667778      19.290711      1.3770673     -1.1682146      20162.766    
    811000   0.93094189     0.0023323615  -0.0010900252   20.552019      19.169571      1.3824487     -1.3201632      20097.625    
    812000   1.1520027      0.0023323615   0.0009168099   20.615972      18.905248      1.710724      -1.6113388      20032.908    
    813000   0.98891101     0.0023323615  -0.0012498574   20.713822      19.245289      1.4685328     -1.2761465      19970.281    
    814000   1.0920085      0.0023323615   0.0014924937   20.986237      19.364604      1.6216326     -1.1490298      20125.842    
    815000   1.0183619      0.0023323615   0.0021328101   20.511995      18.999727      1.5122674     -1.3928149      19954.307    
    816000   0.98529083     0.0023323615   0.00047525134  20.756966      19.293809      1.4631569     -1.1836355      20112.69     
    817000   1.1287783      0.0023323615  -0.0012131587   21.250911      19.574675      1.6762357     -1.0035234      20227.747    
    818000   0.95244022     0.0023323615   0.0022383663   20.550145      19.135771      1.4143737     -1.3668779      20145.206    
    819000   0.95272399     0.0023323615  -0.00084816946  20.436228      19.021433      1.4147951     -1.4336234      19975.505    
    820000   0.90524063     0.0023323615   0.0029277965   20.766113      19.421831      1.3442823     -1.1651146      20063.738    
    821000   1.0622761      0.0023323615   0.0023907368   21.163782      19.586302      1.57748       -0.98951012     20164.078    
    822000   0.91836334     0.0023323615   0.002778602    20.671636      19.307866      1.3637696     -1.1907777      20432.635    
    823000   0.89494364     0.0023323615  -0.0018937993   20.392384      19.063393      1.3289913     -1.4743359      20450.65     
    824000   0.87466624     0.0023323615  -0.0042908039   20.843711      19.544832      1.2988794     -1.0259         20186.033    
    825000   0.87370402     0.0023323615  -0.0009792628   20.490332      19.192881      1.2974505     -1.3900331      20185.812    
    826000   0.96418292     0.0023323615   0.0034194708   20.687661      19.25585       1.4318116     -1.2579545      20189.377    
    827000   0.81597206     0.0023323615   0.00019615436  20.483595      19.271877      1.2117185     -1.3042632      19987.369    
    828000   0.97390966     0.0023323615  -0.0025514641   20.802067      19.355812      1.4462558     -1.1770633      20216.734    
    829000   1.0053597      0.0023323615   0.0031887215   20.663657      19.170697      1.4929592     -1.3705369      18905.802    
    830000   0.94103117     0.0023323615   0.00076528398  20.504702      19.10727       1.3974313     -1.3410587      18490.166    
    831000   1.1360921      0.0023323615  -0.0036077401   20.900339      19.213242      1.6870967     -1.290366       18427.041    
    832000   0.96757743     0.0023323615  -0.0014479254   20.537959      19.101106      1.4368525     -1.3679382      18514.269    
    833000   1.1267984      0.0023323615   0.0017385212   20.822383      19.149087      1.6732957     -1.245077       18978.828    
    834000   0.8114537      0.0023323615  -0.0047467049   20.749019      19.54401       1.2050087     -1.0823484      18786.811    
    835000   1.0914242      0.0023323615   0.00060644262  20.619327      18.998562      1.6207649     -1.437969       18566.918    
    836000   0.90564964     0.0023323615  -0.0030278611   20.610102      19.265212      1.3448897     -1.2928194      18604.817    
    837000   1.1547996      0.0023323615   0.0028554262   20.921959      19.207082      1.7148774     -1.3672846      18514.572    
    838000   0.99085169     0.0023323615   0.001892135    20.824631      19.353216      1.4714148     -1.2148527      18658.304    
    839000   0.9395158      0.0023323615   0.00052316962  20.631596      19.236415      1.395181      -1.2291581      18630.352    
    840000   0.98702384     0.0023323615   0.00060576657  20.949404      19.483674      1.4657304     -1.0602625      18556.838    
    841000   0.9683789      0.0023323615   0.00067297661  20.853259      19.415217      1.4380427     -1.1281638      18528.405    
    842000   0.96181768     0.0023323615   0.003498422    20.785474      19.357175      1.4282993     -1.2332287      18589.945    
    843000   0.95970389     0.0023323615  -0.0040045626   20.526272      19.101112      1.4251603     -1.4865858      18567.882    
    844000   1.0537813      0.0023323615  -0.0023217499   20.858767      19.293902      1.5648652     -1.245127       18310.763    
    845000   1.0286563      0.0023323615  -0.0029617351   21.198886      19.671332      1.5275546     -0.91958512     18616.588    
    846000   1.0162345      0.0023323615  -0.0019291991   20.753877      19.244769      1.5091082     -1.2907482      18516.011    
    847000   0.97539789     0.0023323615  -0.002976832    20.638047      19.189581      1.4484659     -1.4001279      18535.036    
    848000   1.02638        0.0023323615   0.0020403021   20.760157      19.235983      1.5241742     -1.2240823      18448.185    
    849000   0.97184438     0.0023323615  -0.0033029123   20.794865      19.351676      1.4431889     -1.1619578      18590.115    
    850000   1.0164101      0.0023323615  -0.00070541422  20.877398      19.368029      1.509369      -1.234623       18547.08     
    851000   1.0955657      0.0023323615  -0.0023074491   20.809242      19.182327      1.626915      -1.3437367      18511.025    
    852000   1.0194996      0.0023323615  -0.0017187121   20.695281      19.181325      1.5139569     -1.2958031      18622.632    
    853000   0.85360468     0.0023323615  -0.0039652241   20.271437      19.003834      1.2676029     -1.3794619      19085.076    
    854000   1.0649911      0.0023323615   0.0023000364   20.601356      19.019844      1.5815117     -1.5229457      18705.085    
    855000   1.060203       0.0023323615  -0.0013032084   20.650291      19.07589       1.5744015     -1.4998566      18440.826    
    856000   1.0021299      0.0023323615   0.0042783437   20.665062      19.176899      1.4881629     -1.435797       18557.239    
    857000   1.0044132      0.0023323615   0.005101661    20.684282      19.192728      1.4915536     -1.3898263      18748.494    
    858000   0.98964706     0.0023323615  -0.0018837106   20.620679      19.151054      1.4696259     -1.2938744      18546.149    
    859000   1.0688608      0.0023323615   0.00056363325  20.868043      19.280785      1.5872582     -1.2401289      18482.116    
    860000   0.97286107     0.0023323615  -0.0030898855   20.705952      19.261254      1.4446987     -1.2696867      18572.162    
    861000   0.9646761      0.0023323615   0.0011026248   20.643335      19.210791      1.432544      -1.2232623      18624.386    
    862000   0.94412438     0.0023323615  -0.00067011654  20.69103       19.289005      1.4020247     -1.2547247      18675.385    
    863000   0.89291655     0.0023323615  -0.0033374441   20.497406      19.171425      1.3259811     -1.2959034      18567.464    
    864000   1.1442885      0.0023323615  -0.0018580788   21.16887       19.469602      1.6992683     -1.1185341      18484.937    
    865000   0.98425341     0.0023323615   0.0035602266   20.368055      18.906438      1.4616163     -1.4682302      18543.165    
    866000   1.1157443      0.0023323615   0.0032256237   20.85595       19.19907       1.6568802     -1.2912617      18617.432    
    867000   1.0475083      0.0023323615   0.0014196158   20.546659      18.991109      1.5555499     -1.4470112      18688.578    
    868000   1.0314865      0.0023323615  -0.0035355419   20.843128      19.311371      1.5317574     -1.2907906      18539.425    
    869000   0.94219496     0.0023323615  -0.0028470159   20.733906      19.334746      1.3991595     -1.2249931      19734.243    
    870000   1.0661062      0.0023323615  -0.0053600153   20.767137      19.183969      1.5831678     -1.3608797      20195.275    
    871000   0.97862595     0.0023323615   0.0012763991   20.583652      19.130392      1.4532595     -1.3335347      20024.22     
    872000   0.90008854     0.0023323615   0.002153839    20.605875      19.269244      1.3366315     -1.2008746      20265.297    
    873000   1.0484682      0.0023323615  -0.002257891    21.094743      19.537767      1.5569753     -1.0252074      20389.689    
    874000   1.0340817      0.0023323615   0.0022807174   21.064014      19.528402      1.5356113     -0.94297517     20551.363    
    875000   0.9853203      0.0023323615  -0.0036885315   20.556571      19.093371      1.4632006     -1.3876755      20235.74     
    876000   0.98753956     0.0023323615   0.0052078249   20.755754      19.289258      1.4664962     -1.3154948      20013.174    
    877000   1.0429941      0.0023323615   0.0047592655   20.822217      19.273371      1.5488463     -1.3266724      20016.634    
    878000   0.94256682     0.0023323615  -0.0038012724   20.448982      19.049271      1.3997117     -1.488001       19762.942    
    879000   1.0748828      0.0023323615   0.0010185156   20.667709      19.071508      1.596201      -1.4051958      19865.296    
    880000   0.9932047      0.0023323615   0.00012554018  20.912291      19.437382      1.474909      -1.0008241      20127.94     
    881000   0.98261753     0.0023323615   0.0045244909   20.951262      19.492075      1.459187      -0.95999363     20622.193    
    882000   0.90325266     0.0023323615  -0.0011132695   20.773442      19.432112      1.3413302     -1.1364131      20260.994    
    883000   0.93488735     0.0023323615  -0.00048506277  20.607795      19.219487      1.3883077     -1.4187047      19916.315    
    884000   1.0079476      0.0023323615   0.0028991869   20.509618      19.012816      1.4968022     -1.4280978      19807.024    
    885000   0.94597958     0.0023323615  -0.0013236361   20.677499      19.272719      1.4047797     -1.2875158      19870.33     
    886000   1.0099625      0.0023323615   0.0012874353   20.843826      19.344031      1.4997943     -1.2575247      20015.682    
    887000   1.0185416      0.0023323615   0.0012282889   20.566601      19.054067      1.5125343     -1.4401109      20045.783    
    888000   1.0004629      0.0023323615   0.00038995678  20.651315      19.165628      1.4856873     -1.4368722      20047.812    
    889000   1.0954575      0.0023323615   0.0012173499   20.604243      18.977489      1.6267543     -1.5065957      19926.072    
    890000   1.0570287      0.0023323615   0.0091957974   20.677136      19.107449      1.5696876     -1.5823962      19977.66     
    891000   1.1237205      0.0023323615  -0.0013100495   20.95729       19.288565      1.6687249     -1.3124578      20032.904    
    892000   1.0273136      0.0023323615   0.0018610982   20.612133      19.086572      1.5255606     -1.4531642      20019.228    
    893000   0.95661593     0.0023323615   0.0013834565   21.021426      19.600851      1.4205747     -1.0520124      20206.016    
    894000   0.991988       0.0023323615   0.0015743855   20.658682      19.18558       1.4731022     -1.3881218      20198.173    
    895000   0.84016725     0.0023323615  -0.0014502986   20.406451      19.158803      1.2476484     -1.3694499      20185.425    
    896000   0.96574624     0.0023323615   0.00061040473  20.341557      18.907424      1.4341332     -1.5589604      20068.478    
    897000   0.96535327     0.0023323615  -0.00079010043  20.786441      19.352891      1.4335496     -1.1824302      19945.898    
    898000   1.0341152      0.0023323615  -0.00038911769  20.793815      19.258154      1.5356611     -1.2317975      20006.231    
    899000   0.90394709     0.0023323615  -0.0017688122   20.487947      19.145586      1.3423614     -1.446984       20016.228    
    900000   1.0063808      0.0023323615  -0.0026886028   20.75548       19.261005      1.4944755     -1.2355866      20041.468    
    901000   0.97462295     0.0023323615  -0.0016654046   20.654691      19.207376      1.4473151     -1.3564142      20156.552    
    902000   1.0114762      0.0023323615  -0.0064093455   20.694542      19.1925        1.5020421     -1.288844       20042.008    
    903000   0.95744737     0.0023323615  -0.0017737194   20.849035      19.427226      1.4218093     -1.1571631      20191.023    
    904000   0.86598759     0.0023323615  -0.00025357487  20.380731      19.094739      1.2859916     -1.4018626      20055.909    
    905000   1.0515126      0.0023323615   0.0019864488   21.008108      19.446611      1.5614962     -1.1778893      19999.035    
    906000   1.0369925      0.0023323615   0.00059409406  20.704685      19.164752      1.5399338     -1.2733427      20139.344    
    907000   0.76798981     0.0023323615  -0.00017454215  20.349151      19.208686      1.1404649     -1.2940418      20105.39     
    908000   1.1620554      0.0023323615  -0.0019604629   20.820035      19.094383      1.7256523     -1.3636104      20132.077    
    909000   1.0306373      0.0023323615   0.002524764    20.805324      19.274827      1.5304964     -1.3327857      20234.768    
    910000   0.98329495     0.0023323615   0.0047573553   21.100047      19.639854      1.460193      -0.98165047     20379.611    
    911000   1.0737791      0.0023323615   0.003519688    20.631152      19.03659       1.594562      -1.3509135      19718.96     
    912000   1.0142981      0.0023323615   0.00034570514  20.920951      19.414718      1.5062326     -1.0705195      20035.888    
    913000   0.93964099     0.0023323615  -0.0013330476   20.600346      19.204979      1.3953669     -1.3212779      19972.715    
    914000   1.0354047      0.0023323615  -0.0026685307   20.95049       19.412914      1.5375759     -1.2182456      20037.453    
    915000   0.88780634     0.0023323615  -0.00027452613  20.537142      19.21875       1.3183924     -1.3574076      20260.973    
    916000   0.94397841     0.0023323615   0.00040083592  20.663601      19.261793      1.4018079     -1.2204256      20068.019    
    917000   1.0776852      0.0023323615   0.0020583139   20.809189      19.208826      1.6003626     -1.3129899      20194.806    
    918000   1.0356629      0.0023323615   0.0003873508   20.476172      18.938212      1.5379594     -1.5338502      20033.198    
    919000   1.0119038      0.0023323615   0.00017359191  20.600478      19.097801      1.5026771     -1.3794028      20044.817    
    920000   0.92398011     0.0023323615   0.0023701513   20.522712      19.150602      1.3721105     -1.3463675      20047.555    
    921000   0.97301939     0.0023323615  -0.0033883533   20.534452      19.089518      1.4449338     -1.4298106      19992.033    
    922000   0.78320314     0.0023323615  -0.0027684203   20.392633      19.229576      1.1630567     -1.2299266      20065.215    
    923000   0.97140722     0.0023323615   0.0020222843   20.662528      19.219988      1.4425397     -1.2339176      20051.147    
    924000   0.9388653      0.0023323615  -0.0018501762   20.709379      19.315164      1.394215      -1.235627       20253.1      
    925000   0.91709945     0.0023323615  -0.0019355177   20.531831      19.169938      1.3618927     -1.209074       20278.571    
    926000   0.9392216      0.0023323615   0.0018989311   20.595489      19.200745      1.3947441     -1.3346978      20090.611    
    927000   1.0248394      0.0023323615   0.0044093743   20.923947      19.402061      1.5218865     -1.1111277      20132.552    
    928000   1.0535187      0.0023323615  -0.003263968    21.003597      19.439122      1.5644752     -0.9939448      20349.048    
    929000   1.2060106      0.0023323615   0.0014387697   21.249218      19.458293      1.7909258     -1.1318033      20313.391    
    930000   1.0238883      0.0023323615   0.00267455     20.62384       19.103366      1.5204741     -1.3303714      20235.551    
    931000   1.0522866      0.0023323615  -0.00062643965  20.908993      19.346348      1.5626456     -1.1673066      20110.575    
    932000   1.1070383      0.0023323615   0.0051851677   20.892135      19.248183      1.6439519     -1.270074       20169.945    
    933000   1.0231215      0.0023323615   0.00042421468  20.67772       19.158385      1.5193354     -1.4604298      19818.669    
    934000   1.1766279      0.0023323615  -0.0023112372   20.887603      19.140311      1.7472924     -1.4594796      19675.398    
    935000   1.1900472      0.0023323615  -0.00031533404  20.86983       19.10261       1.7672201     -1.3947003      19816.595    
    936000   0.89662519     0.0023323615  -0.0016762831   20.707172      19.375683      1.3314884     -1.3223979      19881.274    
    937000   1.0548093      0.0023323615   0.0021646689   21.048179      19.481787      1.5663917     -1.1269383      19994.901    
    938000   0.98994412     0.0023323615  -0.0024513518   20.545784      19.075717      1.470067      -1.4536818      20008.541    
    939000   0.99641676     0.0023323615  -0.004076864    20.617976      19.138297      1.4796789     -1.3462346      20131.171    
    940000   1.0390464      0.0023323615  -0.0017087676   20.686163      19.143179      1.5429839     -1.247061       20254.108    
    941000   1.0421238      0.0023323615   0.0034352711   20.680198      19.132644      1.5475538     -1.3594738      20026.212    
    942000   0.91075484     0.0023323615  -0.0020402977   20.681894      19.329423      1.3524709     -1.2745462      20115.852    
    943000   0.97827253     0.0023323615   0.0014997425   20.898796      19.446061      1.4527347     -1.14844        20223.993    
    944000   0.9866816      0.0023323615   0.0013238505   20.499054      19.033832      1.4652222     -1.4018585      20217.062    
    945000   1.1641114      0.0023323615  -0.0018879254   20.793958      19.065253      1.7287054     -1.3571636      19974.266    
    946000   1.0990918      0.0023323615   0.0017871607   20.840943      19.208792      1.6321514     -1.2431443      20075.134    
    947000   0.86224271     0.0023323615  -0.002267628    20.489853      19.209423      1.2804304     -1.2694164      20090.255    
    948000   1.0829363      0.0023323615   0.0041415397   20.885572      19.277412      1.6081604     -1.2817373      20140.755    
    949000   0.96834113     0.0023323615  -0.0016693449   20.80178       19.363794      1.4379866     -1.2412156      19754.861    
    950000   0.8649048      0.0023323615  -0.0016430161   20.808742      19.524359      1.2843836     -0.94964972     20125.461    
    951000   1.1456031      0.0023323615  -0.00065515186  21.121458      19.420238      1.7012206     -1.1243359      20174.858    
    952000   1.1100808      0.0023323615  -0.00086903004  20.913694      19.265224      1.64847       -1.271055       20114.36     
    953000   1.034033       0.0023323615   0.0019037446   20.831991      19.296452      1.5355391     -1.1810502      19930.72     
    954000   0.9673034      0.0023323615  -0.0034123818   20.789704      19.353259      1.4364456     -1.3295094      20069.972    
    955000   0.92107858     0.0023323615  -0.00058382994  20.622358      19.254556      1.3678017     -1.2230248      19036.297    
    956000   0.98730405     0.0023323615   0.003545649    20.774578      19.308431      1.4661465     -1.1613428      18621.933    
    957000   1.0370226      0.0023323615  -0.0048080789   20.672326      19.132348      1.5399785     -1.3418644      18750.692    
    958000   1.0150316      0.0023323615  -0.0031184514   20.774252      19.26693       1.5073219     -1.2653804      19949.099    
    959000   1.043022       0.0023323615   0.0023194497   20.790044      19.241156      1.5488876     -1.1944794      20130.242    
    960000   0.90969086     0.0023323615   0.002408699    20.379272      19.028381      1.3508909     -1.3714224      20103.819    
    961000   0.95432854     0.0023323615  -0.0023909795   20.663768      19.24659       1.4171779     -1.1851527      20111.37     
    962000   1.1150443      0.0023323615  -0.0015487325   20.869134      19.213293      1.6558408     -1.2809931      20142.628    
    963000   1.131463       0.0023323615  -0.0025465409   21.165385      19.485163      1.6802226     -1.0388397      20181.596    
    964000   1.1420644      0.0023323615   0.00020507575  20.826063      19.130097      1.6959657     -1.3070754      19823.388    
    965000   1.0682273      0.0023323615   0.0016520414   20.683616      19.097299      1.5863176     -1.4005978      19963.563    
    966000   0.9314383      0.0023323615  -0.0035691897   20.551562      19.168376      1.3831859     -1.4133085      19932.733    
    967000   1.103109       0.0023323615  -0.00014181033  20.912325      19.274208      1.6381169     -1.2666983      19930.063    
    968000   0.9899207      0.0023323615  -0.00054580969  20.680403      19.210371      1.4700322     -1.3899896      20095.501    
    969000   1.0183694      0.0023323615   0.0032299623   20.652213      19.139935      1.5122785     -1.3952929      20035.856    
    970000   1.1050949      0.0023323615   0.00085109162  21.09653       19.455464      1.6410659     -1.0920858      20107.115    
    971000   1.0164901      0.0023323615   0.0013319485   20.605457      19.095969      1.5094878     -1.3809941      20192.277    
    972000   0.98359943     0.0023323615   0.0019821014   20.820191      19.359546      1.4606452     -1.2412388      20097.306    
    973000   0.81503261     0.0023323615  -0.0046272815   20.599464      19.389141      1.2103234     -1.100209       20130.518    
    974000   1.0389412      0.0023323615  -0.00047104914  20.690228      19.147401      1.5428277     -1.3006812      20156.255    
    975000   0.95253775     0.0023323615   0.0013044734   20.643639      19.229121      1.4145186     -1.3760212      20132.841    
    976000   0.97662974     0.0023323615  -0.0025974847   20.736709      19.286414      1.4502952     -1.2737398      20203.169    
    977000   1.0280729      0.0023323615  -0.0040679091   20.920742      19.394054      1.5266882     -1.076928       20430.649    
    978000   1.0204481      0.0023323615   0.0051832354   21.034829      19.519463      1.5153654     -1.1576259      20270.186    
    979000   1.0287636      0.0023323615  -0.00082517441  20.930694      19.40298       1.527714      -1.0861475      20356.202    
    980000   1.015906       0.0023323615  -8.1657521e-06  20.491917      18.983296      1.5086204     -1.5601299      20047.792    
    981000   0.91835056     0.0023323615  -0.0054638293   20.607856      19.244106      1.3637506     -1.2552942      20042.599    
    982000   0.89908473     0.0023323615   0.0008342361   20.661851      19.32671       1.3351408     -1.2318535      19996.455    
    983000   0.90158765     0.0023323615   0.002300947    20.587033      19.248176      1.3388577     -1.2484561      20116.485    
    984000   0.91129387     0.0023323615  -0.0011811085   20.492377      19.139105      1.3532714     -1.3934179      19890.081    
    985000   0.94247891     0.0023323615  -0.00086954303  20.536551      19.136969      1.3995812     -1.3214493      20026.735    
    986000   0.98931149     0.0023323615  -0.0033477782   20.857573      19.388446      1.4691276     -1.2049675      20212.833    
    987000   0.96754141     0.0023323615   0.0040271587   20.6991        19.262301      1.436799      -1.3096316      20157.269    
    988000   1.0179988      0.0023323615   0.0028226718   20.61151       19.099782      1.5117283     -1.4107214      20214.912    
    989000   0.97188326     0.0023323615   0.0012093924   20.753831      19.310584      1.4432466     -1.2079231      20002.097    
    990000   1.000441       0.0023323615  -0.00084739011  20.894568      19.408913      1.4856549     -1.0374126      20228.288    
    991000   1.0303698      0.0023323615   0.0010186209   20.706641      19.176542      1.5300991     -1.3163967      20180.397    
    992000   0.93475113     0.0023323615   0.0025028867   20.558369      19.170263      1.3881054     -1.3560239      19974.673    
    993000   1.0475388      0.0023323615  -0.0013161961   20.701784      19.146189      1.5555951     -1.257955       19979.151    
    994000   1.0328728      0.0023323615  -0.0006557544   20.813614      19.279798      1.5338162     -1.3178532      20129.523    
    995000   0.98027702     0.0023323615  -0.0019411171   20.415928      18.960217      1.4557114     -1.418362       20111.977    
    996000   0.89291338     0.0023323615  -0.0043056551   20.597774      19.271797      1.3259764     -1.312954       18833.478    
    997000   0.99040283     0.0023323615  -0.0030440205   20.559502      19.088754      1.4707482     -1.433219       18315.178    
    998000   1.057916       0.0023323615  -0.00040228503  20.567773      18.996768      1.5710053     -1.518801       19902.36     
    999000   0.92668067     0.0023323615   0.0050499406   20.596732      19.220611      1.3761208     -1.3273247      19847.035    
   1000000   0.94312853     0.0023323615  -0.0017111134   20.684595      19.284049      1.4005459     -1.3081413      19798.62     
Loop time of 52.5619 on 1 procs for 1000000 steps with 100 atoms

Performance: 8218887.357 tau/day, 19025.202 timesteps/s
99.5% CPU use with 1 MPI tasks x 1 OpenMP threads

MPI task timing breakdown:
Section |  min time  |  avg time  |  max time  |%varavg| %total
---------------------------------------------------------------
Pair    | 43.806     | 43.806     | 43.806     |   0.0 | 83.34
Bond    | 1.228      | 1.228      | 1.228      |   0.0 |  2.34
Neigh   | 3.7211     | 3.7211     | 3.7211     |   0.0 |  7.08
Comm    | 1.3391     | 1.3391     | 1.3391     |   0.0 |  2.55
Output  | 0.20786    | 0.20786    | 0.20786    |   0.0 |  0.40
Modify  | 1.9092     | 1.9092     | 1.9092     |   0.0 |  3.63
Other   |            | 0.351      |            |       |  0.67

Nlocal:            100 ave         100 max         100 min
Histogram: 1 0 0 0 0 0 0 0 0 0
Nghost:            292 ave         292 max         292 min
Histogram: 1 0 0 0 0 0 0 0 0 0
Neighs:           4851 ave        4851 max        4851 min
Histogram: 1 0 0 0 0 0 0 0 0 0

Total # of neighbors = 4851
Ave neighs/atom = 48.51
Ave special neighs/atom = 1.98
Neighbor list builds = 97902
Dangerous builds = 80103

write_data      ${outputfile_assembled} nofix nocoeff
write_data      7_assembled.data nofix nocoeff
System init for write_data ...
Generated 0 of 6 mixed pair_coeff terms from geometric mixing rule

Total wall time: 0:00:53
