LAMMPS (23 Jun 2022 - Update 1)
OMP_NUM_THREADS environment is not set. Defaulting to 1 thread. (src/comm.cpp:98)
  using 1 OpenMP thread(s) per MPI task


variable        runtime equal 1000000
variable		subsample_rate equal 1000

variable		outputfile_created string '3_created.data'
variable		outputfile_relaxed string '5_relaxed.data'
variable		outputfile_selfasb string '6_a_self_assemble.lammpstrj'
variable		outputfile_trajlin string '6_b_trajlin.data'
variable		outputfile_assembled string '7_assembled.data'

units           lj
atom_style      full
dimension       3
boundary        p p p
timestep        0.005

read_data       ${outputfile_created}
read_data       3_created.data
Reading data file ...
  orthogonal box = (0 0 0) to (35 35 35)
  1 by 1 by 1 MPI processor grid
  reading atoms ...
  100 atoms
  reading velocities ...
  100 velocities
  scanning bonds ...
  1 = max bonds/atom
  reading bonds ...
  99 bonds
Finding 1-2 1-3 1-4 neighbors ...
  special bond factors lj:    0        0        0       
  special bond factors coul:  0        0        0       
     2 = max # of 1-2 neighbors
     2 = max # of 1-3 neighbors
     4 = max # of 1-4 neighbors
     6 = max # of special neighbors
  special bonds CPU = 0.000 seconds
  read_data CPU = 0.007 seconds

bond_style      fene
bond_coeff      * 30.0 1.5 1.0 1.0
special_bonds   fene
Finding 1-2 1-3 1-4 neighbors ...
  special bond factors lj:    0        1        1       
  special bond factors coul:  0        1        1       
     2 = max # of 1-2 neighbors
     6 = max # of special neighbors
  special bonds CPU = 0.000 seconds

variable        Temp equal 1.0
variable        velSeed equal 926458

velocity        all create ${Temp} ${velSeed}
velocity        all create 1 ${velSeed}
velocity        all create 1 926458

### Output
thermo_style    custom step temp density press etotal pe ke epair spcpu
thermo          1000

###########################################################################
# Soft relaxation (to remove overlaps of particles)
######################################################################

pair_style      soft 1.0
pair_coeff      * * 0.0
variable        prefactor equal ramp(0,300)
fix             rampSoft all adapt 1 pair soft a * * v_prefactor

minimize        0.0 1.0e-8 1000 100000
WARNING: Using 'neigh_modify every 1 delay 0 check yes' setting during minimization (src/min.cpp:187)
Generated 0 of 6 mixed pair_coeff terms from geometric mixing rule
Neighbor list info ...
  update every 1 steps, delay 0 steps, check yes
  max neighbors/atom: 2000, page size: 100000
  master list distance cutoff = 1.3
  ghost atom cutoff = 1.3
  binsize = 0.65, bins = 54 54 54
  1 neighbor lists, perpetual/occasional/extra = 1 0 0
  (1) pair soft, perpetual
      attributes: half, newton on
      pair build: half/bin/newton
      stencil: half/bin/3d
      bin: standard
WARNING: Communication cutoff 1.3 is shorter than a bond length based estimate of 1.7550000000000001. This may lead to errors. (src/comm.cpp:727)
Per MPI rank memory allocation (min/avg/max) = 8.346 | 8.346 | 8.346 Mbytes
   Step          Temp         Density         Press          TotEng         PotEng         KinEng         E_pair         S/CPU     
         0   1              0.0023323615  -0.0039617958   21.524174      20.039174      1.485          0              0            
       362   1              0.0023323615   0.0023090379   21.485548      20.000548      1.485          0              68788.403    
Loop time of 0.00526508 on 1 procs for 362 steps with 100 atoms

99.4% CPU use with 1 MPI tasks x 1 OpenMP threads

Minimization stats:
  Stopping criterion = force tolerance
  Energy initial, next-to-last, final = 
      20.0391741078675   20.0005480767337   20.0005480767337
  Force two-norm initial, final = 11.878422 7.9509778e-09
  Force max component initial, final = 6.6117807 1.3572772e-09
  Final line search alpha, max atom move = 1 1.3572772e-09
  Iterations, force evaluations = 362 738

MPI task timing breakdown:
Section |  min time  |  avg time  |  max time  |%varavg| %total
---------------------------------------------------------------
Pair    | 0.00021919 | 0.00021919 | 0.00021919 |   0.0 |  4.16
Bond    | 0.0023499  | 0.0023499  | 0.0023499  |   0.0 | 44.63
Neigh   | 0.0015243  | 0.0015243  | 0.0015243  |   0.0 | 28.95
Comm    | 0.0001878  | 0.0001878  | 0.0001878  |   0.0 |  3.57
Output  | 0          | 0          | 0          |   0.0 |  0.00
Modify  | 0          | 0          | 0          |   0.0 |  0.00
Other   |            | 0.0009839  |            |       | 18.69

Nlocal:            100 ave         100 max         100 min
Histogram: 1 0 0 0 0 0 0 0 0 0
Nghost:             20 ave          20 max          20 min
Histogram: 1 0 0 0 0 0 0 0 0 0
Neighs:              0 ave           0 max           0 min
Histogram: 1 0 0 0 0 0 0 0 0 0

Total # of neighbors = 0
Ave neighs/atom = 0
Ave special neighs/atom = 1.98
Neighbor list builds = 17
Dangerous builds = 0

fix             nvtSoft all nvt temp ${Temp} ${Temp} 0.5
fix             nvtSoft all nvt temp 1 ${Temp} 0.5
fix             nvtSoft all nvt temp 1 1 0.5
run             100000
Generated 0 of 6 mixed pair_coeff terms from geometric mixing rule
WARNING: Communication cutoff 1.3 is shorter than a bond length based estimate of 1.7550000000000001. This may lead to errors. (src/comm.cpp:727)
Per MPI rank memory allocation (min/avg/max) = 7.221 | 7.221 | 7.221 Mbytes
   Step          Temp         Density         Press          TotEng         PotEng         KinEng         E_pair         S/CPU     
       362   1              0.0023323615   0.0023090379   21.485548      20.000548      1.485          0              0            
      1000   0.90989032     0.0023323615  -0.0021940042   21.776974      20.425787      1.3511871      0.00036425437  78347.934    
      2000   0.86546688     0.0023323615   0.0034714157   21.677128      20.39191       1.2852183      0.0025814786   75846.155    
      3000   0.98199538     0.0023323615   0.0028144228   21.866132      20.407869      1.4582631      0.0011756043   73478.63     
      4000   1.004495       0.0023323615  -0.0014058211   21.945624      20.453949      1.4916751      0.011986179    73707.502    
      5000   1.1222705      0.0023323615   0.0044495116   21.986385      20.319813      1.6665718      0.0050317639   73937.421    
      6000   1.0538243      0.0023323615   0.0023957538   21.985713      20.420784      1.564929       0.012100514    74669.483    
      7000   1.0210598      0.0023323615  -0.00038820026  21.904665      20.388391      1.5162738      0              76191.8      
      8000   0.94819751     0.0023323615   0.0024943091   21.747889      20.339816      1.4080733      0              75929.239    
      9000   0.92364502     0.0023323615   0.0020053029   21.724166      20.352554      1.3716129      1.7780894e-05  75450.265    
     10000   0.86685188     0.0023323615   0.00078277366  21.644879      20.357604      1.287275       0.0098636418   75999.715    
     11000   1.0057103      0.0023323615   0.00010113276  21.8558        20.362321      1.4934798      0.020705341    75395.557    
     12000   0.97901664     0.0023323615  -0.0026996968   21.871206      20.417366      1.4538397      0.0052928539   75627.599    
     13000   0.97718436     0.0023323615  -6.1641422e-06  21.963706      20.512587      1.4511188      0.025022446    75192.561    
     14000   1.0530014      0.0023323615  -0.0009993112   21.947994      20.384287      1.5637071      0.0020860456   74676.236    
     15000   0.99094527     0.0023323615   0.0011068478   21.895146      20.423592      1.4715537      0.0015091113   75522.546    
     16000   0.91285091     0.0023323615  -0.00025424173  21.87524       20.519657      1.3555836      0.0047853639   75163.793    
     17000   0.82806978     0.0023323615  -0.00054698156  21.701984      20.472301      1.2296836      0              75242.778    
     18000   1.043278       0.0023323615  -6.6143919e-05  22.003299      20.454031      1.5492679      0.0034319132   76178.601    
     19000   1.0879249      0.0023323615  -0.0017804642   21.998985      20.383416      1.6155685      0.015376175    74690.654    
     20000   1.1144506      0.0023323615   0.0025198298   22.190904      20.535944      1.6549592      0              75659.877    
     21000   1.0427751      0.0023323615   0.0011345349   22.099492      20.550971      1.548521       0.00040047813  74919.112    
     22000   1.0586695      0.0023323615   0.0017882747   22.05673       20.484606      1.5721242      0              75726.178    
     23000   1.0058426      0.0023323615  -0.0055245362   21.954628      20.460951      1.4936763      0.0027619031   74984.396    
     24000   0.98273442     0.0023323615   0.0015147357   21.862067      20.402707      1.4593606      0              75434.59     
     25000   0.95835343     0.0023323615   0.0017808774   21.937761      20.514606      1.4231548      0.00020839942  75143.364    
     26000   0.93993778     0.0023323615  -0.0021777292   21.884849      20.489042      1.3958076      0.0088889834   75682.427    
     27000   0.9308188      0.0023323615  -0.00011239942  21.842252      20.459986      1.3822659      0.021612409    74835.36     
     28000   1.0149581      0.0023323615   0.0041996387   21.906846      20.399633      1.5072129      0.0064059022   75382.286    
     29000   0.92841138     0.0023323615  -2.5398808e-05  21.987185      20.608494      1.3786909      0.0046112484   75055.274    
     30000   1.021043       0.0023323615   0.001589158    22.097958      20.581709      1.5162489      0.016799508    73011.129    
     31000   1.0465985      0.0023323615  -0.0021744286   22.037917      20.483718      1.5541987      0.0057879149   75278.191    
     32000   0.98907108     0.0023323615  -0.0015558606   22.044089      20.575318      1.4687705      0.009448173    75071.31     
     33000   1.0918536      0.0023323615  -0.0025643847   22.039275      20.417873      1.6214025      0              74372.263    
     34000   0.99801543     0.0023323615   0.0016279766   21.932339      20.450286      1.4820529      0.017384617    76652.582    
     35000   1.0352271      0.0023323615  -0.0052971711   22.076004      20.538692      1.5373122      0.00010473809  75002.938    
     36000   1.1141579      0.0023323615  -0.00093279925  22.222491      20.567966      1.6545245      0.00033678641  76474.103    
     37000   1.0369415      0.0023323615   0.00013065175  22.217841      20.677983      1.5398581      0.013788831    75297.105    
     38000   1.0515596      0.0023323615   0.0021717558   22.070766      20.5092        1.561566       0.0067894678   75806.695    
     39000   1.0238495      0.0023323615   0.00026414509  22.040141      20.519725      1.5204165      0.00044464649  74892.914    
     40000   1.0749111      0.0023323615  -0.0026849368   22.039327      20.443084      1.596243       0.012651334    73380.423    
     41000   0.99070886     0.0023323615  -0.0030385564   22.03241       20.561207      1.4712027      0.00092855646  76344.427    
     42000   0.95315224     0.0023323615   0.0019788197   21.965263      20.549832      1.4154311      0.020233689    74916.468    
     43000   1.0644183      0.0023323615  -0.0011168725   22.287172      20.706511      1.5806611      0.039694129    75015.845    
     44000   1.0253747      0.0023323615  -0.006676522    22.066233      20.543552      1.5226814      0              68362.447    
     45000   0.94179556     0.0023323615  -0.0047206018   21.970644      20.572077      1.3985664      0.019869988    74270.826    
     46000   1.0083495      0.0023323615  -0.0017646918   21.972114      20.474715      1.497399       0.00026040605  75069.101    
     47000   0.98767959     0.0023323615  -0.00080218158  22.091674      20.62497       1.4667042      0.024266258    74716.827    
     48000   1.1473449      0.0023323615  -0.0025885687   22.080512      20.376705      1.7038072      0.00065962995  75136.126    
     49000   1.0679312      0.0023323615   0.0017688272   21.970482      20.384604      1.5858779      0.014142422    76123.459    
     50000   0.9581935      0.0023323615   0.0014398836   21.955202      20.532284      1.4229173      0.0055011948   75428.661    
     51000   1.0215759      0.0023323615  -0.00093292688  21.934681      20.41764       1.5170402      0              75058.041    
     52000   0.98079591     0.0023323615   0.0040701936   21.977374      20.520892      1.4564819      0.0020862422   75961.711    
     53000   1.0090927      0.0023323615   0.0013324753   22.095438      20.596935      1.4985027      0              75366.009    
     54000   0.97519627     0.0023323615   0.0013260734   22.070151      20.621984      1.4481665      0.026885444    76311.621    
     55000   1.1805087      0.0023323615  -0.001586238    22.424088      20.671033      1.7530554      0.024690954    75835.669    
     56000   0.98387121     0.0023323615   0.0037155145   22.104425      20.643376      1.4610487      0.01435493     75338.193    
     57000   1.0723812      0.0023323615  -0.0037916262   22.122726      20.53024       1.592486       0.013635549    75899.099    
     58000   1.0152349      0.0023323615   0.00021908047  22.082827      20.575203      1.5076238      0.00077375639  75629.035    
     59000   1.1424502      0.0023323615  -0.0052108657   22.30072       20.604182      1.6965385      0.013308184    76759.697    
     60000   1.0359703      0.0023323615  -0.00097887545  22.188218      20.649802      1.538416       0.00011346294  74787.133    
     61000   1.1646839      0.0023323615  -0.002085017    22.239945      20.51039       1.7295556      0.012918477    77331.745    
     62000   1.101836       0.0023323615   0.0010338878   22.171386      20.53516       1.6362265      0.001396566    75887.729    
     63000   0.96616435     0.0023323615   0.00097550571  21.903821      20.469067      1.4347541      0.013027663    77398.908    
     64000   1.0068907      0.0023323615  -0.0020278726   22.061652      20.566419      1.4952327      0.013750276    75901.639    
     65000   0.98723233     0.0023323615   0.0022441476   22.031073      20.565033      1.46604        0.0066686189   76264.509    
     66000   1.0273881      0.0023323615  -0.0003515278   22.183579      20.657908      1.5256713      0              74361.96     
     67000   0.96528212     0.0023323615  -0.00014822656  21.9396        20.506156      1.4334439      0.010365557    76315.477    
     68000   1.069702       0.0023323615   9.4754668e-05  22.081119      20.492611      1.5885075      0.00049153926  73510.78     
     69000   1.1229502      0.0023323615   0.0011504079   22.200329      20.532748      1.6675811      0.0068454249   76343.023    
     70000   1.0062775      0.0023323615  -0.00085311964  22.094021      20.599699      1.4943221      0.013222355    74717.38     
     71000   1.0906935      0.0023323615   0.00015260357  22.145362      20.525682      1.6196798      0.018338513    74990.654    
     72000   1.010401       0.0023323615  -6.0487182e-06  22.154105      20.653659      1.5004455      0.0013793953   74188.517    
     73000   1.1177599      0.0023323615  -0.0034084797   22.254435      20.594562      1.6598735      0.00011231735  77115.159    
     74000   0.9768019      0.0023323615   0.00016143893  22.07312       20.622569      1.4505508      0.0084515956   75190.751    
     75000   1.1360996      0.0023323615   0.002159116    22.161595      20.474487      1.6871079      0.0089909162   75814.12     
     76000   0.97379329     0.0023323615  -0.00068458621  21.988928      20.542845      1.446083       0              75040.49     
     77000   0.94876793     0.0023323615  -0.0016073976   21.923496      20.514575      1.4089204      0.017745108    75207.518    
     78000   0.83947996     0.0023323615  -0.00062768559  21.726727      20.480099      1.2466277      0.0054510099   75754.626    
     79000   1.0090614      0.0023323615  -0.00080262643  22.068192      20.569736      1.4984562      0.00023011166  76299.202    
     80000   1.1217643      0.0023323615  -0.0038177864   22.367902      20.702082      1.66582        0.032902439    75483.758    
     81000   1.0240158      0.0023323615   0.00023547123  22.031597      20.510933      1.5206635      0.0068767308   75160.624    
     82000   1.003236       0.0023323615  -0.0022802982   21.894199      20.404393      1.4898055      0.019136282    74264.251    
     83000   1.0554159      0.0023323615   0.004011718    22.104562      20.537269      1.5672927      0.0080869707   74062.564    
     84000   0.83527346     0.0023323615  -0.0034122221   21.874648      20.634267      1.2403811      0.0030083664   75107.966    
     85000   1.036002       0.0023323615   0.0013573923   21.962923      20.42446       1.5384629      0.015709144    75878.562    
     86000   0.9432002      0.0023323615  -0.0032183248   21.913588      20.512936      1.4006523      0.013730309    75545.117    
     87000   0.95566008     0.0023323615  -0.00049614223  21.91653       20.497375      1.4191552      0.0035862035   74860.733    
     88000   0.93373351     0.0023323615  -0.00097093893  21.870485      20.483891      1.3865943      0.0018212145   74585.56     
     89000   0.9684944      0.0023323615  -0.00047342045  21.973429      20.535215      1.4382142      0.00087524744  74894.148    
     90000   0.98293324     0.0023323615  -0.0032204602   22.050919      20.591263      1.4596559      0.015353933    75907.067    
     91000   1.0832827      0.0023323615   0.0048517083   22.11977       20.511095      1.6086749      0.0052867789   76924.509    
     92000   0.85899662     0.0023323615  -0.0013049519   21.765697      20.490087      1.27561        0.0024124001   75877.462    
     93000   0.96176266     0.0023323615  -4.4223672e-05  21.874222      20.446004      1.4282176      0.0045653365   76657.353    
     94000   0.96019503     0.0023323615   0.00024459347  21.944954      20.519064      1.4258896      3.8053462e-05  76107.677    
     95000   0.94702149     0.0023323615  -0.0033658915   21.86315       20.456823      1.4063269      0              76621.454    
     96000   0.91119348     0.0023323615  -0.0013197298   21.825018      20.471896      1.3531223      0.00043282989  75593.469    
     97000   1.0016687      0.0023323615  -0.0019514304   22.013024      20.525546      1.487478       0.0048369955   75012.913    
     98000   1.02143        0.0023323615  -0.0057874974   22.177965      20.661142      1.5168235      0              73834.108    
     99000   1.032786       0.0023323615   0.0018228259   21.975336      20.441649      1.5336871      7.1595851e-05  77167.151    
    100000   1.0594928      0.0023323615   0.0036169719   22.011024      20.437677      1.5733468      0.00032948157  75416.061    
    100362   1.1904942      0.0023323615  -0.00089755607  22.316856      20.548972      1.7678839      0.00063845255  74825.7      
Loop time of 1.32782 on 1 procs for 100000 steps with 100 atoms

Performance: 32534590.313 tau/day, 75311.552 timesteps/s
99.2% CPU use with 1 MPI tasks x 1 OpenMP threads

MPI task timing breakdown:
Section |  min time  |  avg time  |  max time  |%varavg| %total
---------------------------------------------------------------
Pair    | 0.050161   | 0.050161   | 0.050161   |   0.0 |  3.78
Bond    | 0.1309     | 0.1309     | 0.1309     |   0.0 |  9.86
Neigh   | 0.80679    | 0.80679    | 0.80679    |   0.0 | 60.76
Comm    | 0.055948   | 0.055948   | 0.055948   |   0.0 |  4.21
Output  | 0.0010907  | 0.0010907  | 0.0010907  |   0.0 |  0.08
Modify  | 0.24991    | 0.24991    | 0.24991    |   0.0 | 18.82
Other   |            | 0.03303    |            |       |  2.49

Nlocal:            100 ave         100 max         100 min
Histogram: 1 0 0 0 0 0 0 0 0 0
Nghost:             60 ave          60 max          60 min
Histogram: 1 0 0 0 0 0 0 0 0 0
Neighs:             36 ave          36 max          36 min
Histogram: 1 0 0 0 0 0 0 0 0 0

Total # of neighbors = 36
Ave neighs/atom = 0.36
Ave special neighs/atom = 1.98
Neighbor list builds = 9821
Dangerous builds = 8265
unfix           nvtSoft
unfix           rampSoft
reset_timestep  0

write_data      ${outputfile_relaxed}
write_data      5_relaxed.data
System init for write_data ...
Generated 0 of 6 mixed pair_coeff terms from geometric mixing rule
WARNING: Communication cutoff 1.3 is shorter than a bond length based estimate of 1.7550000000000001. This may lead to errors. (src/comm.cpp:727)
WARNING: Not all mixed pair coeffs generated from mixing. Use write_data with 'pair ij' option to store all pair coeffs. (src/write_data.cpp:309)

###########################################################################
# Full LJ with Coulomb
######################################################################

# Cutoffs and parameters:
# - Values: Marcel Verkade's Bachelor Thesis
# - Mapping to atom groups: Patrick Onck's paper
# - 1: aliphatic, 2: aromatic, 3: anion, 4: cation
# pair_style	lj/cut/coul/cut <lj_cut_global> <coul_cut_global>
# pair_coeff	<type_1>  <type_2>  <eps>  <sigma>  <r_cut_lj>  <r_cut_coul>

# Problem: Onck's model is much more complex, and Marcel has no sigma reported
# Using sigma=1 randomly

variable		glob_ljeps equal 1.0
variable		glob_ljsig 	equal 1.0
variable		glob_coulcut equal 10.0
variable		att_ljcut equal 2.50
variable		rep_ljcut equal 1.12

pair_style		lj/cut/coul/cut 						${att_ljcut} 	${glob_coulcut}
pair_style		lj/cut/coul/cut 						2.5 	${glob_coulcut}
pair_style		lj/cut/coul/cut 						2.5 	10
pair_coeff		1 1 	${glob_ljeps} 	${glob_ljsig}	${att_ljcut} 	${glob_coulcut}
pair_coeff		1 1 	1 	${glob_ljsig}	${att_ljcut} 	${glob_coulcut}
pair_coeff		1 1 	1 	1	${att_ljcut} 	${glob_coulcut}
pair_coeff		1 1 	1 	1	2.5 	${glob_coulcut}
pair_coeff		1 1 	1 	1	2.5 	10
pair_coeff		1 2 	${glob_ljeps} 	${glob_ljsig}	${att_ljcut} 	${glob_coulcut}
pair_coeff		1 2 	1 	${glob_ljsig}	${att_ljcut} 	${glob_coulcut}
pair_coeff		1 2 	1 	1	${att_ljcut} 	${glob_coulcut}
pair_coeff		1 2 	1 	1	2.5 	${glob_coulcut}
pair_coeff		1 2 	1 	1	2.5 	10
pair_coeff		1 3 	${glob_ljeps} 	${glob_ljsig}	${rep_ljcut} 	${glob_coulcut}
pair_coeff		1 3 	1 	${glob_ljsig}	${rep_ljcut} 	${glob_coulcut}
pair_coeff		1 3 	1 	1	${rep_ljcut} 	${glob_coulcut}
pair_coeff		1 3 	1 	1	1.12 	${glob_coulcut}
pair_coeff		1 3 	1 	1	1.12 	10
pair_coeff		1 4 	${glob_ljeps} 	${glob_ljsig}	${rep_ljcut} 	${glob_coulcut}
pair_coeff		1 4 	1 	${glob_ljsig}	${rep_ljcut} 	${glob_coulcut}
pair_coeff		1 4 	1 	1	${rep_ljcut} 	${glob_coulcut}
pair_coeff		1 4 	1 	1	1.12 	${glob_coulcut}
pair_coeff		1 4 	1 	1	1.12 	10
pair_coeff		2 2 	${glob_ljeps} 	${glob_ljsig}	${att_ljcut} 	${glob_coulcut}
pair_coeff		2 2 	1 	${glob_ljsig}	${att_ljcut} 	${glob_coulcut}
pair_coeff		2 2 	1 	1	${att_ljcut} 	${glob_coulcut}
pair_coeff		2 2 	1 	1	2.5 	${glob_coulcut}
pair_coeff		2 2 	1 	1	2.5 	10
pair_coeff		2 3 	${glob_ljeps} 	${glob_ljsig}	${rep_ljcut} 	${glob_coulcut}
pair_coeff		2 3 	1 	${glob_ljsig}	${rep_ljcut} 	${glob_coulcut}
pair_coeff		2 3 	1 	1	${rep_ljcut} 	${glob_coulcut}
pair_coeff		2 3 	1 	1	1.12 	${glob_coulcut}
pair_coeff		2 3 	1 	1	1.12 	10
pair_coeff		2 4 	${glob_ljeps} 	${glob_ljsig}	${att_ljcut} 	${glob_coulcut}
pair_coeff		2 4 	1 	${glob_ljsig}	${att_ljcut} 	${glob_coulcut}
pair_coeff		2 4 	1 	1	${att_ljcut} 	${glob_coulcut}
pair_coeff		2 4 	1 	1	2.5 	${glob_coulcut}
pair_coeff		2 4 	1 	1	2.5 	10
pair_coeff		3 3 	${glob_ljeps} 	${glob_ljsig}	${rep_ljcut} 	${glob_coulcut}
pair_coeff		3 3 	1 	${glob_ljsig}	${rep_ljcut} 	${glob_coulcut}
pair_coeff		3 3 	1 	1	${rep_ljcut} 	${glob_coulcut}
pair_coeff		3 3 	1 	1	1.12 	${glob_coulcut}
pair_coeff		3 3 	1 	1	1.12 	10
pair_coeff		3 4 	${glob_ljeps} 	${glob_ljsig}	${att_ljcut} 	${glob_coulcut}
pair_coeff		3 4 	1 	${glob_ljsig}	${att_ljcut} 	${glob_coulcut}
pair_coeff		3 4 	1 	1	${att_ljcut} 	${glob_coulcut}
pair_coeff		3 4 	1 	1	2.5 	${glob_coulcut}
pair_coeff		3 4 	1 	1	2.5 	10
pair_coeff		4 4 	${glob_ljeps} 	${glob_ljsig}	${rep_ljcut} 	${glob_coulcut}
pair_coeff		4 4 	1 	${glob_ljsig}	${rep_ljcut} 	${glob_coulcut}
pair_coeff		4 4 	1 	1	${rep_ljcut} 	${glob_coulcut}
pair_coeff		4 4 	1 	1	1.12 	${glob_coulcut}
pair_coeff		4 4 	1 	1	1.12 	10


fix             noDriftRot 	all momentum 10 linear 1 1 1 angular
fix             nvt1 		all nvt temp ${Temp} ${Temp} 0.5
fix             nvt1 		all nvt temp 1 ${Temp} 0.5
fix             nvt1 		all nvt temp 1 1 0.5

# dump          assemble 	all custom 1000 				${outputfile_selfasb} id type xu yu zu vx vy vz
dump            lindump 	all custom ${subsample_rate} 	${outputfile_trajlin} id type xu yu zu vx vy vz
dump            lindump 	all custom 1000 	${outputfile_trajlin} id type xu yu zu vx vy vz
dump            lindump 	all custom 1000 	6_b_trajlin.data id type xu yu zu vx vy vz

run             ${runtime}
run             1000000
Generated 0 of 6 mixed pair_coeff terms from geometric mixing rule
Neighbor list info ...
  update every 1 steps, delay 10 steps, check yes
  max neighbors/atom: 2000, page size: 100000
  master list distance cutoff = 10.3
  ghost atom cutoff = 10.3
  binsize = 5.15, bins = 7 7 7
  1 neighbor lists, perpetual/occasional/extra = 1 0 0
  (1) pair lj/cut/coul/cut, perpetual
      attributes: half, newton on
      pair build: half/bin/newton
      stencil: half/bin/3d
      bin: standard
Per MPI rank memory allocation (min/avg/max) = 7.712 | 7.712 | 7.712 Mbytes
   Step          Temp         Density         Press          TotEng         PotEng         KinEng         E_pair         S/CPU     
         0   1.1904942      0.0023323615  -0.0015900411   21.906711      20.138827      1.7678839     -0.40950654     0            
      1000   0.9851804      0.0023323615   0.001320733    21.035603      19.57261       1.4629929     -0.82642794     33404.104    
      2000   1.0876031      0.0023323615   0.0026807408   21.129939      19.514848      1.6150906     -1.0122892      29734.664    
      3000   0.92924377     0.0023323615   0.0027536829   20.527797      19.14787       1.379927      -1.3513554      24700.583    
      4000   0.88976925     0.0023323615   0.00098329463  20.536668      19.21536       1.3213073     -1.3425419      19490.789    
      5000   1.1764557      0.0023323615  -0.0031783812   20.664699      18.917663      1.7470367     -1.5974374      18412.229    
      6000   1.0183929      0.0023323615  -0.0022599864   20.418445      18.906132      1.5123135     -1.653169       18312.005    
      7000   1.0326907      0.0023323615   0.0025013037   20.046303      18.512757      1.5335457     -1.8872212      18346.316    
      8000   0.94411816     0.0023323615   0.0015231911   20.16004       18.758024      1.4020155     -1.7856564      18335.593    
      9000   1.0451667      0.0023323615   0.0025923564   20.45216       18.900088      1.5520725     -1.6502874      18394.106    
     10000   0.85301124     0.0023323615   0.00016327982  20.045761      18.779039      1.2667217     -1.7237968      18444.204    
     11000   0.97760421     0.0023323615  -0.0051282043   20.295492      18.843749      1.4517422     -1.7859341      18259.133    
     12000   1.0537366      0.0023323615  -0.0021666265   20.537333      18.972534      1.5647988     -1.5840957      18207.899    
     13000   1.0115461      0.0023323615  -0.0029418248   20.368607      18.866461      1.5021459     -1.6407531      18270.712    
     14000   1.0882214      0.0023323615   0.0014708658   20.594474      18.978465      1.6160088     -1.4486157      18202.967    
     15000   0.90974596     0.0023323615  -0.00053593454  20.110642      18.759669      1.3509727     -1.7964921      18222.758    
     16000   1.0164809      0.0023323615   0.00010953543  20.269087      18.759613      1.5094741     -1.9648692      18159.56     
     17000   0.95605145     0.0023323615   0.00046534233  20.084545      18.664808      1.4197364     -1.8187549      18268.678    
     18000   0.99268868     0.0023323615  -0.001233401    20.418452      18.944309      1.4741427     -1.5930468      18555.887    
     19000   0.95048622     0.0023323615   0.00041891968  20.46171       19.050238      1.411472      -1.4864823      18666.312    
     20000   1.0996765      0.0023323615   0.0032385728   20.408429      18.775409      1.6330196     -1.6836026      18510.092    
     21000   1.1159818      0.0023323615   0.00036087976  20.314338      18.657105      1.657233      -1.7651316      18119.859    
     22000   0.92380517     0.0023323615  -0.0001983764   20.170255      18.798404      1.3718507     -1.7736097      18061.024    
     23000   0.99076917     0.0023323615  -0.0044734012   20.230578      18.759286      1.4712922     -1.9103902      18155.214    
     24000   0.93516366     0.0023323615  -0.0023732509   20.281191      18.892473      1.388718      -1.6973926      18087.04     
     25000   0.98037962     0.0023323615  -0.00038776128  20.19696       18.741097      1.4558637     -1.9153247      18197.565    
     26000   0.90566351     0.0023323615  -0.00034336746  19.985701      18.64079       1.3449103     -1.9137777      18160.125    
     27000   1.0412743      0.0023323615  -0.0052581778   20.287729      18.741437      1.5462923     -1.8178723      17995.531    
     28000   1.0350879      0.0023323615  -0.00088512977  20.309846      18.772741      1.5371056     -1.622059       18102.159    
     29000   1.0836704      0.0023323615   0.003459778    20.765623      19.156372      1.6092505     -1.4766017      18110.374    
     30000   1.04931        0.0023323615  -0.0049051667   20.420026      18.861801      1.5582253     -1.6672816      18201.517    
     31000   0.930819       0.0023323615  -0.0023864423   20.200983      18.818717      1.3822662     -1.7377461      18258.158    
     32000   1.0878002      0.0023323615   0.0040448307   20.424536      18.809153      1.6153833     -1.8290578      18370.95     
     33000   0.96034556     0.0023323615   0.0029506281   20.187471      18.761358      1.4261132     -1.8109496      18360.862    
     34000   0.98114348     0.0023323615  -0.0010622756   20.36153       18.904532      1.4569981     -1.7728041      18229.014    
     35000   0.87524926     0.0023323615  -0.004132629    20.184037      18.884292      1.2997451     -1.6040343      18299.704    
     36000   0.95452287     0.0023323615   0.0019361201   20.209389      18.791922      1.4174665     -1.6991018      18256.375    
     37000   1.1962978      0.0023323615   0.0013731209   20.712232      18.93573       1.7765023     -1.5617921      18217.968    
     38000   1.0101451      0.0023323615  -0.0025074396   20.363532      18.863466      1.5000655     -1.665247       18234.882    
     39000   0.84656121     0.0023323615   0.0013969723   19.735763      18.478619      1.2571434     -1.9886873      18608.103    
     40000   1.0288183      0.0023323615  -0.0010360723   20.374077      18.846282      1.5277952     -1.5786123      18558.209    
     41000   0.97485476     0.0023323615   0.0010126709   20.039384      18.591724      1.4476593     -1.8709604      18590.839    
     42000   0.98320538     0.0023323615   0.0023531863   20.10774       18.64768       1.46006       -1.8556509      18539.784    
     43000   1.2104117      0.0023323615  -0.00087834139  20.518989      18.721528      1.7974614     -1.7992475      18449.966    
     44000   1.0453169      0.0023323615   2.9986352e-05  20.02021       18.467915      1.5522955     -2.1320771      18474.082    
     45000   0.93866221     0.0023323615  -0.00025177109  20.326031      18.932118      1.3939134     -1.6768643      18613.652    
     46000   1.0322772      0.0023323615  -0.0024359877   20.00135       18.468418      1.5329317     -1.9678401      18511.541    
     47000   0.96405681     0.0023323615  -0.00021644357  20.379522      18.947897      1.4316244     -1.760592       18442.763    
     48000   1.0288832      0.0023323615  -0.0022417704   20.273279      18.745387      1.5278916     -1.747658       18557.284    
     49000   1.0393736      0.0023323615   0.0028305109   20.372604      18.829134      1.5434698     -1.6780474      18574.769    
     50000   0.99401858     0.0023323615   0.0026475384   20.403025      18.926907      1.4761176     -1.6606389      18463.836    
     51000   0.96928075     0.0023323615  -0.00055261154  19.966239      18.526857      1.4393819     -1.9886722      18506.056    
     52000   0.99869822     0.0023323615   0.0012449529   20.234368      18.751301      1.4830669     -1.691099       18551.848    
     53000   0.8328437      0.0023323615   0.0029510476   20.230574      18.993801      1.2367729     -1.4478869      18605.467    
     54000   0.92148686     0.0023323615   0.0033357002   20.20417       18.835762      1.368408      -1.7111996      18567.564    
     55000   0.90355019     0.0023323615  -0.0032400755   20.088805      18.747033      1.341772      -1.8202917      18491.133    
     56000   1.1063815      0.0023323615   4.8504924e-06  20.363165      18.720189      1.6429765     -1.8837278      18672.856    
     57000   1.0753         0.0023323615   0.0047558348   20.310843      18.714022      1.5968206     -1.8472689      18526.536    
     58000   0.95234766     0.0023323615  -0.00036430567  19.940272      18.526036      1.4142363     -2.0352406      18533.316    
     59000   0.93074188     0.0023323615  -0.00018255838  20.423693      19.041541      1.3821517     -1.5083556      18481.022    
     60000   1.008246       0.0023323615  -0.0017304939   20.289319      18.792074      1.4972453     -1.6550202      18535.019    
     61000   0.93197877     0.0023323615  -0.00088045182  20.448333      19.064345      1.3839885     -1.4950564      18567.392    
     62000   1.0023124      0.0023323615  -0.0012315676   20.276123      18.787689      1.4884339     -1.7604438      18124.587    
     63000   0.95468346     0.0023323615   0.0029683914   20.216515      18.79881       1.4177049     -1.7068217      18181.449    
     64000   0.96916277     0.0023323615  -0.001220178    20.002432      18.563225      1.4392067     -1.9274111      14046.76     
     65000   0.99541267     0.0023323615   4.3758717e-05  20.329854      18.851666      1.4781878     -1.6028442      18079.046    
     66000   1.0325057      0.0023323615   0.003266197    20.252903      18.719632      1.533271      -1.8043183      18261.522    
     67000   1.0533726      0.0023323615  -0.0024640446   20.393905      18.829647      1.5642583     -1.7564262      18375.444    
     68000   1.0379167      0.0023323615  -0.0032045575   20.356201      18.814894      1.5413064     -1.6515309      18419.416    
     69000   1.0918533      0.0023323615   0.0058547781   20.33768       18.716278      1.6214022     -1.8050794      18393.784    
     70000   0.9880211      0.0023323615  -0.0010170767   20.624996      19.157785      1.4672113     -1.480004       18404.183    
     71000   0.9472514      0.0023323615  -0.00073155086  20.08028       18.673611      1.4066683     -1.8055085      18417.865    
     72000   1.0015993      0.0023323615   0.0014796348   20.283347      18.795972      1.487375      -1.6710661      18302.405    
     73000   0.93407603     0.0023323615  -3.1655292e-05  19.930969      18.543866      1.3871029     -1.9055224      18364.2      
     74000   0.98729552     0.0023323615   6.3875008e-05  20.166388      18.700255      1.4661338     -1.8122182      18427.06     
     75000   1.0088057      0.0023323615   0.00024070182  20.193543      18.695466      1.4980765     -1.7735294      18447.092    
     76000   0.97128391     0.0023323615   0.00010660922  20.145957      18.7036        1.4423566     -1.7260049      18479.517    
     77000   0.98498527     0.0023323615  -0.0024936969   20.080373      18.61767       1.4627031     -1.9555746      18522.681    
     78000   1.0671639      0.0023323615   0.0031076094   20.486938      18.902199      1.5847384     -1.5909747      18472.202    
     79000   1.0411485      0.0023323615  -0.0010394396   20.56758       19.021474      1.5461056     -1.6374534      18291.976    
     80000   0.97574803     0.0023323615   0.0016966649   20.396286      18.9473        1.4489858     -1.5025444      18407.306    
     81000   0.91590023     0.0023323615  -0.0021142001   20.356767      18.996655      1.3601118     -1.4347404      18504.084    
     82000   1.0750493      0.0023323615   0.0014554956   20.608178      19.01173       1.5964482     -1.4549477      18601.212    
     83000   1.101218       0.0023323615   0.0028204826   20.294613      18.659305      1.6353088     -1.8085907      18176.505    
     84000   1.0407073      0.0023323615  -0.001770577    20.266185      18.720735      1.5454503     -1.7866676      18105.482    
     85000   0.91851833     0.0023323615  -0.002614185    20.13606       18.77206       1.3639997     -1.7482088      18336.492    
     86000   0.94301301     0.0023323615  -0.0032772189   20.35664       18.956266      1.4003743     -1.5196702      18212.314    
     87000   0.96544177     0.0023323615  -0.0016401791   20.112373      18.678692      1.433681      -1.8259298      18277.343    
     88000   1.0967148      0.0023323615  -0.0010194555   20.393651      18.76503       1.6286215     -1.6806941      18202.712    
     89000   1.0484999      0.0023323615   0.0035512751   20.291291      18.734268      1.5570224     -1.8379867      18286.028    
     90000   1.0078697      0.0023323615  -0.0011017065   20.118964      18.622277      1.4966865     -1.8873438      18394.036    
     91000   1.1126931      0.0023323615   0.0022467584   20.433917      18.781568      1.6523492     -1.7495701      18304.462    
     92000   0.83405771     0.0023323615  -0.00068613522  19.851817      18.613241      1.2385757     -1.856638       18471.449    
     93000   0.92039891     0.0023323615   0.000404322    20.361265      18.994473      1.3667924     -1.5845338      18265.044    
     94000   0.85236042     0.0023323615   0.00026093269  19.817456      18.551701      1.2657552     -1.9234638      18204.136    
     95000   0.9700095      0.0023323615   0.0015662753   20.269451      18.828986      1.4404641     -1.6935149      17910.019    
     96000   1.1179422      0.0023323615   0.0010853817   20.295925      18.635781      1.6601442     -1.7962971      17993.556    
     97000   1.0238992      0.0023323615   0.002253552    20.043841      18.52335       1.5204903     -1.887981       17965.544    
     98000   0.97942773     0.0023323615   0.0005257507   20.419081      18.964631      1.4544502     -1.4903259      17983.327    
     99000   0.98574401     0.0023323615   0.0026524023   20.148803      18.684973      1.4638299     -1.7701634      18128.794    
    100000   0.97888369     0.0023323615  -0.0025652325   20.265877      18.812235      1.4536423     -1.8338387      18221.886    
    101000   1.0234131      0.0023323615   0.00030619747  20.116376      18.596607      1.5197684     -1.9212955      18282.857    
    102000   0.99219351     0.0023323615  -0.0014730008   19.97155       18.498143      1.4734074     -2.0049639      18053.7      
    103000   0.82061425     0.0023323615  -0.0011935892   20.127893      18.909281      1.2186122     -1.6203522      18199.682    
    104000   1.1619786      0.0023323615   0.0002033418   20.549688      18.82415       1.7255382     -1.6284263      18258.362    
    105000   0.93333196     0.0023323615   3.9515503e-05  20.511643      19.125645      1.385998      -1.4161526      18391.382    
    106000   1.0421627      0.0023323615  -0.0017269934   20.07549       18.527878      1.5476116     -1.9062312      18172.673    
    107000   0.96635104     0.0023323615  -0.001350129    20.289473      18.854442      1.4350313     -1.6919823      18036.974    
    108000   1.0330699      0.0023323615   0.0019338258   20.223176      18.689067      1.5341088     -1.7918062      17982.06     
    109000   0.96509853     0.0023323615   0.00018791295  19.866723      18.433551      1.4331713     -1.9681473      17908.805    
    110000   0.94351759     0.0023323615  -0.0014484165   20.290822      18.889698      1.4011236     -1.6008047      17743.969    
    111000   0.97568062     0.0023323615  -0.00026508748  19.997963      18.549078      1.4488857     -1.9536763      17977.782    
    112000   1.0006681      0.0023323615  -0.0012418415   20.176992      18.691         1.4859922     -1.8646516      17816.618    
    113000   1.0234007      0.0023323615  -0.0045265256   20.10561       18.58586       1.5197501     -1.979227       17722.489    
    114000   1.0385457      0.0023323615   0.00091253194  20.124605      18.582365      1.5422404     -1.9491572      17714.173    
    115000   1.0136775      0.0023323615  -0.0021242259   19.976636      18.471324      1.5053112     -1.9758735      17844.205    
    116000   1.1202664      0.0023323615   0.00064113642  20.746928      19.083332      1.6635956     -1.5057583      17938.497    
    117000   1.0663552      0.0023323615  -0.0014285591   20.468685      18.885147      1.5835374     -1.6647534      17920.18     
    118000   0.97898323     0.0023323615   0.0026195258   20.243787      18.789997      1.4537901     -1.7917815      17956.753    
    119000   0.99811377     0.0023323615   0.00026980012  20.311325      18.829127      1.4821989     -1.610542       17917.971    
    120000   0.99297842     0.0023323615   0.002292706    20.139675      18.665102      1.474573      -1.7898907      17976.62     
    121000   0.97178099     0.0023323615   0.0037812433   19.994502      18.551407      1.4430948     -1.9483777      17962.893    
    122000   1.1388655      0.0023323615   0.0031617461   20.372557      18.681342      1.6912153     -1.9057411      17761.743    
    123000   0.96985785     0.0023323615   0.0043801858   20.34539       18.905151      1.4402389     -1.5620281      17861.329    
    124000   0.8171584      0.0023323615  -0.0038424581   19.944435      18.730955      1.2134802     -1.8397639      17740.743    
    125000   1.1541928      0.0023323615   0.0020617366   20.576731      18.862755      1.7139763     -1.7309772      17674.853    
    126000   1.0684958      0.0023323615  -0.00098503563  20.000825      18.414108      1.5867163     -2.0579062      17701.186    
    127000   0.88704949     0.0023323615  -0.00027063447  20.069555      18.752286      1.3172685     -1.7160264      17837.046    
    128000   0.95844362     0.0023323615  -0.0011750115   20.102016      18.678727      1.4232888     -1.8259241      17908.933    
    129000   1.1784254      0.0023323615   0.00029906762  20.690995      18.941033      1.7499617     -1.6135021      17665.609    
    130000   1.069702       0.0023323615   0.0028008757   20.055147      18.46664       1.5885075     -1.9459967      17747.235    
    131000   0.99843206     0.0023323615   0.0018323355   19.965211      18.48254       1.4826716     -1.9935008      17707.473    
    132000   1.1433687      0.0023323615   0.00069685565  20.565793      18.86789       1.6979026     -1.5989679      17859.013    
    133000   0.97195682     0.0023323615  -0.00055803035  20.197498      18.754142      1.4433559     -1.6264058      18158.886    
    134000   1.1299827      0.0023323615   0.00029242268  20.396727      18.718702      1.6780243     -1.7268356      18016.385    
    135000   0.98686826     0.0023323615  -0.0011173225   20.051855      18.586356      1.4654994     -1.9322359      18130.588    
    136000   0.99703551     0.0023323615   0.0033675678   20.082182      18.601584      1.4805977     -1.921271       18156.184    
    137000   1.077612       0.0023323615   0.0039992214   20.220457      18.620203      1.6002538     -1.8546354      18173.242    
    138000   1.0138196      0.0023323615  -0.0016558759   20.30188       18.796358      1.5055221     -1.7458962      18233.953    
    139000   0.97053605     0.0023323615  -0.001553675    20.289243      18.847997      1.441246      -1.6975907      17995.998    
    140000   0.92657345     0.0023323615  -0.003127962    20.188731      18.81277       1.3759616     -1.6675672      17928.862    
    141000   1.0709836      0.0023323615   8.1510949e-05  20.300326      18.709915      1.5904107     -1.7542844      18044.457    
    142000   1.0577586      0.0023323615  -0.0029166319   20.375834      18.805062      1.5707716     -1.7037332      18067.56     
    143000   1.0355584      0.0023323615   0.002455198    20.312037      18.774233      1.5378042     -1.6878447      17979.414    
    144000   0.93633959     0.0023323615  -0.003731858    20.170904      18.78044       1.3904643     -1.7635343      17887.215    
    145000   0.97185866     0.0023323615   0.00061384835  20.094226      18.651016      1.4432101     -1.8593203      18168.763    
    146000   1.0352682      0.0023323615   0.00068163535  20.121199      18.583826      1.5373733     -2.0272571      18033.145    
    147000   0.96355581     0.0023323615  -0.002963727    20.049946      18.619066      1.4308804     -1.8973122      18106.053    
    148000   0.8881571      0.0023323615   0.0031362699   19.855254      18.536341      1.3189133     -1.9270416      18086.021    
    149000   0.95089383     0.0023323615   0.0022537034   20.280696      18.868619      1.4120773     -1.7312616      18296.191    
    150000   1.0979022      0.0023323615   0.0062184741   20.430522      18.800137      1.6303848     -1.860466       18259.097    
    151000   1.1156779      0.0023323615  -0.00057798107  20.259383      18.602601      1.6567816     -1.8701329      18273.498    
    152000   0.90450833     0.0023323615   0.00058484874  20.573183      19.229988      1.3431949     -1.325046       18260.794    
    153000   0.77805799     0.0023323615  -0.0023656133   19.966734      18.811318      1.1554161     -1.6160683      18355.18     
    154000   1.1345443      0.0023323615  -0.001942023    20.45041       18.765612      1.6847983     -1.6745038      18205.249    
    155000   1.0492707      0.0023323615   0.0011229527   20.277625      18.719458      1.558167      -1.8323819      18293.864    
    156000   0.91993555     0.0023323615   0.00029219392  20.090467      18.724363      1.3661043     -1.8325603      18269.655    
    157000   1.0196276      0.0023323615  -0.0011181995   20.383063      18.868916      1.514147      -1.6413073      18329.37     
    158000   0.98889954     0.0023323615  -0.0058793131   20.335291      18.866775      1.4685158     -1.7113208      18364.68     
    159000   0.96771269     0.0023323615  -0.004026414    20.291939      18.854886      1.4370533     -1.669709       18378.408    
    160000   0.94793525     0.0023323615  -0.00082157511  20.028562      18.620878      1.4076839     -1.8433522      18369.073    
    161000   1.0052386      0.0023323615  -0.0019217277   20.145613      18.652833      1.4927794     -1.7817797      18406.263    
    162000   1.0022156      0.0023323615  -0.0034329972   20.229971      18.741681      1.4882902     -1.8614099      18340.286    
    163000   0.91931282     0.0023323615   0.0020229722   19.830875      18.465695      1.3651795     -2.0348595      18286.809    
    164000   0.84170621     0.0023323615  -0.00086666536  19.844373      18.59444       1.2499337     -1.9224672      18135.688    
    165000   0.91159545     0.0023323615  -0.00029334712  19.957106      18.603387      1.3537192     -1.9868007      18338.971    
    166000   1.0966389      0.0023323615   0.002780404    20.247802      18.619294      1.6285087     -1.8709606      18369.634    
    167000   0.97373454     0.0023323615  -0.0014762119   19.946209      18.500213      1.4459958     -1.9468429      18358.184    
    168000   0.87658522     0.0023323615  -0.00091863365  20.082074      18.780345      1.3017291     -1.7484423      18339.288    
    169000   1.1775711      0.0023323615  -0.003048196    20.276626      18.527933      1.748693      -1.9534612      18414.987    
    170000   1.1128654      0.0023323615   0.0015008119   20.516694      18.864089      1.6526051     -1.6838158      18431.401    
    171000   0.80823443     0.0023323615   0.0038728719   19.768286      18.568058      1.2002281     -1.9026344      18205.77     
    172000   0.90057011     0.0023323615   0.0011962787   20.084295      18.746948      1.3373466     -1.759518       18231.785    
    173000   0.98322051     0.0023323615  -0.001986368    19.998027      18.537944      1.4600825     -1.9819647      18071.502    
    174000   1.0861489      0.0023323615  -0.00085601883  20.33496       18.722029      1.6129312     -1.9127332      18180.905    
    175000   1.0386027      0.0023323615  -0.0005082812   20.038373      18.496048      1.542325      -2.0467425      18225.467    
    176000   1.0682734      0.0023323615  -0.0030035379   20.282209      18.695823      1.586386      -1.7540285      18093.273    
    177000   1.0098786      0.0023323615  -0.0038491407   20.212772      18.713103      1.4996698     -1.7648277      18085.172    
    178000   1.1449991      0.0023323615   0.0018580471   20.402507      18.702184      1.7003237     -1.7865055      18068.08     
    179000   1.1140451      0.0023323615   0.00097162671  20.377627      18.72327       1.654357      -1.69816        18243.398    
    180000   0.88432577     0.0023323615   0.00048889125  19.968974      18.65575       1.3132238     -1.8759468      18383.984    
    181000   0.9729309      0.0023323615  -0.0018894266   20.239694      18.794891      1.4448024     -1.5692232      18493.397    
    182000   0.96642761     0.0023323615   0.0022946667   20.308402      18.873257      1.435145      -1.6296575      18315.506    
    183000   1.0292563      0.0023323615  -0.0017142685   20.683986      19.15554       1.5284457     -1.4144128      18465.264    
    184000   1.0709926      0.0023323615   0.0025043532   20.839205      19.248781      1.590424      -1.2251086      18657.987    
    185000   1.0190102      0.0023323615  -0.0021308111   20.544631      19.031401      1.5132302     -1.4482861      18504.255    
    186000   0.97115715     0.0023323615   0.002560138    20.23226       18.790092      1.4421684     -1.6771374      18316.272    
    187000   0.94882282     0.0023323615   0.00020450996  19.994543      18.585541      1.4090019     -1.9638885      18082.921    
    188000   0.97805982     0.0023323615  -0.00070544271  20.065408      18.612989      1.4524188     -1.827943       18201.759    
    189000   0.9061925      0.0023323615   0.00013553403  20.155543      18.809847      1.3456959     -1.737159       18180.236    
    190000   1.1641824      0.0023323615   0.00030079324  20.315229      18.586418      1.7288109     -1.8707658      18104.129    
    191000   1.0455198      0.0023323615   0.0029630786   20.295404      18.742807      1.5525969     -1.794198       18197.193    
    192000   0.92447116     0.0023323615  -0.00035290839  20.377214      19.004375      1.3728397     -1.6675452      18222.764    
    193000   1.058087       0.0023323615  -0.00072130521  20.381634      18.810374      1.5712592     -1.7502516      18307.239    
    194000   0.95996148     0.0023323615   0.0020615519   20.213282      18.787739      1.4255428     -1.7274185      18185.447    
    195000   0.96643791     0.0023323615   0.00080597431  20.122553      18.687393      1.4351603     -1.7528151      18144.404    
    196000   1.1580665      0.0023323615  -0.0019063059   20.487132      18.767403      1.7197288     -1.6931126      18002.162    
    197000   0.95494038     0.0023323615  -4.8210912e-05  20.038234      18.620147      1.4180865     -1.8587462      18033.288    
    198000   1.1291341      0.0023323615  -0.0010777248   20.483554      18.80679       1.6767642     -1.7866411      18037.215    
    199000   0.97228691     0.0023323615  -0.00071134001  20.05592       18.612074      1.4438461     -1.8577288      18181.892    
    200000   0.94930953     0.0023323615   0.00034339938  19.925502      18.515777      1.4097247     -1.9575724      18121.783    
    201000   1.0104143      0.0023323615   0.0030659164   20.294578      18.794113      1.5004652     -1.7507662      18068.214    
    202000   0.92006868     0.0023323615  -0.0052016948   20.086734      18.720432      1.366302      -1.7183795      17956.22     
    203000   1.0709147      0.0023323615  -0.0016139499   20.58444       18.994132      1.5903083     -1.6821677      17946.618    
    204000   1.0748717      0.0023323615   0.000271052    20.024794      18.42861       1.5961844     -2.046064       17969.729    
    205000   1.193936       0.0023323615  -0.0014769234   20.59897       18.825975      1.7729949     -1.7316252      17924.007    
    206000   1.0270548      0.0023323615   0.0041885729   20.420777      18.895601      1.5251763     -1.5040169      17830.007    
    207000   0.8907608      0.0023323615   0.0074466487   20.036706      18.713926      1.3227798     -1.7022067      17937.719    
    208000   1.2117422      0.0023323615   0.00033193167  20.617062      18.817624      1.7994372     -1.7415912      18131.474    
    209000   0.97210344     0.0023323615   0.0035142139   20.450226      19.006653      1.4435736     -1.6755085      18205.385    
    210000   0.81718193     0.0023323615   0.0028341935   19.886699      18.673184      1.2135152     -1.8952239      18309.321    
    211000   1.0770723      0.0023323615   0.0033867706   20.188241      18.588789      1.5994524     -1.9669534      18212.57     
    212000   0.9999772      0.0023323615   0.00080738374  20.311938      18.826972      1.4849661     -1.7298231      18220.26     
    213000   0.89970994     0.0023323615  -0.0032313551   19.872805      18.536736      1.3360693     -1.8824016      18047.276    
    214000   1.0409595      0.0023323615   0.0010016406   20.37338       18.827555      1.5458248     -1.7498514      18161.229    
    215000   1.1362901      0.0023323615  -0.00018269495  20.526126      18.838736      1.6873907     -1.6284948      18488.54     
    216000   1.0852188      0.0023323615   0.0031486256   20.537067      18.925517      1.61155       -1.5542144      18433.281    
    217000   1.0703362      0.0023323615   0.0010809935   20.304379      18.714929      1.5894492     -1.8098216      18332.326    
    218000   1.1131106      0.0023323615   0.0022080213   20.269894      18.616925      1.6529692     -1.8460478      18281.996    
    219000   1.1966436      0.0023323615   0.0021508779   20.743579      18.966563      1.7770158     -1.6926865      18332.703    
    220000   1.0093718      0.0023323615  -0.00056806234  20.357191      18.858274      1.4989171     -1.7675612      18384.309    
    221000   1.0168364      0.0023323615  -0.0013515606   20.059109      18.549107      1.510002      -1.902012       18252.432    
    222000   1.0856911      0.0023323615  -0.00058869935  20.518593      18.906342      1.6122513     -1.6878448      18065.536    
    223000   0.96548724     0.0023323615  -0.0020122339   20.24855       18.814801      1.4337485     -1.9099835      18099.067    
    224000   1.1746448      0.0023323615   0.0020063071   20.102731      18.358383      1.7443476     -2.2061644      18111.008    
    225000   0.99068629     0.0023323615  -0.0018146551   20.406614      18.935445      1.4711691     -1.7114962      18337.425    
    226000   0.83844241     0.0023323615  -7.9336176e-05  20.224759      18.979672      1.245087      -1.6743865      18341.24     
    227000   1.077994       0.0023323615   0.003823797    20.04447       18.443649      1.600821      -1.9509281      18147.571    
    228000   1.0293208      0.0023323615  -0.001634008    20.151495      18.622953      1.5285414     -1.7378939      18131.853    
    229000   0.99630972     0.0023323615  -0.0038242367   20.398501      18.918981      1.4795199     -1.6999904      18100.028    
    230000   1.020361       0.0023323615   0.0037162867   19.935979      18.420742      1.5152361     -1.9771976      18050.831    
    231000   1.0920477      0.0023323615  -0.00060551358  20.400538      18.778847      1.6216909     -1.5843741      18163.707    
    232000   1.0403909      0.0023323615  -0.0023160803   20.260161      18.715181      1.5449804     -1.7948532      18407.35     
    233000   0.86685216     0.0023323615  -0.00040720434  20.030609      18.743333      1.2872755     -1.823298       18342.57     
    234000   1.0188394      0.0023323615  -0.00050461732  20.268313      18.755337      1.5129765     -1.645028       18276.81     
    235000   1.0064984      0.0023323615   0.003423302    20.368237      18.873587      1.4946501     -1.6596973      18248.742    
    236000   1.0068451      0.0023323615   0.0013068933   20.004339      18.509174      1.4951649     -2.0032832      18390.924    
    237000   0.966913       0.0023323615  -0.00044000152  20.190046      18.75418       1.4358658     -1.8022744      18262.371    
    238000   0.88848576     0.0023323615  -0.0036617619   20.119657      18.800256      1.3194014     -1.7023942      18291.021    
    239000   1.2027669      0.0023323615   0.0013552212   20.742431      18.956322      1.7861089     -1.579109       18312.693    
    240000   1.020139       0.0023323615  -0.0019546052   20.406425      18.891519      1.5149064     -1.569593       18134.07     
    241000   1.1870822      0.0023323615   0.00097283177  20.57952       18.816703      1.7628171     -1.7894257      18314.3      
    242000   1.0507578      0.0023323615   0.003661352    20.041538      18.481162      1.5603753     -1.9331625      18171.458    
    243000   1.0127735      0.0023323615   0.0026005085   19.907548      18.403579      1.5039687     -2.0360562      18243.491    
    244000   0.9711325      0.0023323615   0.00094744361  20.234893      18.792761      1.4421318     -1.7290388      18127.793    
    245000   1.0869683      0.0023323615   0.0012284531   20.540163      18.926015      1.6141479     -1.6266922      18286.276    
    246000   0.93752315     0.0023323615   6.0346405e-05  20.052577      18.660355      1.3922219     -1.9014443      18264.453    
    247000   0.96954643     0.0023323615   0.0034768787   19.883964      18.444187      1.4397764     -1.9743749      18156.789    
    248000   1.0364644      0.0023323615   0.0025866517   20.247858      18.708709      1.5391496     -1.7978756      18164.435    
    249000   1.1026341      0.0023323615  -0.00057167975  20.23527       18.597858      1.6374117     -1.8860035      18027.699    
    250000   1.0931325      0.0023323615   0.0023295983   20.426745      18.803443      1.6233018     -1.7165505      18118.066    
    251000   1.1045346      0.0023323615   0.001764576    20.3776        18.737366      1.6402339     -1.8666989      18104.372    
    252000   0.98395474     0.0023323615  -0.0012451554   20.337924      18.876751      1.4611728     -1.6795091      18316.162    
    253000   1.0669675      0.0023323615  -0.0012348624   20.45963       18.875183      1.5844467     -1.6920309      18356.212    
    254000   1.0836543      0.0023323615  -0.002022129    20.395517      18.786291      1.6092266     -1.6573865      18240.424    
    255000   0.95521211     0.0023323615  -0.00047085034  20.400039      18.981549      1.41849       -1.7020186      18269.1      
    256000   0.8656085      0.0023323615   0.0017632348   19.758337      18.472909      1.2854286     -1.9751328      18438.385    
    257000   0.9785559      0.0023323615  -0.00080989667  19.959802      18.506647      1.4531555     -2.008713       18385.666    
    258000   0.92117458     0.0023323615   0.0013063658   20.012264      18.644319      1.3679443     -1.868201       18297.946    
    259000   1.0299027      0.0023323615  -0.0011106969   20.29322       18.763815      1.5294054     -1.8476322      18428.319    
    260000   0.91389123     0.0023323615   0.0010322995   19.8293        18.472171      1.3571285     -2.0258911      18306.614    
    261000   1.0229095      0.0023323615  -0.0015380108   20.307458      18.788438      1.5190206     -1.7429174      18337.058    
    262000   0.9432935      0.0023323615  -0.0036065343   20.042787      18.641996      1.4007908     -1.8457924      18304.707    
    263000   1.200362       0.0023323615  -0.0010316534   20.557916      18.775379      1.7825375     -1.8122667      18373.023    
    264000   0.87213762     0.0023323615   0.0012468565   20.042835      18.74771       1.2951244     -1.8101004      18266.789    
    265000   0.91214425     0.0023323615  -0.0023751757   20.110641      18.756107      1.3545342     -1.6302127      18351.616    
    266000   0.9536527      0.0023323615   0.0036698217   20.385365      18.96919       1.4161743     -1.6187103      18374.057    
    267000   0.99735609     0.0023323615  -0.0017604324   20.232538      18.751465      1.4810738     -1.8274123      18545.888    
    268000   1.0044042      0.0023323615   0.00043324061  20.173324      18.681783      1.4915402     -1.9321816      18453.323    
    269000   1.010288       0.0023323615   0.00023091702  20.354049      18.853771      1.5002777     -1.6223134      18409.587    
    270000   0.98452077     0.0023323615   0.0025253321   19.89204       18.430027      1.4620133     -2.0147838      18388.152    
    271000   0.98402212     0.0023323615   0.0002762266   20.280018      18.818745      1.4612729     -1.7572236      18354.883    
    272000   1.0074383      0.0023323615  -0.00015149172  20.057679      18.561633      1.4960458     -1.8725617      18403.599    
    273000   0.98046458     0.0023323615  -0.0024507031   19.970063      18.514073      1.4559899     -2.0259635      18288.635    
    274000   1.0123587      0.0023323615  -0.00054694861  20.34391       18.840558      1.5033526     -1.761316       18298.549    
    275000   1.0351146      0.0023323615   0.00093507744  19.906571      18.369425      1.5371452     -2.0897349      18414.906    
    276000   1.1891217      0.0023323615   0.0001311745   20.56386       18.798014      1.7658457     -1.702375       18212.61     
    277000   0.95057243     0.0023323615  -0.0038702496   20.076221      18.664621      1.4116001     -1.8227265      18349.483    
    278000   0.95388929     0.0023323615   0.00032109665  20.193921      18.777395      1.4165256     -1.8205548      18307.111    
    279000   1.1568927      0.0023323615  -0.0041553264   20.598079      18.880093      1.7179857     -1.6326628      18327.226    
    280000   0.92710847     0.0023323615  -0.0026385288   20.334193      18.957437      1.3767561     -1.6477883      18304.892    
    281000   1.0091994      0.0023323615   0.00044233294  20.157305      18.658643      1.4986611     -1.8055246      18285.359    
    282000   0.90823085     0.0023323615  -0.0037057403   20.110038      18.761315      1.3487228     -1.6705355      18371.298    
    283000   0.91776781     0.0023323615  -0.001008077    20.178257      18.815372      1.3628852     -1.6104756      18361.517    
    284000   0.95115438     0.0023323615  -0.0054096953   20.597299      19.184835      1.4124643     -1.4494275      18247.12     
    285000   1.2174371      0.0023323615  -0.00095523574  20.726744      18.91885       1.8078941     -1.6343586      18320.498    
    286000   0.99695612     0.0023323615   0.00096657275  20.353909      18.873429      1.4804798     -1.6272685      18223.486    
    287000   0.84496522     0.0023323615  -0.0029382374   20.218158      18.963385      1.2547733     -1.664349       18240.341    
    288000   0.95347374     0.0023323615  -0.001490159    20.158376      18.742468      1.4159085     -1.6419365      18213.298    
    289000   1.1984539      0.0023323615  -0.0052966469   20.679532      18.899828      1.779704      -1.7245289      18214.218    
    290000   1.083264       0.0023323615   0.0044251233   20.524014      18.915367      1.6086471     -1.5456333      18337.155    
    291000   0.94382799     0.0023323615   0.0022495772   20.338646      18.937061      1.4015846     -1.6094597      18371.778    
    292000   0.9870117      0.0023323615   0.00031604738  20.226512      18.7608        1.4657124     -1.7717737      18303.227    
    293000   0.9947746      0.0023323615   0.0015418031   20.244743      18.767503      1.4772403     -1.7667159      18242.414    
    294000   0.92438924     0.0023323615   0.0049207613   20.202682      18.829964      1.372718      -1.716028       18225.034    
    295000   0.96299856     0.0023323615   0.0022568535   20.43789       19.007838      1.4300529     -1.4887418      18271.069    
    296000   0.96363814     0.0023323615   0.0025257837   20.251341      18.820338      1.4310026     -1.7070995      18200.312    
    297000   0.97009662     0.0023323615  -0.0015755986   20.691206      19.250613      1.4405935     -1.4095473      18422.237    
    298000   0.93037393     0.0023323615   0.00020629096  20.019476      18.63787       1.3816053     -1.83734        18504.979    
    299000   1.102275       0.0023323615   0.0029668765   20.42188       18.785002      1.6368783     -1.6536426      18307.592    
    300000   1.1053187      0.0023323615   0.0015263152   20.435095      18.793696      1.6413983     -1.6327419      18350.86     
    301000   0.9421683      0.0023323615   0.0016961219   20.173164      18.774044      1.3991199     -1.6505081      18303.808    
    302000   1.1594512      0.0023323615  -0.0058408781   20.378741      18.656956      1.721785      -1.7754676      18351.889    
    303000   1.0833905      0.0023323615   0.0016187254   20.561765      18.95293       1.6088349     -1.6942545      18132.644    
    304000   0.99935235     0.0023323615  -0.0014166635   20.542511      19.058473      1.4840382     -1.4164282      18165.188    
    305000   1.2298382      0.0023323615   0.0024412422   20.644657      18.818347      1.8263097     -1.6528215      18251.968    
    306000   0.99824766     0.0023323615  -0.0023589008   20.170382      18.687984      1.4823978     -1.7925028      18180.491    
    307000   1.0102176      0.0023323615  -0.0024928015   20.306561      18.806388      1.5001732     -1.7547659      18221.7      
    308000   0.98051364     0.0023323615  -0.0010843026   20.159318      18.703255      1.4560627     -1.8046924      18301.804    
    309000   0.90132837     0.0023323615  -0.00094434408  20.073626      18.735153      1.3384726     -1.7808833      18287.576    
    310000   0.99214845     0.0023323615  -0.0012371181   20.302272      18.828932      1.4733405     -1.6139878      18459.223    
    311000   1.1795225      0.0023323615  -0.00165144     20.668373      18.916782      1.7515909     -1.6852659      18553.717    
    312000   1.1025893      0.0023323615  -0.0023182488   20.490397      18.853052      1.6373452     -1.6670823      18203.96     
    313000   1.0306112      0.0023323615  -0.0014060446   20.255987      18.725529      1.5304576     -1.8547679      18169.411    
    314000   0.89039118     0.0023323615   0.0033231871   20.154421      18.83219       1.3222309     -1.565444       18264.4      
    315000   0.85842588     0.0023323615   0.00021259252  20.089174      18.814412      1.2747624     -1.6474041      18419.99     
    316000   1.0357293      0.0023323615   0.00090313338  20.50435       18.966292      1.538058      -1.4322558      18396.551    
    317000   0.94452027     0.0023323615   0.00016399201  20.602818      19.200205      1.4026126     -1.3406553      18383.404    
    318000   0.95187608     0.0023323615   0.00049677764  20.4366        19.023064      1.413536      -1.4893008      18316.528    
    319000   0.95188982     0.0023323615   0.00081304771  20.238117      18.824561      1.4135564     -1.5719308      18201.902    
    320000   0.95053641     0.0023323615  -0.0041730043   20.171552      18.760006      1.4115466     -1.8420451      18016.986    
    321000   1.044962       0.0023323615  -0.0012822827   20.361822      18.810054      1.5517686     -1.7153551      18125.449    
    322000   1.0643565      0.0023323615  -0.00064344274  20.567978      18.987408      1.5805694     -1.543814       18186.905    
    323000   0.9657936      0.0023323615  -0.0010480135   20.244807      18.810603      1.4342035     -1.7429089      18177.197    
    324000   1.0495789      0.0023323615   0.0005039922   20.293199      18.734575      1.5586247     -1.8171479      18062.835    
    325000   0.89890409     0.0023323615   0.0050640811   20.193994      18.859122      1.3348726     -1.7969605      18196.092    
    326000   1.1605288      0.0023323615   0.0011529594   20.144703      18.421318      1.7233853     -1.9837241      18138.529    
    327000   0.9090716      0.0023323615   0.0023987024   19.871408      18.521437      1.3499713     -1.9912104      18110.393    
    328000   1.1747227      0.0023323615  -0.0006199005   20.672142      18.927679      1.7444632     -1.6917081      18172.971    
    329000   0.81731882     0.0023323615  -0.0024478267   20.13655       18.922832      1.2137185     -1.6451536      18264.6      
    330000   0.92116681     0.0023323615   0.0018232035   19.786011      18.418079      1.3679327     -1.9712844      18207.51     
    331000   1.0100136      0.0023323615  -0.0039990409   20.298093      18.798222      1.4998701     -1.744907       18094.509    
    332000   1.0592579      0.0023323615   0.0025515637   20.353235      18.780237      1.572998      -1.851043       18101.263    
    333000   0.96829229     0.0023323615  -0.0010887985   20.048365      18.610451      1.4379141     -1.9118193      18172.878    
    334000   0.98315861     0.0023323615  -0.001817546    19.943213      18.483223      1.4599905     -2.0316401      18173.583    
    335000   0.93983583     0.0023323615   0.002133328    20.114399      18.718742      1.3956562     -1.8080696      18207.606    
    336000   1.0195107      0.0023323615   0.00047991076  20.423559      18.909586      1.5139734     -1.6178185      18220.313    
    337000   1.0604727      0.0023323615  -0.00079010088  20.512111      18.937309      1.5748019     -1.4335493      18240.211    
    338000   0.92131514     0.0023323615  -0.0068693213   20.157224      18.789071      1.368153      -1.6148497      18376.378    
    339000   0.95499704     0.0023323615  -0.0049338384   20.176499      18.758328      1.4181706     -1.7447948      18171.601    
    340000   0.9256084      0.0023323615  -0.0023022843   20.185173      18.810644      1.3745285     -1.6444714      18177.002    
    341000   1.0261326      0.0023323615  -0.0034702612   20.45402       18.930213      1.523807      -1.6029057      18467.536    
    342000   1.0420427      0.0023323615  -0.00099908576  20.312607      18.765174      1.5474334     -1.7804694      18501.854    
    343000   0.86241287     0.0023323615  -0.003437665    20.130959      18.850276      1.2806831     -1.6595731      18498.137    
    344000   0.83401511     0.0023323615  -0.0029381019   20.035191      18.796679      1.2385124     -1.6136902      18244.672    
    345000   0.91345492     0.0023323615   0.0025562766   20.089246      18.732765      1.3564806     -1.7713986      18248.554    
    346000   0.9243863      0.0023323615  -0.0047560412   20.134276      18.761562      1.3727137     -1.7270634      18215.432    
    347000   0.9349093      0.0023323615  -0.0048884549   20.46995       19.081609      1.3883403     -1.4119115      18158.093    
    348000   0.97458421     0.0023323615  -0.0004684627   20.590157      19.1429        1.4472576     -1.2975591      18483.431    
    349000   0.91437815     0.0023323615   0.0012515684   20.103499      18.745648      1.3578516     -1.6609533      18274.997    
    350000   1.0436462      0.0023323615  -0.00023998184  20.373974      18.824159      1.5498146     -1.8924884      18200.229    
    351000   1.0205051      0.0023323615  -0.00033424891  20.199012      18.683561      1.5154501     -1.862435       18154.51     
    352000   1.0667912      0.0023323615  -0.0022340805   20.204166      18.619981      1.584185      -1.7922699      18132.176    
    353000   0.99771661     0.0023323615   0.0025656371   20.143384      18.661775      1.4816092     -1.8913011      18150.007    
    354000   1.1232746      0.0023323615  -0.0017429076   20.496988      18.828926      1.6680627     -1.6504943      18074.764    
    355000   1.1126926      0.0023323615   0.0024356124   20.448087      18.795739      1.6523485     -1.7301162      18125.018    
    356000   1.2502352      0.0023323615   0.003146254    20.345444      18.488845      1.8565993     -2.0304902      17962.615    
    357000   1.0713645      0.0023323615   0.00023801618  20.03358       18.442604      1.5909763     -1.9811234      18115.774    
    358000   0.99735658     0.0023323615  -0.0023064975   19.938222      18.457147      1.4810745     -1.947892       18225.759    
    359000   1.0009467      0.0023323615   0.00060357493  20.494937      19.008531      1.4864058     -1.6057416      18351.538    
    360000   0.99090984     0.0023323615  -0.0015906078   20.304545      18.833044      1.4715011     -1.7725689      18112.303    
    361000   1.0179277      0.0023323615  -0.0010862947   20.140277      18.628655      1.5116226     -1.9160109      18105.623    
    362000   0.9133074      0.0023323615   0.0027460803   19.764108      18.407847      1.3562615     -2.0968028      18146.183    
    363000   1.0939764      0.0023323615  -0.0041592316   20.518381      18.893826      1.6245549     -1.7399964      18153.503    
    364000   1.0453769      0.0023323615   0.0015225728   20.116414      18.564029      1.5523847     -1.9589181      18088.715    
    365000   1.0108156      0.0023323615  -0.0017042347   20.114461      18.6134        1.5010612     -1.8082229      18123.573    
    366000   1.0008712      0.0023323615  -0.0012657452   20.024351      18.538058      1.4862938     -1.8963468      18087.558    
    367000   1.035583       0.0023323615   0.0005796716   20.404165      18.866325      1.5378407     -1.7255257      18164.352    
    368000   0.96487269     0.0023323615   0.00050534049  20.19409       18.761254      1.4328359     -1.7894735      18145.233    
    369000   0.95249971     0.0023323615  -0.00068830774  20.063539      18.649077      1.4144621     -1.794815       18024.173    
    370000   1.0525868      0.0023323615   0.0031450172   19.963782      18.400691      1.5630914     -2.1155386      18208.49     
    371000   0.99034522     0.0023323615   0.00020911121  20.12777       18.657108      1.4706627     -1.8359696      18033.487    
    372000   0.99218678     0.0023323615  -0.0022387932   20.230029      18.756631      1.4733974     -1.8583687      18044.532    
    373000   1.045431       0.0023323615  -0.0015937952   20.263806      18.711341      1.552465      -1.7654618      18160.69     
    374000   0.93766979     0.0023323615  -0.00028426059  20.164168      18.771728      1.3924396     -1.7898624      18239.118    
    375000   1.0732799      0.0023323615   0.0027666144   20.100146      18.506325      1.5938206     -1.9634795      18073.543    
    376000   1.0711006      0.0023323615   0.0006215781   20.350492      18.759908      1.5905844     -1.6989172      17899.417    
    377000   1.1529772      0.0023323615  -0.00084789121  20.381016      18.668845      1.7121711     -1.8009842      18015.718    
    378000   0.97667473     0.0023323615   0.0040688515   20.12952       18.679158      1.450362      -1.9174532      18158.338    
    379000   1.0834316      0.0023323615  -0.00050199207  20.160428      18.551532      1.6088959     -1.8970324      18051.604    
    380000   0.94467254     0.0023323615   0.00029068008  20.341572      18.938733      1.4028387     -1.4513036      18035.527    
    381000   0.90624814     0.0023323615  -0.0014222296   19.985561      18.639782      1.3457785     -1.9001443      18027.184    
    382000   0.91185033     0.0023323615   0.00065244405  20.210895      18.856798      1.3540977     -1.6639687      18177.717    
    383000   0.95899161     0.0023323615   0.0012067834   20.007338      18.583235      1.4241025     -1.9140837      18227.227    
    384000   1.089492       0.0023323615  -0.0021056318   20.483275      18.865379      1.6178957     -1.7970736      18267.615    
    385000   1.0696941      0.0023323615  -0.0012609033   20.573532      18.985036      1.5884958     -1.5394014      18064.823    
    386000   1.0101941      0.0023323615  -0.0030815497   20.366036      18.865898      1.5001383     -1.6540974      18211.726    
    387000   0.86825918     0.0023323615  -0.0021548479   19.873502      18.584137      1.2893649     -1.8413756      18347.564    
    388000   0.91753218     0.0023323615   0.0012012667   20.300705      18.938169      1.3625353     -1.5346995      18599.101    
    389000   1.0256651      0.0023323615  -0.0026813396   20.393578      18.870465      1.5231127     -1.5758113      18559.154    
    390000   1.0019393      0.0023323615  -7.8751051e-05  20.524685      19.036805      1.4878799     -1.5162473      18489.29     
    391000   0.95106643     0.0023323615   0.001543987    20.268016      18.855683      1.4123336     -1.6872825      18512.87     
    392000   0.90960257     0.0023323615   0.00437452     20.080198      18.729438      1.3507598     -1.8242043      18384.596    
    393000   0.93192466     0.0023323615   0.0013634796   19.999395      18.615486      1.3839081     -1.9050935      18437.203    
    394000   0.91007457     0.0023323615   0.00023919563  19.669507      18.318046      1.3514607     -2.0686053      18526.092    
    395000   1.0826954      0.0023323615  -0.0043567766   20.408334      18.800531      1.6078026     -1.6760798      18479.667    
    396000   1.0181221      0.0023323615  -0.002452704    20.333464      18.821553      1.5119114     -1.7091422      18506.393    
    397000   1.159291       0.0023323615   0.0022003918   20.712827      18.99128       1.7215472     -1.5865552      18468.636    
    398000   0.98392362     0.0023323615   0.0018507639   20.398976      18.93785       1.4611266     -1.6470903      18299.593    
    399000   0.98449278     0.0023323615  -0.00018581192  20.384286      18.922315      1.4619718     -1.7591684      18314.296    
    400000   0.89341416     0.0023323615   0.001881888    20.089548      18.762828      1.32672       -1.6593978      18424.872    
    401000   0.85493269     0.0023323615   0.0002458316   20.404103      19.134528      1.269575      -1.4102946      18248.869    
    402000   0.93045292     0.0023323615  -0.001068064    20.372112      18.990389      1.3817226     -1.3980196      18337.469    
    403000   1.0335628      0.0023323615   0.0019427715   20.509839      18.974998      1.5348408     -1.5846783      18350.658    
    404000   1.0290822      0.0023323615  -0.0021682868   20.275271      18.747084      1.5281871     -1.7460315      18132.482    
    405000   0.86915235     0.0023323615   0.0021377862   20.10993       18.819239      1.2906912     -1.6185484      18057.679    
    406000   0.93658133     0.0023323615  -0.0016494633   20.617336      19.226513      1.3908233     -1.3505033      18244.195    
    407000   0.92705031     0.0023323615  -0.002464134    20.37805       19.00138       1.3766697     -1.5777372      18256.739    
    408000   1.1762034      0.0023323615   0.0050535352   20.586569      18.839907      1.746662      -1.7526943      18222.312    
    409000   1.0266988      0.0023323615  -0.00020191751  20.539209      19.014561      1.5246478     -1.5558886      18272.384    
    410000   1.0842035      0.0023323615   0.0012548003   20.562345      18.952303      1.6100422     -1.5167978      18324.629    
    411000   0.929974       0.0023323615   0.0016309952   20.361324      18.980313      1.3810114     -1.4954876      18318.316    
    412000   1.1141042      0.0023323615   0.0058925022   20.602075      18.94763       1.6544447     -1.5297552      18223.873    
    413000   1.0565099      0.0023323615   0.0008367585   20.280395      18.711477      1.5689172     -1.856713       18033.438    
    414000   0.92275025     0.0023323615  -0.0023320527   20.231447      18.861163      1.3702841     -1.673801       18149.77     
    415000   0.88307558     0.0023323615  -0.00049142713  20.165793      18.854425      1.3113672     -1.7102192      18305.244    
    416000   1.0045628      0.0023323615   0.0026318976   20.430601      18.938825      1.4917758     -1.5045567      18389.999    
    417000   1.0005873      0.0023323615  -0.0037757159   20.166594      18.680722      1.4858721     -1.7268963      18508.726    
    418000   1.088777       0.0023323615   0.0036301001   20.235464      18.61863       1.6168338     -1.8773424      18209.742    
    419000   0.91158324     0.0023323615   0.0022958421   20.061462      18.707761      1.3537011     -1.873283       18173.967    
    420000   0.95424379     0.0023323615  -0.0084355452   20.300154      18.883102      1.417052      -1.7549173      18146.156    
    421000   0.80515778     0.0023323615   0.0027520923   19.979718      18.784058      1.1956593     -1.7703338      18441.332    
    422000   1.0633675      0.0023323615   0.0023427622   20.37357       18.79447       1.5791007     -1.7638148      18364.737    
    423000   1.0627862      0.0023323615   0.0052587938   20.263097      18.684859      1.5782375     -1.8575509      18349.028    
    424000   1.1266237      0.0023323615   0.00010499316  20.370322      18.697286      1.6730362     -1.8567386      18356.077    
    425000   0.89781697     0.0023323615   0.0017491077   19.965579      18.632321      1.3332582     -1.8144753      18353.631    
    426000   0.97788728     0.0023323615   0.0023745717   20.267585      18.815422      1.4521626     -1.7703594      18210.699    
    427000   1.0269238      0.0023323615   0.0012362178   20.200143      18.675161      1.5249818     -1.7094958      18313.601    
    428000   1.1553821      0.0023323615   0.0032908025   20.48089       18.765147      1.7157424     -1.6681207      18209.526    
    429000   0.97364795     0.0023323615   0.00082544722  20.302724      18.856857      1.4458672     -1.7522981      18276.154    
    430000   0.93268532     0.0023323615   0.0004769548   20.270899      18.885861      1.3850377     -1.6609237      18110.712    
    431000   0.95228358     0.0023323615   0.0020310332   20.188185      18.774044      1.4141411     -1.9289093      18083.508    
    432000   1.1925505      0.0023323615  -0.0014703719   20.621094      18.850156      1.7709376     -1.7511142      18169.633    
    433000   0.83201902     0.0023323615  -0.0015137123   20.018217      18.782669      1.2355483     -1.8202266      18188.807    
    434000   0.93151008     0.0023323615  -0.001185139    20.035108      18.651815      1.3832925     -1.783227       18225.1      
    435000   0.87881126     0.0023323615   0.0014394628   20.079234      18.7742        1.3050347     -1.7581859      18219.957    
    436000   1.0238459      0.0023323615   5.8594567e-05  20.241854      18.721443      1.5204112     -1.8680475      18608.425    
    437000   0.89651249     0.0023323615  -0.0025605376   19.828803      18.497482      1.3313211     -2.0446095      18574.538    
    438000   1.0085142      0.0023323615   0.00061340249  20.309294      18.81165       1.4976436     -1.7391929      18660.962    
    439000   1.0297566      0.0023323615   0.0041953666   19.990428      18.461239      1.5291886     -2.047652       18606.289    
    440000   1.0148341      0.0023323615  -0.0015976379   20.277142      18.770114      1.5070287     -1.9848519      18518.145    
    441000   0.927527       0.0023323615  -0.0023389298   20.062714      18.685337      1.3773776     -1.7893478      18629.334    
    442000   0.9641959      0.0023323615  -0.0029113572   19.87764       18.445809      1.4318309     -2.0342423      18553.6      
    443000   0.9480994      0.0023323615  -0.0022806403   20.091484      18.683556      1.4079276     -1.9020886      18586.591    
    444000   1.0022039      0.0023323615  -0.00012365135  20.15826       18.669987      1.4882728     -1.8435326      18603.924    
    445000   0.99512374     0.0023323615   0.0005423134   20.198629      18.720871      1.4777588     -1.832305       18650.944    
    446000   0.98390131     0.0023323615  -0.00061741676  20.326008      18.864915      1.4610934     -1.7120218      18697.803    
    447000   1.0751911      0.0023323615   0.0030927403   20.502843      18.906184      1.5966588     -1.6060032      18239.231    
    448000   1.0293522      0.0023323615   0.0002110408   20.191017      18.662429      1.5285881     -1.8592276      18363.95     
    449000   0.84030656     0.0023323615   0.0037385344   19.868092      18.620237      1.2478552     -1.9333412      18264.453    
    450000   0.894496       0.0023323615  -0.0027003631   20.018497      18.69017       1.3283266     -1.8721784      18229.597    
    451000   0.97009405     0.0023323615  -0.00021266426  20.028938      18.588348      1.4405897     -1.8645775      18156.346    
    452000   1.0721397      0.0023323615  -0.00030029348  20.268428      18.6763        1.5921275     -1.7211164      18147.621    
    453000   0.998047       0.0023323615   0.0037938108   19.873876      18.391776      1.4820998     -2.0602489      18125.064    
    454000   0.88403176     0.0023323615   0.0010044893   20.284571      18.971784      1.3127872     -1.5823966      18323.024    
    455000   0.93813398     0.0023323615   0.0010294735   20.171567      18.778438      1.393129      -1.6416036      18624.088    
    456000   1.0363611      0.0023323615   0.0013473193   20.557424      19.018427      1.5389963     -1.5795601      18707.314    
    457000   1.0671023      0.0023323615  -0.0038050983   20.567095      18.982448      1.5846468     -1.7339057      18729.254    
    458000   1.1374173      0.0023323615  -0.0021212149   20.43478       18.745716      1.6890648     -1.7571968      18303.969    
    459000   0.9766888      0.0023323615   0.0027048922   20.438323      18.98794       1.4503829     -1.6418999      18061.547    
    460000   0.9064129      0.0023323615   0.00043009925  20.140234      18.794211      1.3460232     -1.6039783      18081.028    
    461000   0.94279181     0.0023323615  -0.001596722    20.29625       18.896204      1.4000458     -1.7107608      18293.284    
    462000   0.98327291     0.0023323615   0.0026767486   20.024685      18.564524      1.4601603     -1.9521212      18250.056    
    463000   0.97587382     0.0023323615   0.00058848278  20.325366      18.876194      1.4491726     -1.6819304      18097.678    
    464000   1.1098107      0.0023323615   0.0010515277   20.042267      18.394198      1.6480689     -2.0622054      18188.933    
    465000   0.82455324     0.0023323615   0.00066337069  20.09247       18.868009      1.2244616     -1.5975005      18252.546    
    466000   0.92205889     0.0023323615   0.0025134308   20.218365      18.849107      1.3692575     -1.5482702      18354.062    
    467000   0.95947133     0.0023323615  -0.0010862622   20.083342      18.658527      1.4248149     -1.9395564      18275.92     
    468000   1.0389179      0.0023323615   0.00089949747  20.19943       18.656637      1.5427931     -1.8495342      18198.749    
    469000   1.0644311      0.0023323615  -0.00084243887  20.298334      18.717654      1.5806802     -1.7981119      18230.523    
    470000   0.9316817      0.0023323615  -0.00023432196  20.340877      18.95733       1.3835473     -1.6046162      18207.985    
    471000   0.81525181     0.0023323615  -0.0023738054   19.777362      18.566713      1.2106489     -1.9693976      18205.833    
    472000   0.91201641     0.0023323615  -0.002157857    20.148107      18.793762      1.3543444     -1.7730802      18196.586    
    473000   1.01487        0.0023323615  -0.0014736853   20.2733        18.766218      1.5070819     -1.7591669      18180.508    
    474000   1.0582114      0.0023323615   0.00035038333  20.221549      18.650105      1.5714439     -1.8762306      18335.808    
    475000   0.96361461     0.0023323615  -0.0015730478   20.136326      18.705358      1.4309677     -1.9522905      18273.116    
    476000   0.99358015     0.0023323615  -0.0057737928   20.259431      18.783964      1.4754665     -1.8373527      18189.351    
    477000   1.0741759      0.0023323615   0.0036322928   20.629361      19.03421       1.5951512     -1.4885104      18183.892    
    478000   1.0616832      0.0023323615   0.00098632687  20.255922      18.679322      1.5765996     -1.9252911      18249.532    
    479000   0.96857606     0.0023323615   0.0015081694   20.176135      18.737799      1.4383354     -1.8617322      18052.156    
    480000   1.0384385      0.0023323615  -0.00056259821  20.469335      18.927254      1.5420811     -1.6679492      18179.912    
    481000   0.86024435     0.0023323615  -0.00191323     19.918647      18.641184      1.2774629     -1.8550386      18121.467    
    482000   0.98824848     0.0023323615   0.0036133158   20.043942      18.576393      1.467549      -1.8263536      18168.366    
    483000   0.9313257      0.0023323615   0.0016016709   20.060861      18.677842      1.3830187     -1.7656863      18103.827    
    484000   0.98604319     0.0023323615   0.0019333749   20.161793      18.697518      1.4642741     -1.8562517      18118.043    
    485000   1.0120144      0.0023323615   0.0035861135   20.250843      18.748002      1.5028413     -1.8107534      18216.755    
    486000   0.73616024     0.0023323615   0.00010766197  19.716521      18.623323      1.093198      -1.9589543      18047.909    
    487000   0.96075819     0.0023323615   0.0010894659   19.906406      18.47968       1.4267259     -1.9988743      18202.42     
    488000   0.923448       0.0023323615  -0.0010206496   20.073724      18.702404      1.3713203     -1.7953312      18069.895    
    489000   0.97826097     0.0023323615   0.00077970443  20.222948      18.770231      1.4527175     -1.6523816      18168.839    
    490000   0.95661418     0.0023323615  -0.0023398149   20.224432      18.80386       1.4205721     -1.7353802      18129.824    
    491000   0.98798345     0.0023323615   0.0031515074   20.020992      18.553837      1.4671554     -1.8685554      18265.94     
    492000   0.97230805     0.0023323615   0.005349869    20.357492      18.913615      1.4438775     -1.5765368      18218.657    
    493000   0.93321522     0.0023323615   0.0021986035   19.956189      18.570364      1.3858246     -1.8729706      18198.261    
    494000   1.1081491      0.0023323615   0.0015073549   19.989449      18.343847      1.6456015     -2.1420012      18353.387    
    495000   0.88396446     0.0023323615   0.0036278079   19.955754      18.643066      1.3126872     -1.8032775      18278.899    
    496000   0.9118693      0.0023323615  -0.0024782421   20.276576      18.92245       1.3541259     -1.6823099      18253.183    
    497000   0.86535801     0.0023323615   0.0002404896   20.151248      18.866192      1.2850566     -1.6041836      18250.48     
    498000   1.1112514      0.0023323615   0.001168058    20.646333      18.996125      1.6502083     -1.5072174      18242.158    
    499000   0.95247672     0.0023323615  -0.00087584274  20.561402      19.146974      1.4144279     -1.4311663      18296.933    
    500000   0.93417743     0.0023323615  -0.00092383184  20.343523      18.956269      1.3872535     -1.6394912      18130.355    
    501000   0.96774069     0.0023323615   0.0019051974   20.212146      18.775051      1.4370949     -1.6805184      18126.651    
    502000   1.2122689      0.0023323615   0.0019355672   20.347697      18.547478      1.8002194     -1.9032861      18225.59     
    503000   0.90642508     0.0023323615  -0.0012638393   20.035238      18.689197      1.3460412     -1.7546844      18322.298    
    504000   1.0680438      0.0023323615  -0.00097373898  20.531791      18.945746      1.586045      -1.6122915      18190.232    
    505000   0.94734031     0.0023323615   0.0033370772   20.132486      18.725686      1.4068004     -1.8118686      18124.254    
    506000   0.96302649     0.0023323615  -7.6734631e-05  19.997699      18.567605      1.4300943     -1.8759504      18143.521    
    507000   1.0028942      0.0023323615  -0.0018936761   20.011032      18.521734      1.4892979     -2.1026123      18368.908    
    508000   1.1807518      0.0023323615  -0.0014943426   20.258299      18.504883      1.7534164     -1.9817067      18515.002    
    509000   1.025479       0.0023323615  -0.0036174583   20.224882      18.702046      1.5228363     -1.8381472      18471.09     
    510000   1.0946828      0.0023323615   0.00077636626  20.243673      18.618069      1.6256039     -1.8854211      18464.967    
    511000   1.0513173      0.0023323615   0.0013293692   20.468969      18.907763      1.5612062     -1.6377128      18470.872    
    512000   0.91925391     0.0023323615  -0.002120269    20.259335      18.894243      1.3650921     -1.7064075      18467.861    
    513000   1.138791       0.0023323615   0.00026267163  20.344984      18.653879      1.6911046     -1.7789925      18528.616    
    514000   0.94968856     0.0023323615   0.00021582134  20.139737      18.72945       1.4102875     -1.8068317      18521.692    
    515000   0.91854684     0.0023323615   0.0015820715   20.255851      18.891809      1.3640421     -1.6968885      18461.176    
    516000   1.1166414      0.0023323615  -0.00039337181  20.511583      18.85337       1.6582124     -1.7156777      18413.217    
    517000   1.0318768      0.0023323615   0.00067206688  20.43367       18.901333      1.532337      -1.6155902      18495.111    
    518000   1.0323318      0.0023323615   0.0015933209   20.435182      18.90217       1.5330127     -1.5388866      18288.025    
    519000   0.82700902     0.0023323615  -0.0026604598   20.061214      18.833106      1.2281084     -1.7470772      18126.417    
    520000   1.0192764      0.0023323615   0.0011555988   19.97152       18.457895      1.5136254     -1.9328558      18108.458    
    521000   0.8703996      0.0023323615  -0.0001007736   20.086778      18.794235      1.2925434     -1.64688        18101.371    
    522000   0.9028623      0.0023323615  -0.0016525862   20.031877      18.691126      1.3407505     -1.8513009      18069.732    
    523000   1.0797108      0.0023323615  -0.0022735485   20.385832      18.782461      1.6033705     -1.6889386      18158.866    
    524000   1.067813       0.0023323615  -0.002987937    20.491706      18.906004      1.5857023     -1.5579004      18076.532    
    525000   0.91961908     0.0023323615   0.0012805488   20.136885      18.77125       1.3656343     -1.7222502      18190.908    
    526000   1.0988448      0.0023323615  -0.00071432871  20.341171      18.709386      1.6317845     -1.8521346      18202.443    
    527000   0.96294308     0.0023323615  -0.0023240391   20.218661      18.78869       1.4299705     -1.7323035      18329.66     
    528000   0.87252873     0.0023323615   0.0010336318   20.008671      18.712966      1.2957052     -1.7290288      18351.535    
    529000   0.91388672     0.0023323615  -1.3043882e-05  19.988363      18.631241      1.3571218     -1.894026       18369.79     
    530000   1.0095731      0.0023323615  -0.00035874593  19.999409      18.500193      1.4992161     -1.9204276      18269.31     
    531000   1.0577244      0.0023323615   0.0010657507   20.099888      18.529168      1.5707207     -1.8921135      18278.146    
    532000   1.0601841      0.0023323615   0.00079538702  19.859423      18.285049      1.5743734     -2.1629679      18302.344    
    533000   0.98604588     0.0023323615   0.0017446638   20.423128      18.95885       1.4642781     -1.7166556      18661.248    
    534000   1.0357829      0.0023323615  -0.0015699804   20.234775      18.696638      1.5381376     -1.8118155      18535.722    
    535000   1.0437934      0.0023323615  -0.0022780811   20.474059      18.924026      1.5500332     -1.560153       18423.89     
    536000   0.93604886     0.0023323615   0.0063107916   20.136935      18.746903      1.3900326     -1.8310503      18176.545    
    537000   0.89576407     0.0023323615  -0.0034319741   20.104892      18.774682      1.3302096     -1.7706726      18217.746    
    538000   0.90055744     0.0023323615  -0.0031164624   20.110245      18.772918      1.3373278     -1.8333386      18211.925    
    539000   1.1528282      0.0023323615   0.0013476764   20.309699      18.597749      1.71195       -1.8799982      18185.917    
    540000   1.0399129      0.0023323615  -0.0020941063   20.421753      18.877482      1.5442706     -1.808614       18160.928    
    541000   0.93489429     0.0023323615  -0.00038969884  20.39696       19.008642      1.388318      -1.5916806      18257.013    
    542000   0.95209315     0.0023323615  -0.0042205907   20.065063      18.651204      1.4138583     -1.8342239      18264.265    
    543000   1.126733       0.0023323615  -0.000824153    20.467406      18.794207      1.6731985     -1.8058562      18241.468    
    544000   1.1654249      0.0023323615   0.0026560286   20.567194      18.836538      1.7306559     -1.6097835      18376.544    
    545000   0.9950597      0.0023323615   0.0013663139   20.064138      18.586474      1.4776637     -2.0050126      18322.015    
    546000   0.96094593     0.0023323615   0.0014181196   20.006878      18.579873      1.4270047     -1.8705343      18116.507    
    547000   0.94218363     0.0023323615   0.00080742533  19.891267      18.492124      1.3991427     -1.9326875      18085.995    
    548000   0.94111828     0.0023323615  -0.0010405255   20.267646      18.870085      1.3975606     -1.5678039      18364.933    
    549000   1.0838259      0.0023323615  -0.003028988    20.339643      18.730162      1.6094814     -1.7617206      18299.663    
    550000   1.1316236      0.0023323615  -0.0035488485   20.377327      18.696866      1.6804611     -1.7679483      18209.766    
    551000   1.137292       0.0023323615  -0.0029695366   20.616429      18.92755       1.6888786     -1.529807       18299.469    
    552000   0.94275322     0.0023323615  -0.0024235847   20.164122      18.764133      1.3999885     -1.7000341      18215.102    
    553000   0.89289504     0.0023323615  -0.0052062299   20.393416      19.067466      1.3259491     -1.6125359      18153.503    
    554000   0.94885074     0.0023323615   0.0045425941   20.133821      18.724778      1.4090434     -1.6903399      18269.043    
    555000   0.99558394     0.0023323615   0.0032280171   20.218611      18.740169      1.4784421     -1.7001929      18327.381    
    556000   1.1453912      0.0023323615   0.00032128977  20.372042      18.671136      1.7009059     -1.7664271      18140.128    
    557000   1.0490736      0.0023323615   0.0027513205   20.322773      18.764898      1.5578743     -1.7909964      18278.504    
    558000   0.91764073     0.0023323615   0.0024622235   20.003864      18.641168      1.3626965     -1.8161702      18181.673    
    559000   0.99783766     0.0023323615   0.00035149125  20.144541      18.662752      1.4817889     -1.8711137      18205.813    
    560000   1.006543       0.0023323615  -0.0014046736   20.502002      19.007286      1.4947163     -1.5681987      18338.197    
    561000   1.1670952      0.0023323615   0.0019498311   20.705         18.971863      1.7331364     -1.5336219      18451.804    
    562000   1.0570566      0.0023323615   0.00090823616  20.085431      18.515702      1.5697291     -1.8420536      18361.838    
    563000   1.1997195      0.0023323615  -0.00074513463  20.353134      18.57155       1.7815834     -1.9204997      18141.582    
    564000   1.0374212      0.0023323615  -0.00074625666  20.344882      18.804312      1.5405705     -1.6064344      18088.04     
    565000   0.96069684     0.0023323615  -0.0022632536   19.945918      18.519283      1.4266348     -1.9189673      18127.941    
    566000   1.1998913      0.0023323615   0.00059966267  20.613002      18.831164      1.7818385     -1.7492041      18007.144    
    567000   0.95342437     0.0023323615  -0.0042481443   20.077931      18.662095      1.4158352     -1.9379056      18186.503    
    568000   1.0066346      0.0023323615   0.0041399189   20.159795      18.664943      1.4948524     -1.8970488      18165.059    
    569000   0.95181945     0.0023323615   0.0029231438   19.97065       18.557198      1.4134519     -1.8026825      18155.702    
    570000   1.191461       0.0023323615   5.1903877e-05  20.366173      18.596854      1.7693196     -1.8270143      18037.173    
    571000   1.0213602      0.0023323615  -0.003157217    20.065243      18.548524      1.5167199     -1.9867708      18038.356    
    572000   0.89459245     0.0023323615  -0.0011440829   19.930739      18.602269      1.3284698     -1.8532616      18039.409    
    573000   1.0623067      0.0023323615  -0.00033401577  20.349311      18.771785      1.5775255     -1.7066375      18301.475    
    574000   1.0210687      0.0023323615  -0.0038133001   20.290104      18.773817      1.516287      -1.7135987      18315.237    
    575000   0.93393537     0.0023323615   0.0027594731   19.854758      18.467864      1.386894      -2.0062394      18207.659    
    576000   1.104911       0.0023323615   0.0010410636   20.343553      18.70276       1.6407928     -1.7565217      18245.095    
    577000   0.92798564     0.0023323615  -0.00035417069  19.986025      18.607967      1.3780587     -1.8466194      18134.324    
    578000   0.97196573     0.0023323615   0.002261224    20.198684      18.755315      1.4433691     -1.7938807      18175.337    
    579000   0.8925287      0.0023323615   0.00098721548  20.093399      18.767994      1.3254051     -1.7759962      18138.565    
    580000   1.0715383      0.0023323615  -0.0016410949   20.302904      18.711669      1.5912344     -1.800158       18056.215    
    581000   1.0419005      0.0023323615  -0.001449437    20.30373       18.756508      1.5472223     -1.6939309      18006.085    
    582000   0.94229284     0.0023323615  -0.00078336065  20.148099      18.748794      1.3993049     -1.6709386      18132.377    
    583000   0.99069724     0.0023323615  -0.0022550801   20.311849      18.840663      1.4711854     -1.5719237      18086.64     
    584000   1.0140606      0.0023323615  -0.0020444644   20.038447      18.532567      1.5058801     -1.9419725      18048.656    
    585000   1.0157979      0.0023323615   0.0014132642   20.379819      18.871359      1.5084598     -1.6253605      18208.52     
    586000   0.96804435     0.0023323615   0.00076256417  20.165414      18.727868      1.4375459     -1.8109324      18243.238    
    587000   0.94680409     0.0023323615   0.00069672428  19.8329        18.426896      1.4060041     -2.1014962      18261.272    
    588000   1.0227742      0.0023323615   0.00072706521  20.111576      18.592757      1.5188196     -1.8906509      18221.457    
    589000   0.9353222      0.0023323615  -0.001268544    20.080184      18.691231      1.3889535     -1.7920822      18363.071    
    590000   0.97257101     0.0023323615  -0.0047030442   20.296846      18.852578      1.4442679     -1.6246235      18381.458    
    591000   0.97170011     0.0023323615  -0.0012142158   20.243253      18.800279      1.4429747     -1.7425755      18166.921    
    592000   1.0671307      0.0023323615  -0.0016581891   20.070741      18.486052      1.5846891     -2.0421956      18149.654    
    593000   1.027847       0.0023323615   0.0003327011   19.912922      18.386569      1.5263528     -2.0700411      18244.065    
    594000   0.96789821     0.0023323615   0.0038475929   20.252495      18.815167      1.4373288     -1.716091       18139.34     
    595000   1.0050676      0.0023323615  -0.0017403242   20.102301      18.609775      1.4925255     -1.9809752      18070.32     
    596000   1.0147386      0.0023323615   0.0022523035   20.175056      18.668169      1.5068869     -1.8483416      18075.474    
    597000   0.89470696     0.0023323615   0.0046901935   19.991663      18.663024      1.3286398     -1.7923537      18155.303    
    598000   1.0182855      0.0023323615  -0.0021265125   20.174938      18.662784      1.512154      -1.8773791      18226.821    
    599000   1.0482353      0.0023323615  -0.0024879131   20.535178      18.978548      1.5566294     -1.5294705      18390.023    
    600000   1.0627405      0.0023323615  -0.0013984884   20.532449      18.954279      1.5781696     -1.47713        18344.152    
    601000   0.89909856     0.0023323615  -0.0011643797   20.532366      19.197205      1.3351614     -1.4124592      18468.233    
    602000   0.94835728     0.0023323615   0.0042491523   20.356488      18.948177      1.4083106     -1.5138177      18369.651    
    603000   1.0995013      0.0023323615  -0.0020381908   20.543455      18.910695      1.6327594     -1.6010427      18330.575    
    604000   1.065374       0.0023323615  -0.0019052492   20.46908       18.886999      1.5820804     -1.752831       18294.038    
    605000   0.96928809     0.0023323615   0.0023426467   20.313976      18.874584      1.4393928     -1.6160742      18255.554    
    606000   1.0144918      0.0023323615   0.0021547413   20.302932      18.796412      1.5065203     -1.7452713      18129.413    
    607000   0.98786759     0.0023323615  -0.0040556022   20.259897      18.792914      1.4669834     -1.6771059      18044.412    
    608000   0.96318616     0.0023323615  -0.00052142241  20.004035      18.573704      1.4303315     -1.9406986      18177.465    
    609000   0.89270628     0.0023323615   0.0033949845   19.648421      18.322752      1.3256688     -2.1958703      18134.472    
    610000   0.95078941     0.0023323615   0.0059507518   20.260033      18.84811       1.4119223     -1.6919748      18204.126    
    611000   0.98865397     0.0023323615   0.001001601    20.227287      18.759136      1.4681511     -1.9087407      18271.517    
    612000   1.1597413      0.0023323615   0.0026980692   20.217468      18.495252      1.7222158     -1.9431746      18221.377    
    613000   0.88269399     0.0023323615  -0.0013293473   19.999746      18.688945      1.3108006     -1.8911218      18238.365    
    614000   0.84800888     0.0023323615  -0.0051559745   20.009629      18.750336      1.2592932     -1.732282       18173.712    
    615000   1.0508584      0.0023323615  -0.0023600803   20.534246      18.973722      1.5605247     -1.6118206      18197.834    
    616000   1.0312471      0.0023323615   0.0021147779   20.002023      18.470621      1.531402      -1.9751245      18206.437    
    617000   0.96523586     0.0023323615  -0.0031958849   20.278536      18.84516       1.4333753     -1.638707       18105.012    
    618000   1.010359       0.0023323615  -0.00056287992  20.305165      18.804782      1.5003831     -1.6816818      18191.349    
    619000   0.92662727     0.0023323615  -8.7282462e-05  20.360166      18.984125      1.3760415     -1.5733758      18197.067    
    620000   1.0269221      0.0023323615  -0.0038588216   20.239814      18.714835      1.5249793     -1.776441       18274.578    
    621000   1.0378572      0.0023323615   0.0012564815   20.17426       18.633042      1.541218      -1.8877327      18161.487    
    622000   1.0283814      0.0023323615   0.0054111025   20.151304      18.624157      1.5271464     -1.9449034      18122.181    
    623000   0.99077548     0.0023323615   0.0026078671   20.461901      18.990599      1.4713016     -1.6274128      18143.3      
    624000   1.0087399      0.0023323615   0.00045929951  20.303915      18.805936      1.4979787     -1.7440712      18126.015    
    625000   1.0158571      0.0023323615   0.00337714     20.279066      18.770518      1.5085478     -1.8099646      18220.283    
    626000   0.85546763     0.0023323615   0.0035259544   20.020094      18.749724      1.2703694     -1.8032502      18228.851    
    627000   1.1215456      0.0023323615   0.0024418859   20.590004      18.924509      1.6654952     -1.6070248      18128.876    
    628000   1.0995348      0.0023323615   0.001852369    20.266039      18.63323       1.6328092     -1.9224741      18053.56     
    629000   0.99971686     0.0023323615  -0.0032129984   20.262615      18.778035      1.4845795     -1.7545073      17967.319    
    630000   0.95208309     0.0023323615   0.00081617163  19.991868      18.578025      1.4138434     -1.9387233      18222.135    
    631000   0.91151846     0.0023323615  -0.002562931    20.129168      18.775564      1.3536049     -1.7802693      18130.473    
    632000   0.92128128     0.0023323615   4.5315786e-05  20.089695      18.721593      1.3681027     -1.9253866      18183.561    
    633000   0.92571322     0.0023323615   0.001258207    20.036079      18.661395      1.3746841     -1.7933177      18186.169    
    634000   1.0362072      0.0023323615   0.0013817163   20.01358       18.474812      1.5387676     -2.0990949      18168.955    
    635000   1.0728907      0.0023323615  -2.2274302e-05  20.103265      18.510023      1.5932427     -1.9675559      18038.496    
    636000   1.0220462      0.0023323615   0.0039949246   20.031488      18.513749      1.5177387     -1.9939851      18127.012    
    637000   0.9673981      0.0023323615  -0.0018319853   20.079655      18.643069      1.4365862     -1.8066445      18143.059    
    638000   0.89540517     0.0023323615  -0.0022271014   19.723467      18.393791      1.3296767     -1.9885015      18206.042    
    639000   0.9871815      0.0023323615  -0.00055773617  20.279874      18.81391       1.4659645     -1.8063564      18225.703    
    640000   1.0851323      0.0023323615   0.0034657177   20.262342      18.65092       1.6114215     -1.9067642      18251.728    
    641000   0.88427655     0.0023323615  -0.00068060841  19.941817      18.628666      1.3131507     -1.9850817      18647.149    
    642000   0.91957844     0.0023323615  -6.7103382e-05  19.841883      18.476309      1.365574      -2.0008184      18633.131    
    643000   0.9555807      0.0023323615   0.00081629281  20.090481      18.671444      1.4190373     -1.8148945      18713.035    
    644000   0.99370821     0.0023323615   0.0012063048   20.11306       18.637404      1.4756567     -1.904405       18599.763    
    645000   0.97095901     0.0023323615   0.0016129114   20.222064      18.78019       1.4418741     -1.6963826      18655.124    
    646000   0.93520647     0.0023323615  -0.0010989121   20.132527      18.743745      1.3887816     -1.8663009      18497.455    
    647000   1.0198916      0.0023323615   0.0030744682   20.161949      18.64741       1.514539      -1.919134       18170.112    
    648000   1.0622859      0.0023323615  -0.0039078834   20.661201      19.083707      1.5774946     -1.4424553      18091.951    
    649000   1.1213385      0.0023323615   0.0040232166   20.226554      18.561366      1.6651876     -1.9240919      18176.254    
    650000   1.0212615      0.0023323615   0.00010842015  20.296949      18.780376      1.5165733     -1.7594356      18166.554    
    651000   1.1657502      0.0023323615   0.0010350333   20.506933      18.775794      1.7311391     -1.6892449      18246.503    
    652000   0.91712827     0.0023323615   0.00093801095  19.967242      18.605307      1.3619355     -1.9383136      18230.32     
    653000   0.92007805     0.0023323615   0.0023520177   20.100874      18.734558      1.3663159     -1.7265312      18260.273    
    654000   1.0185501      0.0023323615  -0.0021328923   20.199408      18.686861      1.5125469     -1.8316988      18130.121    
    655000   0.8670057      0.0023323615   0.0022588366   19.948653      18.661149      1.2875035     -1.8066067      18148.951    
    656000   1.0112295      0.0023323615  -0.001217037    20.040846      18.53917       1.5016759     -1.9721221      18066.432    
    657000   0.95820962     0.0023323615   0.0007985384   19.912237      18.489296      1.4229413     -1.921547       18110.784    
    658000   0.96200592     0.0023323615  -0.002500092    20.018015      18.589436      1.4285788     -1.9535938      18087.269    
    659000   0.95261417     0.0023323615   0.0016810475   20.012401      18.597769      1.414632      -1.909402       18119.855    
    660000   1.0534121      0.0023323615   8.018506e-05   20.434099      18.869782      1.564317      -1.7674147      18021.17     
    661000   0.84598172     0.0023323615  -0.0010642319   20.129348      18.873066      1.2562829     -1.692515       18120.467    
    662000   1.0742333      0.0023323615  -0.0056668019   20.510271      18.915035      1.5952364     -1.6947504      18089.551    
    663000   0.95889283     0.0023323615   0.0077191485   20.135135      18.711179      1.4239559     -1.8199284      18119.927    
    664000   1.150456       0.0023323615  -0.0015048906   20.553776      18.845349      1.7084272     -1.6530092      18058.473    
    665000   1.0050009      0.0023323615   0.00016576587  20.506309      19.013883      1.4924263     -1.6580997      18109.388    
    666000   1.0401375      0.0023323615  -0.00059598569  20.405161      18.860557      1.5446041     -1.808314       18072.32     
    667000   1.0074396      0.0023323615  -0.00065223988  20.253339      18.757291      1.4960478     -1.7843822      18061.436    
    668000   0.92718626     0.0023323615  -0.001116292    20.026395      18.649524      1.3768716     -1.8261438      18090.718    
    669000   0.96927203     0.0023323615   0.00012179202  20.168942      18.729573      1.439369      -1.7419356      18269.32     
    670000   0.98787457     0.0023323615   0.0018819499   20.404357      18.937364      1.4669937     -1.5680309      18275.652    
    671000   1.0472868      0.0023323615   0.0019978722   20.378087      18.822866      1.5552209     -1.7416225      18308.142    
    672000   0.83773427     0.0023323615  -0.0044990979   20.204223      18.960188      1.2440354     -1.4787404      18253.434    
    673000   1.0311471      0.0023323615   0.0040392071   20.253741      18.722487      1.5312535     -1.6820958      18223.214    
    674000   1.0527665      0.0023323615  -0.0024857446   20.25353       18.690171      1.5633582     -1.8124912      18194.198    
    675000   0.95006143     0.0023323615   0.0031451175   20.126321      18.71548       1.4108412     -1.7303126      18160.023    
    676000   0.91461969     0.0023323615  -0.00014497679  19.968695      18.610485      1.3582102     -1.9023415      18286.22     
    677000   0.9780929      0.0023323615  -0.0017482127   20.598508      19.14604       1.452468      -1.4046598      18248.304    
    678000   0.95112582     0.0023323615  -0.00049198399  20.552726      19.140304      1.4124218     -1.3159839      18248.721    
    679000   0.92770616     0.0023323615  -0.002057743    20.133604      18.755961      1.3776436     -1.7259285      18115.416    
    680000   1.1251132      0.0023323615  -0.0029560203   20.059771      18.388978      1.6707931     -2.0413094      18125.554    
    681000   0.88480286     0.0023323615  -0.0034274686   20.101973      18.788041      1.3139322     -1.87617        18101.089    
    682000   1.0144339      0.0023323615   0.0035672704   20.125403      18.618969      1.5064343     -1.9437253      18102.451    
    683000   1.0686427      0.0023323615  -0.0020501012   20.210226      18.623292      1.5869344     -1.9108862      17986.655    
    684000   1.0655598      0.0023323615   0.00031301954  20.434995      18.852639      1.5823564     -1.674391       18057.998    
    685000   0.88870407     0.0023323615   0.0025144943   19.992361      18.672635      1.3197256     -1.8412325      17906.206    
    686000   1.047738       0.0023323615   0.0026880082   19.977627      18.421736      1.5558909     -2.0769555      18141.516    
    687000   1.074534       0.0023323615  -0.006589859    20.438808      18.843125      1.595683      -1.7767441      18101.256    
    688000   1.0062597      0.0023323615   0.00098780413  20.003366      18.50907       1.4942957     -1.911335       18044.457    
    689000   1.0414221      0.0023323615  -0.0007770001   20.357211      18.8107        1.5465118     -1.758911       17949.032    
    690000   0.94394115     0.0023323615   0.00088702948  20.14775       18.745998      1.4017526     -1.8481138      18046.741    
    691000   1.0482326      0.0023323615  -0.0039623855   20.449936      18.89331       1.5566255     -1.6797181      17984.892    
    692000   0.90787623     0.0023323615   0.0033062828   20.036446      18.68825       1.3481962     -1.7005073      18110.232    
    693000   1.016159       0.0023323615  -0.00021000721  20.063513      18.554517      1.5089961     -1.9664064      18029.467    
    694000   0.86800138     0.0023323615   0.0011569585   20.023157      18.734175      1.2889821     -1.7940101      18008.772    
    695000   0.91738746     0.0023323615  -0.0010903074   20.02749       18.66517       1.3623204     -1.9056084      17970.845    
    696000   1.0856799      0.0023323615  -0.0022851258   20.30862       18.696386      1.6122347     -1.9396263      18009.529    
    697000   0.91437979     0.0023323615  -0.006529038    20.129521      18.771667      1.357854      -1.82504        17980.476    
    698000   0.93730597     0.0023323615  -0.00051698321  20.168183      18.776284      1.3918994     -1.8769045      18012.613    
    699000   0.97863143     0.0023323615   0.0012793568   20.509192      19.055924      1.4532677     -1.5373591      18025.149    
    700000   0.91551133     0.0023323615  -0.00031288432  20.244662      18.885128      1.3595343     -1.5701274      18217.17     
    701000   1.0073325      0.0023323615   0.00088990191  20.153621      18.657732      1.4958888     -1.7842414      18296.815    
    702000   0.87095392     0.0023323615   0.0024782069   20.191102      18.897736      1.2933666     -1.6444583      18165.407    
    703000   0.92298633     0.0023323615   0.004579732    20.164236      18.793601      1.3706347     -1.6616216      18268.434    
    704000   0.94594272     0.0023323615  -0.00030866448  20.350349      18.945624      1.4047249     -1.5957427      18166.974    
    705000   0.9698753      0.0023323615  -0.00088586969  20.375563      18.935298      1.4402648     -1.5751326      18283.871    
    706000   1.1376214      0.0023323615  -0.00093781059  20.704092      19.014725      1.6893678     -1.5988251      18484.068    
    707000   1.0193309      0.0023323615  -0.00059187311  20.255142      18.741436      1.5137064     -1.7807411      18147.591    
    708000   1.0552581      0.0023323615   0.0027110612   20.181143      18.614084      1.5670583     -1.8370154      18109.276    
    709000   0.88212415     0.0023323615   0.0014846486   19.96304       18.653085      1.3099544     -1.8004719      18099.677    
    710000   1.0109418      0.0023323615   0.00083872167  20.440396      18.939147      1.5012486     -1.7001519      18603.729    
    711000   0.93979106     0.0023323615   0.00037844592  19.971515      18.575925      1.3955897     -1.9779879      18659.239    
    712000   0.9764341      0.0023323615  -0.00083504577  20.186443      18.736438      1.4500046     -1.8569723      18636.763    
    713000   1.0509679      0.0023323615  -0.0058497571   20.4788        18.918113      1.5606873     -1.5669449      18565.465    
    714000   0.90715428     0.0023323615   0.0010551949   20.115983      18.768859      1.3471241     -1.8004833      18640.042    
    715000   1.1867096      0.0023323615  -0.0013034142   19.95168       18.189417      1.7622638     -2.3201148      18581.394    
    716000   0.99180074     0.0023323615  -0.0013219161   19.94394       18.471116      1.4728241     -2.1170868      18619.586    
    717000   0.84593058     0.0023323615  -0.00070545265  19.714643      18.458436      1.2562069     -1.98754        18527.808    
    718000   0.88528193     0.0023323615  -0.0039325467   20.029241      18.714597      1.3146437     -1.869896       18198.404    
    719000   0.97867758     0.0023323615  -0.0017814824   20.379965      18.926629      1.4533362     -1.7378264      18466.313    
    720000   0.9638637      0.0023323615   0.0027131217   20.217622      18.786285      1.4313376     -1.7938545      18483.63     
    721000   0.99344802     0.0023323615  -0.00077277693  20.171848      18.696578      1.4752703     -1.8832966      18217.855    
    722000   0.87853065     0.0023323615   0.0025574051   20.04388       18.739261      1.304618      -1.7947503      18084.992    
    723000   1.0174127      0.0023323615   0.0030193266   20.105774      18.594917      1.5108578     -1.8748494      17941.976    
    724000   0.99791448     0.0023323615   0.0065695819   20.211472      18.729569      1.481903      -1.8740021      18112.565    
    725000   0.93896556     0.0023323615  -0.0014403851   19.994126      18.599762      1.3943639     -1.7664777      17972.787    
    726000   0.97395433     0.0023323615  -0.00083320303  19.890425      18.444103      1.4463222     -2.0196932      17977.879    
    727000   1.0381827      0.0023323615   0.00099075787  20.240821      18.69912       1.5417013     -1.7690721      18007.635    
    728000   1.0128604      0.0023323615  -0.00065687941  20.452977      18.94888       1.5040976     -1.6725367      18058.26     
    729000   0.98480737     0.0023323615  -0.00070156627  20.069827      18.607388      1.4624389     -1.7823094      18195.319    
    730000   1.0546902      0.0023323615   0.0040339814   20.238549      18.672334      1.5662149     -1.8155041      17916.218    
    731000   1.0528457      0.0023323615   0.002733331    20.363003      18.799528      1.5634759     -1.7091275      17845.13     
    732000   1.0499943      0.0023323615   0.0028886199   20.292422      18.73318       1.5592415     -1.689088       17914.291    
    733000   0.98258047     0.0023323615   0.0017363276   20.272348      18.813216      1.459132      -1.8156757      18143.02     
    734000   0.94678075     0.0023323615  -0.002226136    20.197126      18.791156      1.4059694     -1.7053149      18084.33     
    735000   1.0863985      0.0023323615   0.00097667426  20.101265      18.487963      1.6133017     -2.007109       18224.841    
    736000   0.94596053     0.0023323615  -0.0031240217   20.244925      18.840174      1.4047514     -1.804025       18045.612    
    737000   0.92726368     0.0023323615  -0.0020486405   20.109601      18.732614      1.3769866     -1.8043233      18005.526    
    738000   0.96594837     0.0023323615  -2.9149381e-05  20.055623      18.62119       1.4344333     -1.8834945      17985.592    
    739000   0.98801051     0.0023323615  -0.0014525076   19.999175      18.53198       1.4671956     -1.9527602      18070.805    
    740000   0.91809304     0.0023323615  -0.0011592079   20.413917      19.050549      1.3633682     -1.5557156      18153.47     
    741000   0.98666847     0.0023323615  -0.0035263859   20.055411      18.590209      1.4652027     -1.8104602      18230.147    
    742000   1.0102171      0.0023323615   0.0017317623   20.150629      18.650457      1.5001725     -1.8511983      18083.062    
    743000   1.0962002      0.0023323615   0.0025518551   20.375479      18.747622      1.6278573     -1.7494018      17969.225    
    744000   0.92184183     0.0023323615   1.8892786e-05  20.20196       18.833025      1.3689351     -1.8073894      17942.292    
    745000   0.96111133     0.0023323615   0.00057394329  20.611292      19.184041      1.4272503     -1.4593717      17975.218    
    746000   1.0238346      0.0023323615   0.00015873114  20.403788      18.883393      1.5203944     -1.6452094      18188.204    
    747000   1.0217205      0.0023323615  -0.001022087    20.47252       18.955265      1.517255      -1.611959       18128.448    
    748000   1.0155108      0.0023323615   0.0002426501   20.102862      18.594828      1.5080336     -1.8735787      17989.618    
    749000   0.93412536     0.0023323615  -0.00065855618  20.248608      18.861432      1.3871762     -1.8261051      18048.755    
    750000   0.91282699     0.0023323615   0.0024116823   19.804509      18.448961      1.3555481     -2.0062702      18181.127    
    751000   1.0177782      0.0023323615  -0.001539597    20.45985       18.94845       1.5114007     -1.5979373      18169.537    
    752000   1.0818347      0.0023323615   0.0042541802   20.251243      18.644718      1.6065245     -1.8400711      18217.034    
    753000   1.1365861      0.0023323615   0.0033229143   20.298719      18.610889      1.6878303     -1.9265533      18201.122    
    754000   0.84722636     0.0023323615  -0.0039220473   19.814327      18.556196      1.2581311     -1.8670341      18031.49     
    755000   1.0998066      0.0023323615  -0.0024791076   20.494853      18.86164       1.6332127     -1.6583674      17995.94     
    756000   0.93194576     0.0023323615  -0.0020819413   20.406096      19.022157      1.3839394     -1.514756       18092.279    
    757000   0.98691014     0.0023323615  -0.00028552666  20.329318      18.863756      1.4655616     -1.5957099      18143.465    
    758000   1.0485192      0.0023323615  -0.0006706177   20.203275      18.646224      1.5570511     -1.8180611      17987.962    
    759000   1.035502       0.0023323615   0.0034629421   20.565499      19.027778      1.5377204     -1.509854       18048.298    
    760000   0.9389753      0.0023323615  -0.0010544023   20.536444      19.142066      1.3943783     -1.3652027      18682.223    
    761000   0.99304362     0.0023323615  -0.0051083855   19.982499      18.507829      1.4746698     -1.9645384      18867.901    
    762000   0.99480425     0.0023323615   0.0020085808   20.220143      18.742859      1.4772843     -1.5973092      18028.103    
    763000   1.170917       0.0023323615  -0.0010842255   20.659378      18.920567      1.7388118     -1.5545183      17784.773    
    764000   0.93400466     0.0023323615   0.00086154388  20.019063      18.632066      1.3869969     -1.7658819      17851.082    
    765000   0.97214149     0.0023323615  -0.0023651718   20.163217      18.719587      1.4436301     -1.7848241      17903.659    
    766000   0.90262684     0.0023323615  -0.0032254779   20.385918      19.045517      1.3404009     -1.5516572      17944.092    
    767000   0.89260501     0.0023323615   0.0021779699   20.483743      19.158225      1.3255184     -1.4522484      17940.86     
    768000   1.1606918      0.0023323615  -0.0031019185   20.56311       18.839482      1.7236274     -1.6587219      17986.863    
    769000   0.9191422      0.0023323615  -0.0019059628   19.830527      18.4656        1.3649262     -1.9849029      18020.148    
    770000   0.90238055     0.0023323615   0.00038698958  20.074491      18.734456      1.3400351     -1.8000921      18053.119    
    771000   1.1060902      0.0023323615   0.00032882916  20.649771      19.007227      1.6425439     -1.5413424      18184.078    
    772000   0.98094056     0.0023323615  -0.0024419707   20.358108      18.901412      1.4566967     -1.6480078      18123.758    
    773000   0.98767438     0.0023323615  -0.0018446257   20.286607      18.819911      1.4666965     -1.766657       18077.019    
    774000   0.97353837     0.0023323615  -0.002056258    20.26899       18.823285      1.4457045     -1.6652627      18054.611    
    775000   0.97378724     0.0023323615  -0.00025917198  20.219896      18.773822      1.446074      -1.645047       18026.852    
    776000   0.97625476     0.0023323615   0.001424247    20.170447      18.720709      1.4497383     -1.709809       17951.353    
    777000   1.0274926      0.0023323615   0.0016743527   20.25368       18.727854      1.5258266     -1.8982498      17878.523    
    778000   1.0354606      0.0023323615   0.00054235211  20.151787      18.614128      1.537659      -1.9740397      17791.748    
    779000   0.95496147     0.0023323615  -0.0021337246   20.163536      18.745418      1.4181178     -1.9193888      17940.995    
    780000   1.0476819      0.0023323615   0.0012117133   20.304733      18.748925      1.5558077     -1.7027546      17823.735    
    781000   0.99696739     0.0023323615  -0.0024909271   20.504606      19.02411       1.4804966     -1.5125861      17932.647    
    782000   0.94087155     0.0023323615  -0.0011189732   20.266755      18.869561      1.3971942     -1.7415593      17990.189    
    783000   0.87726649     0.0023323615   0.0013321155   19.971111      18.66837       1.3027407     -1.8148955      17875.593    
    784000   0.99829724     0.0023323615  -0.00047059975  20.30009       18.817618      1.4824714     -1.668428       17952.202    
    785000   0.90439548     0.0023323615  -0.0031966305   20.164814      18.821787      1.3430273     -1.651766       17845.615    
    786000   0.85398381     0.0023323615   0.0024340938   20.053717      18.785551      1.268166      -1.7409895      17944.95     
    787000   1.0251112      0.0023323615   0.007600214    20.321076      18.798786      1.5222902     -1.6322119      18048.829    
    788000   1.0310359      0.0023323615   0.0016760752   20.530636      18.999547      1.5310884     -1.4873076      18189.576    
    789000   1.1836995      0.0023323615  -0.0048665953   20.757399      18.999605      1.7577938     -1.6814237      18055.572    
    790000   1.0292989      0.0023323615   0.0029912112   20.456516      18.928007      1.5285089     -1.5417869      18045.668    
    791000   0.9224762      0.0023323615  -0.001925135    20.348404      18.978527      1.3698772     -1.512605       18037.362    
    792000   1.1112314      0.0023323615   0.00033850342  20.685179      19.035001      1.6501787     -1.4399414      18009.214    
    793000   1.0582426      0.0023323615  -0.00057400424  20.465444      18.893954      1.5714902     -1.6908973      18060.528    
    794000   0.89092902     0.0023323615   0.0017634014   19.946576      18.623546      1.3230296     -1.9559191      17774.439    
    795000   1.0168095      0.0023323615  -0.0025030631   19.957934      18.447972      1.5099621     -2.0070109      17977.779    
    796000   1.0920423      0.0023323615   0.00081955075  20.273587      18.651905      1.6216828     -1.8008306      18072.349    
    797000   0.95956194     0.0023323615  -0.0027473136   20.216995      18.792046      1.4249495     -1.7122495      17971.881    
    798000   0.98729981     0.0023323615   0.0027330953   20.179243      18.713103      1.4661402     -1.6887249      17976.671    
    799000   0.98757412     0.0023323615  -0.00096049039  20.760619      19.294071      1.4665476     -1.3723781      18103.364    
    800000   1.1031727      0.0023323615  -0.004535459    20.396091      18.757879      1.6382115     -1.8866246      18371.761    
    801000   1.1916953      0.0023323615   0.00044842509  20.410975      18.641307      1.7696675     -1.9124552      18297.57     
    802000   0.92880751     0.0023323615  -0.00053563049  20.194656      18.815376      1.3792792     -1.6610519      18216.685    
    803000   0.96226023     0.0023323615   0.00038468608  20.237116      18.808159      1.4289564     -1.6817694      18050.511    
    804000   1.1078528      0.0023323615   0.00026380501  20.196775      18.551613      1.6451614     -2.0803941      18112.861    
    805000   1.1102813      0.0023323615  -0.0022743561   20.630284      18.981516      1.6487677     -1.4869081      18257.153    
    806000   1.0223163      0.0023323615   0.0039913275   20.289589      18.771449      1.5181397     -1.8031093      18243.205    
    807000   0.94948174     0.0023323615  -0.0028374222   19.892938      18.482958      1.4099804     -2.0186849      18244.425    
    808000   0.79922204     0.0023323615  -0.0035240815   19.723488      18.536643      1.1868447     -2.0402916      18207.218    
    809000   1.0690214      0.0023323615  -0.0025578015   20.016049      18.428552      1.5874968     -2.0109352      18103.246    
    810000   0.97030853     0.0023323615  -1.2220589e-05  20.018978      18.57807       1.4409082     -1.8970911      18205.178    
    811000   0.96428977     0.0023323615   0.00046626327  20.053292      18.621322      1.4319703     -1.8292617      18221.291    
    812000   1.0386584      0.0023323615  -0.0027574541   20.41771       18.875302      1.5424077     -1.6080545      18265.83     
    813000   1.0523307      0.0023323615   0.0023197656   20.437728      18.875017      1.562711      -1.7261175      18209.443    
    814000   0.92748796     0.0023323615  -0.0022097133   20.212098      18.834778      1.3773196     -1.6624837      18245.609    
    815000   0.92274966     0.0023323615   0.0037048234   20.195947      18.825664      1.3702832     -1.7835411      18262.685    
    816000   0.88482986     0.0023323615   0.002098058    20.262693      18.94872       1.3139723     -1.5568377      18125.265    
    817000   1.0107419      0.0023323615   0.0011923963   20.333661      18.832709      1.5009517     -1.6428258      17993.721    
    818000   1.1589881      0.0023323615   0.0016774073   20.272921      18.551823      1.7210973     -1.8649396      17924.393    
    819000   1.0388533      0.0023323615  -0.0039290244   20.170243      18.627546      1.5426971     -1.9496827      18081.238    
    820000   0.95381616     0.0023323615  -0.0042795046   19.927274      18.510857      1.416417      -1.9359187      18003.146    
    821000   0.80882286     0.0023323615  -0.0025023139   19.710767      18.509665      1.201102      -2.1025507      17918.958    
    822000   0.88596963     0.0023323615  -0.0052208653   19.801382      18.485718      1.3156649     -1.9645014      17876.89     
    823000   0.89193405     0.0023323615   0.0019397003   20.001346      18.676824      1.3245221     -1.7563301      17833.55     
    824000   0.97564255     0.0023323615   0.0015585578   20.273421      18.824592      1.4488292     -1.6047773      17930.392    
    825000   0.94503576     0.0023323615   0.0028956995   20.122742      18.719364      1.4033781     -1.8486436      17933.256    
    826000   0.95279456     0.0023323615  -0.0067157942   20.137773      18.722873      1.4148999     -1.8377771      18020.506    
    827000   1.1321404      0.0023323615   9.9165046e-05  20.312126      18.630898      1.6812285     -1.7737326      18091.489    
    828000   0.9686994      0.0023323615   0.0011898377   20.149604      18.711085      1.4385186     -1.8055909      18089.102    
    829000   0.90407738     0.0023323615   0.00097480758  20.190125      18.84757       1.3425549     -1.8365455      18107.039    
    830000   0.986021       0.0023323615   0.0021212187   19.950037      18.485796      1.4642412     -1.9330559      18081.552    
    831000   0.95010307     0.0023323615   0.0039276662   20.224016      18.813113      1.4109031     -1.6582939      18051.271    
    832000   1.0050686      0.0023323615  -0.0012797031   20.297251      18.804724      1.4925269     -1.7186736      17978.854    
    833000   0.93651429     0.0023323615  -0.00024996145  20.380144      18.98942       1.3907237     -1.6952161      18053.726    
    834000   1.0195436      0.0023323615   0.0015033057   20.234267      18.720245      1.5140223     -1.6969226      17966.307    
    835000   1.0148322      0.0023323615   0.0023668385   19.908719      18.401693      1.5070258     -2.0011943      17825.256    
    836000   1.1203628      0.0023323615   0.0031983103   20.251129      18.587391      1.6637388     -1.813113       17798.366    
    837000   0.87495527     0.0023323615  -0.0017270875   20.143687      18.844379      1.2993086     -1.6461852      17969.878    
    838000   1.0814891      0.0023323615  -0.0059421768   20.662528      19.056517      1.6060113     -1.4562402      17997.689    
    839000   0.85523747     0.0023323615   0.00093734912  20.166419      18.896391      1.2700276     -1.5759555      18139.844    
    840000   1.0260201      0.0023323615  -0.00078729496  20.274582      18.750942      1.5236399     -1.6466479      18041.062    
    841000   0.94706357     0.0023323615  -0.0025404494   20.237367      18.830977      1.4063894     -1.6469774      17955.971    
    842000   1.0793945      0.0023323615  -0.0039771356   20.600604      18.997703      1.6029009     -1.5006299      18065.355    
    843000   1.0011028      0.0023323615  -6.0709455e-05  20.127952      18.641315      1.4866377     -1.8827423      18006.832    
    844000   1.0690772      0.0023323615   0.0044124037   20.001638      18.414058      1.5875796     -2.0479238      17885.231    
    845000   1.1171159      0.0023323615  -0.0003946235   20.777777      19.11886       1.6589171     -1.5577076      17923.907    
    846000   1.0089885      0.0023323615  -0.00083618732  20.219374      18.721026      1.4983479     -1.8141565      17955.473    
    847000   0.8971027      0.0023323615  -0.00097134971  20.215077      18.88288       1.3321975     -1.5493557      17953.042    
    848000   0.96878419     0.0023323615  -0.00059288953  20.267395      18.82875       1.4386445     -1.6826714      18058.136    
    849000   0.84035643     0.0023323615  -0.0014642951   20.035131      18.787201      1.2479293     -1.7167986      18010.975    
    850000   0.86326862     0.0023323615  -0.0023303789   19.995338      18.713384      1.2819539     -1.7649693      18044.252    
    851000   1.0246932      0.0023323615  -0.000544579    20.531545      19.009875      1.5216694     -1.4190896      17947.886    
    852000   1.0174898      0.0023323615   0.0006359297   20.14384       18.632867      1.5109724     -1.9509797      17935.022    
    853000   0.94714274     0.0023323615  -0.00054477393  19.929628      18.523121      1.406507      -1.9520548      18002.396    
    854000   1.0313083      0.0023323615   0.001545527    20.321521      18.790028      1.5314929     -1.7940645      18031.532    
    855000   1.0030983      0.0023323615   0.00036489849  20.699645      19.210044      1.489601      -1.4800171      17965.502    
    856000   1.0240253      0.0023323615  -0.00067891377  20.209804      18.689126      1.5206775     -1.7950896      17871.34     
    857000   1.0345065      0.0023323615   0.00082020311  20.524777      18.988535      1.5362421     -1.617686       17837.135    
    858000   0.95989897     0.0023323615   0.00075728675  20.483547      19.058097      1.42545       -1.493604       17888.289    
    859000   0.98734891     0.0023323615   0.0016394246   20.245725      18.779512      1.4662131     -1.6940557      17969.418    
    860000   0.88474166     0.0023323615  -0.0014443114   20.117939      18.804097      1.3138414     -1.6805108      18059.803    
    861000   1.0292659      0.0023323615  -0.0013891082   19.995892      18.467432      1.5284598     -1.864002       17982.352    
    862000   0.97108576     0.0023323615  -0.0031773785   19.883234      18.441172      1.4420624     -1.9976917      17788.406    
    863000   1.0351201      0.0023323615  -0.0028825886   20.144416      18.607263      1.5371534     -1.9059715      17956.83     
    864000   1.0046069      0.0023323615  -0.0029610285   20.374471      18.88263       1.4918412     -1.6470176      17902.297    
    865000   1.0688943      0.0023323615   0.0019374982   20.525677      18.938369      1.587308      -1.6659427      17799.369    
    866000   1.0764721      0.0023323615   0.0048434701   20.491316      18.892754      1.5985611     -1.6403383      17935.441    
    867000   1.1189963      0.0023323615   0.0028630946   20.492594      18.830884      1.6617096     -1.6944792      18085.46     
    868000   1.0337282      0.0023323615  -0.0012620716   20.134006      18.59892       1.5350864     -1.9013102      18002.525    
    869000   1.0656451      0.0023323615  -0.0066879273   20.189584      18.607101      1.582483      -1.8818267      18031.47     
    870000   0.82272357     0.0023323615   0.0022040194   19.938931      18.717186      1.2217445     -1.732347       17930.605    
    871000   0.93116721     0.0023323615   0.0016760474   19.827812      18.445028      1.3827833     -2.1018306      17864.939    
    872000   0.84796548     0.0023323615  -0.0024342332   20.334441      19.075212      1.2592287     -1.4825786      18119.816    
    873000   0.98223216     0.0023323615  -0.0024386502   20.004231      18.545616      1.4586148     -1.8626432      18218.344    
    874000   0.97720644     0.0023323615   0.0016959046   20.323081      18.87193       1.4511516     -1.6159443      18043.227    
    875000   0.95177383     0.0023323615   0.003930165    20.280668      18.867284      1.4133841     -1.6713806      17936.52     
    876000   1.2937178      0.0023323615  -0.0046130206   20.879754      18.958583      1.921171      -1.6326706      18121.977    
    877000   1.0861548      0.0023323615  -0.0023260081   20.290326      18.677386      1.6129398     -1.9183851      18103.653    
    878000   0.89788601     0.0023323615  -0.0015746365   20.099367      18.766007      1.3333607     -1.6895079      18014.411    
    879000   0.88962186     0.0023323615  -0.0003809685   20.100802      18.779713      1.3210885     -1.8080192      17915.234    
    880000   1.0247888      0.0023323615   0.0037463749   20.24704       18.725228      1.5218114     -1.9050854      17907.369    
    881000   1.1670319      0.0023323615   0.0025141964   20.289915      18.556872      1.7330424     -1.9592784      18161.17     
    882000   0.95424368     0.0023323615   0.0016634681   20.019655      18.602603      1.4170519     -1.8826471      18230.063    
    883000   0.95153181     0.0023323615  -0.0040566314   19.81291       18.399885      1.4130247     -2.0793107      18195.913    
    884000   0.97058052     0.0023323615   0.0027352533   20.296817      18.855505      1.4413121     -1.6401192      18209.094    
    885000   0.96743765     0.0023323615  -0.00061410481  20.350192      18.913547      1.4366449     -1.721962       18359.829    
    886000   1.0394732      0.0023323615   0.0037994954   20.463078      18.919461      1.5436177     -1.6236435      18291.933    
    887000   1.0102591      0.0023323615  -0.0032176558   20.235954      18.735719      1.5002348     -1.7890625      18293.861    
    888000   0.97201702     0.0023323615   0.0026472212   20.333997      18.890551      1.4434453     -1.6527279      18130.674    
    889000   0.98709579     0.0023323615   0.0018759973   20.341608      18.875771      1.4658372     -1.6473834      17977.552    
    890000   0.96980516     0.0023323615   0.0019116683   20.469177      19.029016      1.4401607     -1.5479211      18265.84     
    891000   0.93090582     0.0023323615   0.0036871713   20.340556      18.958161      1.3823951     -1.5500788      18297.57     
    892000   1.0351783      0.0023323615  -0.00082693361  20.242457      18.705217      1.5372398     -1.7589581      18259.762    
    893000   1.0015417      0.0023323615   0.00029723868  20.138952      18.651662      1.4872895     -1.835412       17944.095    
    894000   1.0003544      0.0023323615   0.00051435541  20.29353       18.808004      1.4855264     -1.6398241      17835.073    
    895000   1.1994152      0.0023323615  -0.0011606235   20.902153      19.121021      1.7811315     -1.3448676      18011.836    
    896000   1.1256084      0.0023323615  -0.001390659    20.444845      18.773317      1.6715284     -1.7837914      18033.298    
    897000   1.0906801      0.0023323615  -0.0027445157   20.51657       18.89691       1.6196599     -1.6079948      17941.07     
    898000   0.89531128     0.0023323615  -0.00040184626  20.34185       19.012313      1.3295373     -1.5907122      17763.621    
    899000   1.1395942      0.0023323615   0.00025937974  20.400209      18.707912      1.6922974     -1.7710541      17820.196    
    900000   1.054379       0.0023323615   0.0028643568   20.102878      18.537125      1.5657528     -1.9606957      17922.143    
    901000   1.0219002      0.0023323615  -0.0057734883   20.278717      18.761195      1.5175218     -1.7300431      17891.509    
    902000   1.1397362      0.0023323615  -0.0029991185   20.153429      18.46092       1.6925083     -1.9665693      17752.427    
    903000   1.0174037      0.0023323615  -0.0053506213   20.132632      18.621788      1.5108445     -1.9526237      18152.783    
    904000   0.92440364     0.0023323615  -0.00010912668  20.049899      18.677159      1.3727394     -1.7817455      18080.592    
    905000   1.1241101      0.0023323615   0.00092725345  20.884855      19.215551      1.6693036     -1.455426       18054.615    
    906000   0.96103179     0.0023323615   0.0041082753   20.448642      19.02151       1.4271322     -1.5774567      18144.48     
    907000   1.042868       0.0023323615   0.0040942598   20.445428      18.896769      1.548659      -1.7462258      18261.947    
    908000   1.1038552      0.0023323615   0.0053105995   20.243531      18.604306      1.639225      -1.9168807      18515.954    
    909000   1.0460758      0.0023323615   0.0024842851   20.453973      18.90055       1.5534225     -1.575869       18510.799    
    910000   1.1500362      0.0023323615   0.0016279927   20.600855      18.893051      1.7078038     -1.6382683      18116.419    
    911000   1.1071216      0.0023323615   0.0002126766   20.504082      18.860007      1.6440755     -1.6358733      18098.598    
    912000   0.86638739     0.0023323615  -8.8118198e-06  19.968859      18.682274      1.2865853     -1.8472831      18023.499    
    913000   0.86582831     0.0023323615  -0.0036931749   20.082576      18.796821      1.285755      -1.6370402      18536.916    
    914000   0.97735909     0.0023323615  -0.0025561771   20.236609      18.785231      1.4513783     -1.7083037      18607.499    
    915000   0.95666958     0.0023323615   0.0032232519   20.169958      18.749303      1.4206543     -1.7732875      18568.207    
    916000   1.0062269      0.0023323615  -0.00043320446  20.24531       18.751063      1.4942469     -1.8411156      18516.727    
    917000   0.9133643      0.0023323615   0.0023613164   20.041583      18.685237      1.356346      -1.8463996      18561.329    
    918000   1.0749929      0.0023323615  -0.0027095631   20.583806      18.987441      1.5963645     -1.5830005      18644.645    
    919000   1.0457148      0.0023323615   0.0012280503   20.329035      18.776149      1.5528864     -1.8121034      18615.304    
    920000   0.92437682     0.0023323615  -0.0040519007   19.922485      18.549785      1.3726996     -1.8970615      18558.906    
    921000   0.98105919     0.0023323615  -0.0017365992   20.371746      18.914873      1.4568729     -1.6138248      18573.082    
    922000   1.0971214      0.0023323615  -0.0029693963   20.317494      18.688269      1.6292253     -1.7777708      18467.164    
    923000   0.93063636     0.0023323615   0.0022327859   20.141487      18.759492      1.381995      -1.7678146      18484.835    
    924000   0.99325704     0.0023323615  -0.0056102061   20.429707      18.954721      1.4749867     -1.6629919      18429.21     
    925000   0.96412818     0.0023323615   0.00013753897  19.800995      18.369265      1.4317303     -2.1806999      18428.104    
    926000   1.0066059      0.0023323615  -0.00030749419  20.325116      18.830306      1.4948098     -1.7683996      18469.224    
    927000   1.0291553      0.0023323615   0.0047868836   20.294664      18.766369      1.5282956     -1.7517102      18572.249    
    928000   1.244559       0.0023323615  -0.0026952192   20.647235      18.799064      1.8481701     -1.7035042      18587.761    
    929000   1.0262603      0.0023323615  -0.00016447328  20.305651      18.781654      1.5239965     -1.8062818      18482.583    
    930000   0.86207983     0.0023323615   0.0034954608   19.983171      18.702982      1.2801885     -1.7693403      18541.479    
    931000   1.0836751      0.0023323615   0.0023046368   20.52556       18.916302      1.6092576     -1.5852382      18336.519    
    932000   1.064244       0.0023323615  -0.00073166916  20.392264      18.811862      1.5804024     -1.669053       18174.354    
    933000   0.91333368     0.0023323615   0.0033340494   20.181683      18.825382      1.3563005     -1.8104557      18150.469    
    934000   0.98335317     0.0023323615   0.00041646135  19.993705      18.533425      1.4602795     -2.026271       18134.861    
    935000   0.81670444     0.0023323615   0.0046010081   19.646432      18.433626      1.2128061     -2.1256979      18479.893    
    936000   1.0569324      0.0023323615  -0.00072179912  20.17636       18.606815      1.5695447     -1.9042901      18706.456    
    937000   1.0112056      0.0023323615  -0.00047687053  20.060113      18.558473      1.5016403     -2.058837       18677.314    
    938000   1.1803515      0.0023323615   0.00082296169  20.398693      18.645871      1.7528219     -1.8346026      18624.585    
    939000   1.1268176      0.0023323615   0.0011243138   20.31292       18.639596      1.6733242     -1.8961536      18753.521    
    940000   1.1702049      0.0023323615  -0.0019562051   20.238342      18.500588      1.7377543     -2.0115855      18571.575    
    941000   1.0049594      0.0023323615   0.0016846054   20.224378      18.732013      1.4923648     -1.8478536      18632.088    
    942000   0.93119793     0.0023323615  -0.0028980788   20.146915      18.764086      1.3828289     -1.672831       18716.074    
    943000   1.0561365      0.0023323615  -0.0028725907   20.400211      18.831848      1.5683627     -1.7560084      18439.771    
    944000   1.125014       0.0023323615   0.0023847444   20.624405      18.953759      1.6706457     -1.6908438      18411.407    
    945000   0.94633019     0.0023323615  -0.0027179742   20.153267      18.747966      1.4053003     -1.725325       18373.229    
    946000   1.0074327      0.0023323615   0.00051925405  20.266569      18.770531      1.4960376     -1.7077963      18401.635    
    947000   1.017209       0.0023323615   0.00020496216  20.455126      18.94457       1.5105554     -1.5718663      18286.876    
    948000   0.98906452     0.0023323615   0.0035468891   20.735011      19.26625       1.4687608     -1.4180572      18978.877    
    949000   0.93292008     0.0023323615   0.0003317308   20.341203      18.955816      1.3853863     -1.5496678      18881.871    
    950000   0.94474519     0.0023323615  -0.0036510183   20.471112      19.068166      1.4029466     -1.5621828      18673.149    
    951000   0.97499695     0.0023323615  -0.0023888381   20.282045      18.834175      1.4478705     -1.6447947      18410.565    
    952000   1.0130882      0.0023323615   4.3639143e-05  20.394494      18.890058      1.504436      -1.5422         18400.468    
    953000   1.1088463      0.0023323615   0.0051479308   20.611531      18.964894      1.6466367     -1.5467754      18190.845    
    954000   1.0056026      0.0023323615   0.00089604325  20.514241      19.020921      1.4933199     -1.5850825      18339.918    
    955000   1.0454743      0.0023323615  -0.0021130827   20.129147      18.576618      1.5525293     -1.9524317      18223.507    
    956000   0.97509466     0.0023323615   0.0030342534   20.254635      18.806619      1.4480156     -1.7463567      18110.157    
    957000   1.0698114      0.0023323615   0.00029766268  20.448432      18.859763      1.5886699     -1.6257365      18085.857    
    958000   0.98997935     0.0023323615  -0.00022060235  20.272258      18.802138      1.4701193     -1.6760836      18041.238    
    959000   1.0327624      0.0023323615   0.0029081915   20.046431      18.512779      1.5336521     -1.9996199      18224.478    
    960000   1.1159327      0.0023323615  -0.00068724287  20.339581      18.682422      1.65716       -1.8762796      18148.086    
    961000   1.161512       0.0023323615  -0.0030471237   20.588327      18.863481      1.7248453     -1.719163       18027.386    
    962000   0.93767889     0.0023323615  -0.0016803368   20.252849      18.860396      1.3924531     -1.6865089      18052.169    
    963000   0.86421131     0.0023323615   0.00023379974  19.937546      18.654193      1.2833538     -1.712509       18019.725    
    964000   1.0393697      0.0023323615   0.0029924594   20.242056      18.698592      1.5434641     -1.823638       18219.691    
    965000   1.1196195      0.0023323615   0.00029354801  20.403465      18.74083       1.662635      -1.8713738      18050.788    
    966000   1.0282835      0.0023323615  -0.00075425672  20.344219      18.817217      1.527001      -1.7397603      18027.989    
    967000   1.0583163      0.0023323615   0.00087390592  20.165862      18.594262      1.5715997     -1.8990281      18097.374    
    968000   1.0972359      0.0023323615   0.00038707615  20.452855      18.82346       1.6293953     -1.8652115      18079.433    
    969000   0.80681016     0.0023323615  -0.0011202926   19.710009      18.511896      1.1981131     -1.9038631      18112.927    
    970000   0.90660831     0.0023323615  -0.0035883941   20.005578      18.659265      1.3463133     -1.7472347      18221.344    
    971000   1.046637       0.0023323615   0.0015240985   20.524337      18.970081      1.5542559     -1.5460591      18234.623    
    972000   1.0662044      0.0023323615  -0.000425689    20.162561      18.579248      1.5833135     -1.8407083      18209.198    
    973000   0.9141124      0.0023323615  -0.0037556684   19.977399      18.619942      1.3574569     -1.9616859      18109.595    
    974000   0.94034075     0.0023323615  -0.0010128842   20.414121      19.017715      1.396406      -1.6333591      18147.575    
    975000   1.0316409      0.0023323615  -0.0035082651   20.32925       18.797263      1.5319868     -1.8416081      18140.827    
    976000   1.0424706      0.0023323615   0.00055202243  20.417547      18.869478      1.5480688     -1.6141452      18148.908    
    977000   1.0513636      0.0023323615  -0.0014260639   20.31543       18.754155      1.561275      -1.7830674      18278.517    
    978000   1.0800912      0.0023323615   0.0030488754   20.321967      18.718032      1.6039354     -1.6671512      18290.354    
    979000   0.99836586     0.0023323615  -0.0040810271   20.425023      18.942449      1.4825733     -1.6355991      18105.524    
    980000   1.1126687      0.0023323615  -0.0016015192   20.603116      18.950803      1.652313      -1.5278688      18113.572    
    981000   1.0268336      0.0023323615  -0.0014880195   20.346184      18.821336      1.5248479     -1.6874902      18298.647    
    982000   1.0376499      0.0023323615  -0.0046504871   20.719193      19.178283      1.5409101     -1.4468209      18130.18     
    983000   0.98249114     0.0023323615  -0.00061178719  20.485462      19.026463      1.4589993     -1.4600134      18350.256    
    984000   0.88858302     0.0023323615   0.00086927854  20.137982      18.818436      1.3195458     -1.725128       18443.938    
    985000   0.94512688     0.0023323615  -0.0047186817   20.165763      18.762249      1.4035134     -1.7979955      18239.628    
    986000   0.97331641     0.0023323615  -0.0037588764   20.029633      18.584258      1.4453749     -1.8588837      18056.6      
    987000   0.98322648     0.0023323615  -0.0030823787   20.456294      18.996203      1.4600913     -1.520995       18133.191    
    988000   0.95936772     0.0023323615  -0.0013625314   20.388838      18.964177      1.4246611     -1.5554016      18190.133    
    989000   1.0626757      0.0023323615  -0.0005464488   20.378147      18.800074      1.5780735     -1.7463578      18189.616    
    990000   1.109697       0.0023323615  -0.00098775797  20.58312       18.93522       1.6479001     -1.5705024      18133.698    
    991000   0.86579317     0.0023323615  -0.0014804679   20.081381      18.795678      1.2857029     -1.7285786      18228.352    
    992000   1.0148073      0.0023323615  -0.0039507027   20.491738      18.984749      1.5069889     -1.5283705      18154.17     
    993000   1.0411813      0.0023323615   0.0011805439   20.259754      18.713599      1.5461543     -1.7481673      18192.58     
    994000   0.90037073     0.0023323615   0.004043553    19.635048      18.297998      1.3370505     -2.0645123      17987.712    
    995000   0.99878257     0.0023323615   0.0059333884   20.072215      18.589022      1.4831921     -1.9753618      18030.408    
    996000   0.96778184     0.0023323615  -0.00073841049  20.096513      18.659357      1.437156      -1.8904779      18461.391    
    997000   0.94951918     0.0023323615  -0.00062429053  20.100249      18.690213      1.410036      -1.8413156      18367.069    
    998000   1.0684256      0.0023323615   0.0048051233   20.278686      18.692074      1.586612      -1.814939       18404.091    
    999000   1.0427312      0.0023323615   0.0022047946   20.285818      18.737362      1.5484558     -1.7320058      18422.584    
   1000000   1.087653       0.0023323615   0.0030440256   20.276233      18.661068      1.6151648     -1.7937538      18296.386    
Loop time of 54.87 on 1 procs for 1000000 steps with 100 atoms

Performance: 7873157.933 tau/day, 18224.903 timesteps/s
99.4% CPU use with 1 MPI tasks x 1 OpenMP threads

MPI task timing breakdown:
Section |  min time  |  avg time  |  max time  |%varavg| %total
---------------------------------------------------------------
Pair    | 45.881     | 45.881     | 45.881     |   0.0 | 83.62
Bond    | 1.3037     | 1.3037     | 1.3037     |   0.0 |  2.38
Neigh   | 3.7815     | 3.7815     | 3.7815     |   0.0 |  6.89
Comm    | 1.3664     | 1.3664     | 1.3664     |   0.0 |  2.49
Output  | 0.22814    | 0.22814    | 0.22814    |   0.0 |  0.42
Modify  | 1.9557     | 1.9557     | 1.9557     |   0.0 |  3.56
Other   |            | 0.3536     |            |       |  0.64

Nlocal:            100 ave         100 max         100 min
Histogram: 1 0 0 0 0 0 0 0 0 0
Nghost:            276 ave         276 max         276 min
Histogram: 1 0 0 0 0 0 0 0 0 0
Neighs:           4851 ave        4851 max        4851 min
Histogram: 1 0 0 0 0 0 0 0 0 0

Total # of neighbors = 4851
Ave neighs/atom = 48.51
Ave special neighs/atom = 1.98
Neighbor list builds = 97779
Dangerous builds = 79151

write_data      ${outputfile_assembled} nofix nocoeff
write_data      7_assembled.data nofix nocoeff
System init for write_data ...
Generated 0 of 6 mixed pair_coeff terms from geometric mixing rule

Total wall time: 0:00:56
