LAMMPS (23 Jun 2022 - Update 1)
OMP_NUM_THREADS environment is not set. Defaulting to 1 thread. (src/comm.cpp:98)
  using 1 OpenMP thread(s) per MPI task


variable        runtime equal 1000000
variable		subsample_rate equal 1000

variable		outputfile_created string '3_created.data'
variable		outputfile_relaxed string '5_relaxed.data'
variable		outputfile_selfasb string '6_a_self_assemble.lammpstrj'
variable		outputfile_trajlin string '6_b_trajlin.data'
variable		outputfile_assembled string '7_assembled.data'

units           lj
atom_style      full
dimension       3
boundary        p p p
timestep        0.005

read_data       ${outputfile_created}
read_data       3_created.data
Reading data file ...
  orthogonal box = (0 0 0) to (35 35 35)
  1 by 1 by 1 MPI processor grid
  reading atoms ...
  100 atoms
  reading velocities ...
  100 velocities
  scanning bonds ...
  1 = max bonds/atom
  reading bonds ...
  99 bonds
Finding 1-2 1-3 1-4 neighbors ...
  special bond factors lj:    0        0        0       
  special bond factors coul:  0        0        0       
     2 = max # of 1-2 neighbors
     2 = max # of 1-3 neighbors
     4 = max # of 1-4 neighbors
     6 = max # of special neighbors
  special bonds CPU = 0.000 seconds
  read_data CPU = 0.006 seconds

bond_style      fene
bond_coeff      * 30.0 1.5 1.0 1.0
special_bonds   fene
Finding 1-2 1-3 1-4 neighbors ...
  special bond factors lj:    0        1        1       
  special bond factors coul:  0        1        1       
     2 = max # of 1-2 neighbors
     6 = max # of special neighbors
  special bonds CPU = 0.000 seconds

variable        Temp equal 1.0
variable        velSeed equal 926458

velocity        all create ${Temp} ${velSeed}
velocity        all create 1 ${velSeed}
velocity        all create 1 926458

### Output
thermo_style    custom step temp density press etotal pe ke epair spcpu
thermo          1000

###########################################################################
# Soft relaxation (to remove overlaps of particles)
######################################################################

pair_style      soft 1.0
pair_coeff      * * 0.0
variable        prefactor equal ramp(0,300)
fix             rampSoft all adapt 1 pair soft a * * v_prefactor

minimize        0.0 1.0e-8 1000 100000
WARNING: Using 'neigh_modify every 1 delay 0 check yes' setting during minimization (src/min.cpp:187)
Generated 0 of 6 mixed pair_coeff terms from geometric mixing rule
Neighbor list info ...
  update every 1 steps, delay 0 steps, check yes
  max neighbors/atom: 2000, page size: 100000
  master list distance cutoff = 1.3
  ghost atom cutoff = 1.3
  binsize = 0.65, bins = 54 54 54
  1 neighbor lists, perpetual/occasional/extra = 1 0 0
  (1) pair soft, perpetual
      attributes: half, newton on
      pair build: half/bin/newton
      stencil: half/bin/3d
      bin: standard
WARNING: Communication cutoff 1.3 is shorter than a bond length based estimate of 1.7550000000000001. This may lead to errors. (src/comm.cpp:727)
Per MPI rank memory allocation (min/avg/max) = 8.346 | 8.346 | 8.346 Mbytes
   Step          Temp         Density         Press          TotEng         PotEng         KinEng         E_pair         S/CPU     
         0   1              0.0023323615  -0.0039617958   21.524174      20.039174      1.485          0              0            
       362   1              0.0023323615   0.0023090379   21.485548      20.000548      1.485          0              68987.782    
Loop time of 0.00525002 on 1 procs for 362 steps with 100 atoms

99.3% CPU use with 1 MPI tasks x 1 OpenMP threads

Minimization stats:
  Stopping criterion = force tolerance
  Energy initial, next-to-last, final = 
      20.0391741078675   20.0005480767337   20.0005480767337
  Force two-norm initial, final = 11.878422 7.9509778e-09
  Force max component initial, final = 6.6117807 1.3572772e-09
  Final line search alpha, max atom move = 1 1.3572772e-09
  Iterations, force evaluations = 362 738

MPI task timing breakdown:
Section |  min time  |  avg time  |  max time  |%varavg| %total
---------------------------------------------------------------
Pair    | 0.00021217 | 0.00021217 | 0.00021217 |   0.0 |  4.04
Bond    | 0.0023138  | 0.0023138  | 0.0023138  |   0.0 | 44.07
Neigh   | 0.0015455  | 0.0015455  | 0.0015455  |   0.0 | 29.44
Comm    | 0.00018305 | 0.00018305 | 0.00018305 |   0.0 |  3.49
Output  | 0          | 0          | 0          |   0.0 |  0.00
Modify  | 0          | 0          | 0          |   0.0 |  0.00
Other   |            | 0.0009955  |            |       | 18.96

Nlocal:            100 ave         100 max         100 min
Histogram: 1 0 0 0 0 0 0 0 0 0
Nghost:             20 ave          20 max          20 min
Histogram: 1 0 0 0 0 0 0 0 0 0
Neighs:              0 ave           0 max           0 min
Histogram: 1 0 0 0 0 0 0 0 0 0

Total # of neighbors = 0
Ave neighs/atom = 0
Ave special neighs/atom = 1.98
Neighbor list builds = 17
Dangerous builds = 0

fix             nvtSoft all nvt temp ${Temp} ${Temp} 0.5
fix             nvtSoft all nvt temp 1 ${Temp} 0.5
fix             nvtSoft all nvt temp 1 1 0.5
run             100000
Generated 0 of 6 mixed pair_coeff terms from geometric mixing rule
WARNING: Communication cutoff 1.3 is shorter than a bond length based estimate of 1.7550000000000001. This may lead to errors. (src/comm.cpp:727)
Per MPI rank memory allocation (min/avg/max) = 7.221 | 7.221 | 7.221 Mbytes
   Step          Temp         Density         Press          TotEng         PotEng         KinEng         E_pair         S/CPU     
       362   1              0.0023323615   0.0023090379   21.485548      20.000548      1.485          0              0            
      1000   0.90989032     0.0023323615  -0.0021940042   21.776974      20.425787      1.3511871      0.00036425437  75326.685    
      2000   0.86546688     0.0023323615   0.0034714157   21.677128      20.39191       1.2852183      0.0025814786   75327.989    
      3000   0.98199538     0.0023323615   0.0028144228   21.866132      20.407869      1.4582631      0.0011756043   73846.959    
      4000   1.004495       0.0023323615  -0.0014058211   21.945624      20.453949      1.4916751      0.011986179    74434.569    
      5000   1.1222705      0.0023323615   0.0044495116   21.986385      20.319813      1.6665718      0.0050317639   74963.193    
      6000   1.0538243      0.0023323615   0.0023957538   21.985713      20.420784      1.564929       0.012100514    75470.838    
      7000   1.0210598      0.0023323615  -0.00038820026  21.904665      20.388391      1.5162738      0              77123.973    
      8000   0.94819751     0.0023323615   0.0024943091   21.747889      20.339816      1.4080733      0              76632.205    
      9000   0.92364502     0.0023323615   0.0020053029   21.724166      20.352554      1.3716129      1.7780894e-05  76193.001    
     10000   0.86685188     0.0023323615   0.00078277366  21.644879      20.357604      1.287275       0.0098636418   75862.162    
     11000   1.0057103      0.0023323615   0.00010113276  21.8558        20.362321      1.4934798      0.020705341    76190.035    
     12000   0.97901664     0.0023323615  -0.0026996968   21.871206      20.417366      1.4538397      0.0052928539   76053.95     
     13000   0.97718436     0.0023323615  -6.1641422e-06  21.963706      20.512587      1.4511188      0.025022446    75541.955    
     14000   1.0530014      0.0023323615  -0.0009993112   21.947994      20.384287      1.5637071      0.0020860456   75173.331    
     15000   0.99094527     0.0023323615   0.0011068478   21.895146      20.423592      1.4715537      0.0015091113   76267.93     
     16000   0.91285091     0.0023323615  -0.00025424173  21.87524       20.519657      1.3555836      0.0047853639   75766.335    
     17000   0.82806978     0.0023323615  -0.00054698156  21.701984      20.472301      1.2296836      0              74275.322    
     18000   1.043278       0.0023323615  -6.6143919e-05  22.003299      20.454031      1.5492679      0.0034319132   73751.251    
     19000   1.0879249      0.0023323615  -0.0017804642   21.998985      20.383416      1.6155685      0.015376175    75089.806    
     20000   1.1144506      0.0023323615   0.0025198298   22.190904      20.535944      1.6549592      0              76301.571    
     21000   1.0427751      0.0023323615   0.0011345349   22.099492      20.550971      1.548521       0.00040047813  76513.951    
     22000   1.0586695      0.0023323615   0.0017882747   22.05673       20.484606      1.5721242      0              76402.967    
     23000   1.0058426      0.0023323615  -0.0055245362   21.954628      20.460951      1.4936763      0.0027619031   75510.462    
     24000   0.98273442     0.0023323615   0.0015147357   21.862067      20.402707      1.4593606      0              75640.07     
     25000   0.95835343     0.0023323615   0.0017808774   21.937761      20.514606      1.4231548      0.00020839942  75421.453    
     26000   0.93993778     0.0023323615  -0.0021777292   21.884849      20.489042      1.3958076      0.0088889834   74440.841    
     27000   0.9308188      0.0023323615  -0.00011239942  21.842252      20.459986      1.3822659      0.021612409    75296.51     
     28000   1.0149581      0.0023323615   0.0041996387   21.906846      20.399633      1.5072129      0.0064059022   75857.771    
     29000   0.92841138     0.0023323615  -2.5398808e-05  21.987185      20.608494      1.3786909      0.0046112484   75633.371    
     30000   1.021043       0.0023323615   0.001589158    22.097958      20.581709      1.5162489      0.016799508    73980.842    
     31000   1.0465985      0.0023323615  -0.0021744286   22.037917      20.483718      1.5541987      0.0057879149   76392.204    
     32000   0.98907108     0.0023323615  -0.0015558606   22.044089      20.575318      1.4687705      0.009448173    75705.878    
     33000   1.0918536      0.0023323615  -0.0025643847   22.039275      20.417873      1.6214025      0              74889.347    
     34000   0.99801543     0.0023323615   0.0016279766   21.932339      20.450286      1.4820529      0.017384617    76502.279    
     35000   1.0352271      0.0023323615  -0.0052971711   22.076004      20.538692      1.5373122      0.00010473809  75931.643    
     36000   1.1141579      0.0023323615  -0.00093279925  22.222491      20.567966      1.6545245      0.00033678641  75923.907    
     37000   1.0369415      0.0023323615   0.00013065175  22.217841      20.677983      1.5398581      0.013788831    75956.374    
     38000   1.0515596      0.0023323615   0.0021717558   22.070766      20.5092        1.561566       0.0067894678   76635.858    
     39000   1.0238495      0.0023323615   0.00026414509  22.040141      20.519725      1.5204165      0.00044464649  75661.285    
     40000   1.0749111      0.0023323615  -0.0026849368   22.039327      20.443084      1.596243       0.012651334    74064.725    
     41000   0.99070886     0.0023323615  -0.0030385564   22.03241       20.561207      1.4712027      0.00092855646  77198.176    
     42000   0.95315224     0.0023323615   0.0019788197   21.965263      20.549832      1.4154311      0.020233689    75686.534    
     43000   1.0644183      0.0023323615  -0.0011168725   22.287172      20.706511      1.5806611      0.039694129    75793.032    
     44000   1.0253747      0.0023323615  -0.006676522    22.066233      20.543552      1.5226814      0              72509.807    
     45000   0.94179556     0.0023323615  -0.0047206018   21.970644      20.572077      1.3985664      0.019869988    75349.933    
     46000   1.0083495      0.0023323615  -0.0017646918   21.972114      20.474715      1.497399       0.00026040605  75668.917    
     47000   0.98767959     0.0023323615  -0.00080218158  22.091674      20.62497       1.4667042      0.024266258    75205.737    
     48000   1.1473449      0.0023323615  -0.0025885687   22.080512      20.376705      1.7038072      0.00065962995  75792.624    
     49000   1.0679312      0.0023323615   0.0017688272   21.970482      20.384604      1.5858779      0.014142422    76634.266    
     50000   0.9581935      0.0023323615   0.0014398836   21.955202      20.532284      1.4229173      0.0055011948   75875.367    
     51000   1.0215759      0.0023323615  -0.00093292688  21.934681      20.41764       1.5170402      0              75980.429    
     52000   0.98079591     0.0023323615   0.0040701936   21.977374      20.520892      1.4564819      0.0020862422   73676.722    
     53000   1.0090927      0.0023323615   0.0013324753   22.095438      20.596935      1.4985027      0              74747.51     
     54000   0.97519627     0.0023323615   0.0013260734   22.070151      20.621984      1.4481665      0.026885444    77153.66     
     55000   1.1805087      0.0023323615  -0.001586238    22.424088      20.671033      1.7530554      0.024690954    76437.838    
     56000   0.98387121     0.0023323615   0.0037155145   22.104425      20.643376      1.4610487      0.01435493     75629.699    
     57000   1.0723812      0.0023323615  -0.0037916262   22.122726      20.53024       1.592486       0.013635549    76543.058    
     58000   1.0152349      0.0023323615   0.00021908047  22.082827      20.575203      1.5076238      0.00077375639  76329.987    
     59000   1.1424502      0.0023323615  -0.0052108657   22.30072       20.604182      1.6965385      0.013308184    77012.34     
     60000   1.0359703      0.0023323615  -0.00097887545  22.188218      20.649802      1.538416       0.00011346294  75794.698    
     61000   1.1646839      0.0023323615  -0.002085017    22.239945      20.51039       1.7295556      0.012918477    77562.737    
     62000   1.101836       0.0023323615   0.0010338878   22.171386      20.53516       1.6362265      0.001396566    75277.596    
     63000   0.96616435     0.0023323615   0.00097550571  21.903821      20.469067      1.4347541      0.013027663    76857.972    
     64000   1.0068907      0.0023323615  -0.0020278726   22.061652      20.566419      1.4952327      0.013750276    76419.344    
     65000   0.98723233     0.0023323615   0.0022441476   22.031073      20.565033      1.46604        0.0066686189   77021.73     
     66000   1.0273881      0.0023323615  -0.0003515278   22.183579      20.657908      1.5256713      0              75124.391    
     67000   0.96528212     0.0023323615  -0.00014822656  21.9396        20.506156      1.4334439      0.010365557    76862.291    
     68000   1.069702       0.0023323615   9.4754668e-05  22.081119      20.492611      1.5885075      0.00049153926  74301.144    
     69000   1.1229502      0.0023323615   0.0011504079   22.200329      20.532748      1.6675811      0.0068454249   77063.415    
     70000   1.0062775      0.0023323615  -0.00085311964  22.094021      20.599699      1.4943221      0.013222355    73093.367    
     71000   1.0906935      0.0023323615   0.00015260357  22.145362      20.525682      1.6196798      0.018338513    75399.065    
     72000   1.010401       0.0023323615  -6.0487182e-06  22.154105      20.653659      1.5004455      0.0013793953   74633.488    
     73000   1.1177599      0.0023323615  -0.0034084797   22.254435      20.594562      1.6598735      0.00011231735  76895.158    
     74000   0.9768019      0.0023323615   0.00016143893  22.07312       20.622569      1.4505508      0.0084515956   75620.822    
     75000   1.1360996      0.0023323615   0.002159116    22.161595      20.474487      1.6871079      0.0089909162   76528.736    
     76000   0.97379329     0.0023323615  -0.00068458621  21.988928      20.542845      1.446083       0              75532.46     
     77000   0.94876793     0.0023323615  -0.0016073976   21.923496      20.514575      1.4089204      0.017745108    75879.748    
     78000   0.83947996     0.0023323615  -0.00062768559  21.726727      20.480099      1.2466277      0.0054510099   76203.644    
     79000   1.0090614      0.0023323615  -0.00080262643  22.068192      20.569736      1.4984562      0.00023011166  74679.225    
     80000   1.1217643      0.0023323615  -0.0038177864   22.367902      20.702082      1.66582        0.032902439    76005.365    
     81000   1.0240158      0.0023323615   0.00023547123  22.031597      20.510933      1.5206635      0.0068767308   75789.982    
     82000   1.003236       0.0023323615  -0.0022802982   21.894199      20.404393      1.4898055      0.019136282    74656.21     
     83000   1.0554159      0.0023323615   0.004011718    22.104562      20.537269      1.5672927      0.0080869707   74777.693    
     84000   0.83527346     0.0023323615  -0.0034122221   21.874648      20.634267      1.2403811      0.0030083664   75800.972    
     85000   1.036002       0.0023323615   0.0013573923   21.962923      20.42446       1.5384629      0.015709144    76368.652    
     86000   0.9432002      0.0023323615  -0.0032183248   21.913588      20.512936      1.4006523      0.013730309    76463.25     
     87000   0.95566008     0.0023323615  -0.00049614223  21.91653       20.497375      1.4191552      0.0035862035   71110.565    
     88000   0.93373351     0.0023323615  -0.00097093893  21.870485      20.483891      1.3865943      0.0018212145   73953.76     
     89000   0.9684944      0.0023323615  -0.00047342045  21.973429      20.535215      1.4382142      0.00087524744  75696.182    
     90000   0.98293324     0.0023323615  -0.0032204602   22.050919      20.591263      1.4596559      0.015353933    76653.334    
     91000   1.0832827      0.0023323615   0.0048517083   22.11977       20.511095      1.6086749      0.0052867789   77464.674    
     92000   0.85899662     0.0023323615  -0.0013049519   21.765697      20.490087      1.27561        0.0024124001   76534.078    
     93000   0.96176266     0.0023323615  -4.4223672e-05  21.874222      20.446004      1.4282176      0.0045653365   77417.986    
     94000   0.96019503     0.0023323615   0.00024459347  21.944954      20.519064      1.4258896      3.8053462e-05  76446.03     
     95000   0.94702149     0.0023323615  -0.0033658915   21.86315       20.456823      1.4063269      0              76326.136    
     96000   0.91119348     0.0023323615  -0.0013197298   21.825018      20.471896      1.3531223      0.00043282989  74559.345    
     97000   1.0016687      0.0023323615  -0.0019514304   22.013024      20.525546      1.487478       0.0048369955   75368.884    
     98000   1.02143        0.0023323615  -0.0057874974   22.177965      20.661142      1.5168235      0              74357.989    
     99000   1.032786       0.0023323615   0.0018228259   21.975336      20.441649      1.5336871      7.1595851e-05  77630.361    
    100000   1.0594928      0.0023323615   0.0036169719   22.011024      20.437677      1.5733468      0.00032948157  75725.123    
    100362   1.1904942      0.0023323615  -0.00089755607  22.316856      20.548972      1.7678839      0.00063845255  75632.866    
Loop time of 1.32179 on 1 procs for 100000 steps with 100 atoms

Performance: 32683013.588 tau/day, 75655.124 timesteps/s
99.1% CPU use with 1 MPI tasks x 1 OpenMP threads

MPI task timing breakdown:
Section |  min time  |  avg time  |  max time  |%varavg| %total
---------------------------------------------------------------
Pair    | 0.050026   | 0.050026   | 0.050026   |   0.0 |  3.78
Bond    | 0.12602    | 0.12602    | 0.12602    |   0.0 |  9.53
Neigh   | 0.80739    | 0.80739    | 0.80739    |   0.0 | 61.08
Comm    | 0.055939   | 0.055939   | 0.055939   |   0.0 |  4.23
Output  | 0.0012343  | 0.0012343  | 0.0012343  |   0.0 |  0.09
Modify  | 0.2475     | 0.2475     | 0.2475     |   0.0 | 18.72
Other   |            | 0.03369    |            |       |  2.55

Nlocal:            100 ave         100 max         100 min
Histogram: 1 0 0 0 0 0 0 0 0 0
Nghost:             60 ave          60 max          60 min
Histogram: 1 0 0 0 0 0 0 0 0 0
Neighs:             36 ave          36 max          36 min
Histogram: 1 0 0 0 0 0 0 0 0 0

Total # of neighbors = 36
Ave neighs/atom = 0.36
Ave special neighs/atom = 1.98
Neighbor list builds = 9821
Dangerous builds = 8265
unfix           nvtSoft
unfix           rampSoft
reset_timestep  0

write_data      ${outputfile_relaxed}
write_data      5_relaxed.data
System init for write_data ...
Generated 0 of 6 mixed pair_coeff terms from geometric mixing rule
WARNING: Communication cutoff 1.3 is shorter than a bond length based estimate of 1.7550000000000001. This may lead to errors. (src/comm.cpp:727)
WARNING: Not all mixed pair coeffs generated from mixing. Use write_data with 'pair ij' option to store all pair coeffs. (src/write_data.cpp:309)

###########################################################################
# Full LJ with Coulomb
######################################################################

# Cutoffs and parameters:
# - Values: Marcel Verkade's Bachelor Thesis
# - Mapping to atom groups: Patrick Onck's paper
# - 1: aliphatic, 2: aromatic, 3: anion, 4: cation
# pair_style	lj/cut/coul/cut <lj_cut_global> <coul_cut_global>
# pair_coeff	<type_1>  <type_2>  <eps>  <sigma>  <r_cut_lj>  <r_cut_coul>

# Problem: Onck's model is much more complex, and Marcel has no sigma reported
# Using sigma=1 randomly

variable		glob_ljeps equal 1.0
variable		glob_ljsig 	equal 1.0
variable		glob_coulcut equal 10.0
variable		att_ljcut equal 2.50
variable		rep_ljcut equal 1.12

pair_style		lj/cut/coul/cut 						${att_ljcut} 	${glob_coulcut}
pair_style		lj/cut/coul/cut 						2.5 	${glob_coulcut}
pair_style		lj/cut/coul/cut 						2.5 	10
pair_coeff		1 1 	${glob_ljeps} 	${glob_ljsig}	${att_ljcut} 	${glob_coulcut}
pair_coeff		1 1 	1 	${glob_ljsig}	${att_ljcut} 	${glob_coulcut}
pair_coeff		1 1 	1 	1	${att_ljcut} 	${glob_coulcut}
pair_coeff		1 1 	1 	1	2.5 	${glob_coulcut}
pair_coeff		1 1 	1 	1	2.5 	10
pair_coeff		1 2 	${glob_ljeps} 	${glob_ljsig}	${att_ljcut} 	${glob_coulcut}
pair_coeff		1 2 	1 	${glob_ljsig}	${att_ljcut} 	${glob_coulcut}
pair_coeff		1 2 	1 	1	${att_ljcut} 	${glob_coulcut}
pair_coeff		1 2 	1 	1	2.5 	${glob_coulcut}
pair_coeff		1 2 	1 	1	2.5 	10
pair_coeff		1 3 	${glob_ljeps} 	${glob_ljsig}	${rep_ljcut} 	${glob_coulcut}
pair_coeff		1 3 	1 	${glob_ljsig}	${rep_ljcut} 	${glob_coulcut}
pair_coeff		1 3 	1 	1	${rep_ljcut} 	${glob_coulcut}
pair_coeff		1 3 	1 	1	1.12 	${glob_coulcut}
pair_coeff		1 3 	1 	1	1.12 	10
pair_coeff		1 4 	${glob_ljeps} 	${glob_ljsig}	${rep_ljcut} 	${glob_coulcut}
pair_coeff		1 4 	1 	${glob_ljsig}	${rep_ljcut} 	${glob_coulcut}
pair_coeff		1 4 	1 	1	${rep_ljcut} 	${glob_coulcut}
pair_coeff		1 4 	1 	1	1.12 	${glob_coulcut}
pair_coeff		1 4 	1 	1	1.12 	10
pair_coeff		2 2 	${glob_ljeps} 	${glob_ljsig}	${att_ljcut} 	${glob_coulcut}
pair_coeff		2 2 	1 	${glob_ljsig}	${att_ljcut} 	${glob_coulcut}
pair_coeff		2 2 	1 	1	${att_ljcut} 	${glob_coulcut}
pair_coeff		2 2 	1 	1	2.5 	${glob_coulcut}
pair_coeff		2 2 	1 	1	2.5 	10
pair_coeff		2 3 	${glob_ljeps} 	${glob_ljsig}	${rep_ljcut} 	${glob_coulcut}
pair_coeff		2 3 	1 	${glob_ljsig}	${rep_ljcut} 	${glob_coulcut}
pair_coeff		2 3 	1 	1	${rep_ljcut} 	${glob_coulcut}
pair_coeff		2 3 	1 	1	1.12 	${glob_coulcut}
pair_coeff		2 3 	1 	1	1.12 	10
pair_coeff		2 4 	${glob_ljeps} 	${glob_ljsig}	${att_ljcut} 	${glob_coulcut}
pair_coeff		2 4 	1 	${glob_ljsig}	${att_ljcut} 	${glob_coulcut}
pair_coeff		2 4 	1 	1	${att_ljcut} 	${glob_coulcut}
pair_coeff		2 4 	1 	1	2.5 	${glob_coulcut}
pair_coeff		2 4 	1 	1	2.5 	10
pair_coeff		3 3 	${glob_ljeps} 	${glob_ljsig}	${rep_ljcut} 	${glob_coulcut}
pair_coeff		3 3 	1 	${glob_ljsig}	${rep_ljcut} 	${glob_coulcut}
pair_coeff		3 3 	1 	1	${rep_ljcut} 	${glob_coulcut}
pair_coeff		3 3 	1 	1	1.12 	${glob_coulcut}
pair_coeff		3 3 	1 	1	1.12 	10
pair_coeff		3 4 	${glob_ljeps} 	${glob_ljsig}	${att_ljcut} 	${glob_coulcut}
pair_coeff		3 4 	1 	${glob_ljsig}	${att_ljcut} 	${glob_coulcut}
pair_coeff		3 4 	1 	1	${att_ljcut} 	${glob_coulcut}
pair_coeff		3 4 	1 	1	2.5 	${glob_coulcut}
pair_coeff		3 4 	1 	1	2.5 	10
pair_coeff		4 4 	${glob_ljeps} 	${glob_ljsig}	${rep_ljcut} 	${glob_coulcut}
pair_coeff		4 4 	1 	${glob_ljsig}	${rep_ljcut} 	${glob_coulcut}
pair_coeff		4 4 	1 	1	${rep_ljcut} 	${glob_coulcut}
pair_coeff		4 4 	1 	1	1.12 	${glob_coulcut}
pair_coeff		4 4 	1 	1	1.12 	10


fix             noDriftRot 	all momentum 10 linear 1 1 1 angular
fix             nvt1 		all nvt temp ${Temp} ${Temp} 0.5
fix             nvt1 		all nvt temp 1 ${Temp} 0.5
fix             nvt1 		all nvt temp 1 1 0.5

# dump          assemble 	all custom 1000 				${outputfile_selfasb} id type xu yu zu vx vy vz
dump            lindump 	all custom ${subsample_rate} 	${outputfile_trajlin} id type xu yu zu vx vy vz
dump            lindump 	all custom 1000 	${outputfile_trajlin} id type xu yu zu vx vy vz
dump            lindump 	all custom 1000 	6_b_trajlin.data id type xu yu zu vx vy vz

run             ${runtime}
run             1000000
Generated 0 of 6 mixed pair_coeff terms from geometric mixing rule
Neighbor list info ...
  update every 1 steps, delay 10 steps, check yes
  max neighbors/atom: 2000, page size: 100000
  master list distance cutoff = 10.3
  ghost atom cutoff = 10.3
  binsize = 5.15, bins = 7 7 7
  1 neighbor lists, perpetual/occasional/extra = 1 0 0
  (1) pair lj/cut/coul/cut, perpetual
      attributes: half, newton on
      pair build: half/bin/newton
      stencil: half/bin/3d
      bin: standard
Per MPI rank memory allocation (min/avg/max) = 7.712 | 7.712 | 7.712 Mbytes
   Step          Temp         Density         Press          TotEng         PotEng         KinEng         E_pair         S/CPU     
         0   1.1904942      0.0023323615  -0.0012633387   21.986592      20.218708      1.7678839     -0.32962571     0            
      1000   1.0285197      0.0023323615   0.0016643181   21.420955      19.893603      1.5273517     -0.54383085     33330.148    
      2000   0.99710538     0.0023323615  -0.0011281708   21.355706      19.875005      1.4807015     -0.56351272     30527.746    
      3000   0.98131846     0.0023323615   0.0029706988   21.011349      19.554091      1.4572579     -0.86810028     26338.753    
      4000   1.0697306      0.0023323615  -0.0037325347   21.302287      19.713737      1.5885499     -0.84328547     20992.24     
      5000   1.0118226      0.0023323615   0.0035081785   20.906602      19.404045      1.5025565     -1.2179186      19115.688    
      6000   1.0675757      0.0023323615  -0.00053344076  21.114684      19.529334      1.5853499     -0.96975421     18734.242    
      7000   0.98470103     0.0023323615  -0.00047563364  21.140322      19.678041      1.462281      -0.86472428     18456.244    
      8000   0.83523552     0.0023323615   0.0025124689   20.903248      19.662924      1.2403247     -0.87011417     18761.963    
      9000   0.95882043     0.0023323615   0.0026274712   20.80254       19.378692      1.4238483     -1.1097406      18761.11     
     10000   0.86478626     0.0023323615  -0.00050388058  20.514211      19.230003      1.2842076     -1.1879159      18675.287    
     11000   1.1145903      0.0023323615  -0.0013738003   21.224812      19.569646      1.6551665     -1.0006725      18624.81     
     12000   0.92140098     0.0023323615   0.0019145976   20.625908      19.257627      1.3682805     -1.2168062      18608.528    
     13000   0.92258313     0.0023323615  -0.0021564503   20.691343      19.321307      1.370036      -1.170033       18699.687    
     14000   0.93927652     0.0023323615   0.00099860501  20.904899      19.510073      1.3948256     -1.1457163      18632.031    
     15000   1.1494812      0.0023323615   0.0006584145   21.118693      19.411713      1.7069796     -1.084099       18641.106    
     16000   1.0400559      0.0023323615  -0.0027574351   20.985407      19.440924      1.5444831     -1.0409631      18667.508    
     17000   1.0335767      0.0023323615  -0.00050959484  21.138902      19.604041      1.5348614     -0.91031337     18773.429    
     18000   0.94158153     0.0023323615  -0.004550301    21.068223      19.669974      1.3982486     -1.0216779      18904.36     
     19000   1.0847822      0.0023323615  -0.001056951    21.187926      19.577024      1.6109016     -1.0684777      18899.717    
     20000   1.0724304      0.0023323615  -0.0012191228   21.073834      19.481275      1.5925592     -1.0846176      18902.534    
     21000   1.035099       0.0023323615  -0.0010386675   21.277721      19.740599      1.5371221     -0.88048665     18714.655    
     22000   1.0539182      0.0023323615   0.0015934462   21.12965       19.564582      1.5650685     -0.96188272     18794.473    
     23000   0.86780849     0.0023323615   0.00084829816  20.787943      19.499248      1.2886956     -1.0226228      18667.637    
     24000   0.94604476     0.0023323615  -0.0036261985   20.877163      19.472287      1.4048765     -0.9515057      18711.848    
     25000   0.86843406     0.0023323615  -0.0031525391   21.100661      19.811036      1.2896246     -0.77449219     18832.629    
     26000   1.2490121      0.0023323615  -0.0011496441   21.399562      19.544779      1.8547829     -0.99957507     18962.999    
     27000   0.93388027     0.0023323615  -0.00067353106  20.922671      19.535859      1.3868122     -0.98279646     18727.665    
     28000   1.0337498      0.0023323615   0.0018230802   21.103284      19.568166      1.5351184     -0.97487596     18853.154    
     29000   1.0027115      0.0023323615   0.00019694465  20.979643      19.490616      1.4890266     -1.0546286      18776.95     
     30000   0.99667679     0.0023323615  -0.004677006    21.184832      19.704767      1.480065      -0.87886358     18797.127    
     31000   1.0235681      0.0023323615   0.0018039639   21.03332       19.513321      1.5199987     -1.0684722      18970.792    
     32000   0.9123684      0.0023323615  -0.0026213174   20.864011      19.509144      1.3548671     -1.0286181      18857.383    
     33000   1.1318752      0.0023323615   7.7250292e-05  21.243195      19.562361      1.6808347     -1.0527324      18672.39     
     34000   0.96025266     0.0023323615   0.004340477    20.882252      19.456277      1.4259752     -1.0505314      18602.757    
     35000   1.0860325      0.0023323615   0.0043027966   21.375193      19.762435      1.6127583     -0.7213183      18839.835    
     36000   0.99982793     0.0023323615  -0.0020074467   20.930669      19.445924      1.4847445     -1.0228521      18691.146    
     37000   0.83687462     0.0023323615  -0.0010826291   20.628406      19.385647      1.2427588     -1.0870697      18613.695    
     38000   0.89761996     0.0023323615   0.0013630361   20.686396      19.35343       1.3329656     -1.0402684      18746.265    
     39000   1.0542913      0.0023323615  -0.0023709445   21.113703      19.54808       1.5656226     -0.90322738     18723.091    
     40000   1.1203514      0.0023323615   0.0016776178   21.305018      19.641297      1.6637219     -0.80577706     19178.516    
     41000   1.005798       0.0023323615   0.0021382905   21.062436      19.568826      1.4936101     -0.90040574     19405.401    
     42000   0.92718958     0.0023323615  -0.0026416761   21.210984      19.834107      1.3768765     -0.76996883     19230.023    
     43000   0.96884635     0.0023323615   0.00085713562  21.172453      19.733716      1.4387368     -0.75430834     19530.146    
     44000   0.97311114     0.0023323615  -0.00010939383  20.939639      19.494569      1.44507       -0.98702031     19564.603    
     45000   1.0214108      0.0023323615   0.0011588983   21.093752      19.576957      1.5167951     -0.94588853     19262.756    
     46000   1.0999837      0.0023323615  -0.0019466211   21.316166      19.682691      1.6334758     -0.79097127     19717.573    
     47000   1.1032011      0.0023323615   0.001718209    21.282033      19.643779      1.6382537     -1.0273064      20032.107    
     48000   1.0434863      0.0023323615  -0.0014601361   21.09431       19.544733      1.5495772     -0.90390057     19173.726    
     49000   0.96113942     0.0023323615  -7.3233669e-05  20.755116      19.327824      1.427292      -1.1272578      18640.149    
     50000   1.013836       0.0023323615   0.00075716435  20.99177       19.486224      1.5055464     -1.0339195      18685.18     
     51000   0.87095292     0.0023323615   0.0028610244   20.779522      19.486157      1.2933651     -1.038629       18518.218    
     52000   0.97667744     0.0023323615   0.0011198874   21.1406        19.690234      1.450366      -0.98388963     18636.244    
     53000   1.0019078      0.0023323615  -0.001747792    21.34935       19.861517      1.487833      -0.63852081     18824.016    
     54000   0.95335657     0.0023323615  -0.00014028175  20.799178      19.383443      1.4157345     -1.0524923      19362.795    
     55000   0.92268211     0.0023323615  -0.0015707143   20.832679      19.462496      1.3701829     -1.0951606      19094.464    
     56000   1.0709607      0.0023323615  -0.00039828801  21.413912      19.823536      1.5903766     -0.83690429     18919.291    
     57000   1.0330329      0.0023323615   0.0070375511   21.189677      19.655623      1.5340538     -0.93925934     18861.509    
     58000   1.012038       0.0023323615   0.0025462255   20.97629       19.473414      1.5028764     -0.99655299     18889.101    
     59000   1.1637925      0.0023323615   0.00027990663  21.343514      19.615282      1.7282319     -0.95796221     18880.458    
     60000   0.92095587     0.0023323615   0.00042462746  21.155945      19.788326      1.3676195     -0.89387856     18995.92     
     61000   0.87032842     0.0023323615   7.2475263e-05  20.813481      19.521043      1.2924377     -0.92038239     18805.96     
     62000   1.0264764      0.0023323615   0.00012746004  21.194331      19.670013      1.5243175     -0.71425866     18833.766    
     63000   0.88490341     0.0023323615   0.0035966564   20.850376      19.536294      1.3140816     -0.88951034     19034.102    
     64000   0.94869943     0.0023323615   0.0037099077   20.868833      19.460014      1.4088187     -0.99036412     18872.918    
     65000   0.96143098     0.0023323615   0.00016113048  21.030075      19.60235       1.427725      -0.89283041     18624.837    
     66000   0.98354398     0.0023323615  -0.0003707968   20.701289      19.240726      1.4605628     -1.1522803      18731.461    
     67000   1.1167694      0.0023323615  -0.00063243557  21.202742      19.544339      1.6584026     -0.9324369      18768.822    
     68000   0.97670727     0.0023323615  -0.002902136    20.828463      19.378053      1.4504103     -0.98636312     18749.304    
     69000   0.96113832     0.0023323615   0.00046408149  20.993418      19.566127      1.4272904     -0.86217716     18794.568    
     70000   0.97617905     0.0023323615   0.0023988237   21.112308      19.662682      1.4496259     -0.87019879     18857.458    
     71000   1.1581988      0.0023323615  -0.0010059187   21.383124      19.663199      1.7199252     -0.95921839     19006.899    
     72000   1.0424562      0.0023323615   0.0018345548   21.093883      19.545836      1.5480474     -0.96401315     19217.868    
     73000   0.95108299     0.0023323615  -5.1255058e-05  20.936083      19.523725      1.4123582     -1.1587132      19165.615    
     74000   1.0415334      0.0023323615  -0.0015550849   21.012361      19.465683      1.5466772     -1.1152128      19030.788    
     75000   1.0519572      0.0023323615   0.0013621979   21.283869      19.721713      1.5621565     -0.87871089     19324.643    
     76000   1.0549686      0.0023323615   0.0054571326   21.193232      19.626604      1.5666284     -0.91335027     19740.02     
     77000   1.0983245      0.0023323615   0.0023026942   21.602002      19.97099       1.6310119     -0.66227138     19909.134    
     78000   0.93894993     0.0023323615   0.00072323713  21.324931      19.93059       1.3943406     -0.75023616     19776.421    
     79000   0.90136788     0.0023323615   0.0034484352   21.055334      19.716802      1.3385313     -0.81472625     20886.501    
     80000   0.98577226     0.0023323615  -0.0017376735   21.034766      19.570894      1.4638718     -0.87656502     20299.356    
     81000   0.91519621     0.0023323615  -0.0033325481   21.061224      19.702157      1.3590664     -0.83923645     19133.816    
     82000   0.97778976     0.0023323615   0.0019868088   21.042957      19.59094       1.4520178     -0.8465684      18854.893    
     83000   1.0959394      0.0023323615  -0.0023589703   20.963148      19.335678      1.6274701     -1.1091127      18808.866    
     84000   0.96427882     0.0023323615  -0.00021233909  20.952518      19.520564      1.431954      -1.0689304      18580.628    
     85000   1.1444361      0.0023323615  -0.0023080236   21.085554      19.386066      1.6994876     -1.1083316      18674.054    
     86000   0.89351606     0.0023323615  -0.00012574456  20.71013       19.383258      1.3268714     -1.191494       18667.295    
     87000   1.044571       0.0023323615   0.0030575961   21.037923      19.486735      1.551188      -0.99424027     18697.915    
     88000   1.0555435      0.0023323615   0.0037778541   20.878319      19.310837      1.5674822     -1.1566537      18729.651    
     89000   1.0108486      0.0023323615   0.00089689663  20.901211      19.400101      1.5011101     -0.99034327     18725.22     
     90000   0.84929482     0.0023323615   0.0016412063   20.697119      19.435916      1.2612028     -1.1121106      18720.699    
     91000   0.85179244     0.0023323615  -9.389639e-05   20.813432      19.54852       1.2649118     -0.97435492     18763.441    
     92000   0.90479209     0.0023323615  -0.0015789067   20.95456       19.610944      1.3436163     -0.97107959     18983.088    
     93000   0.95454907     0.0023323615  -0.0015177814   20.809893      19.392387      1.4175054     -1.0467563      19023.509    
     94000   1.0450389      0.0023323615  -0.00087363373  21.011622      19.45974       1.5518828     -1.0917084      18707.587    
     95000   0.95156647     0.0023323615  -0.00011964173  20.777138      19.364062      1.4130762     -1.2171552      18479.329    
     96000   1.024838       0.0023323615   0.0047656702   21.069555      19.547671      1.5218845     -0.91480103     18684.152    
     97000   1.065192       0.0023323615   0.0062549482   21.149805      19.567995      1.5818101     -0.89250819     18825.429    
     98000   0.78995644     0.0023323615  -0.0059694517   20.895222      19.722136      1.1730853     -0.79887035     19044.699    
     99000   0.98373088     0.0023323615   0.0042493924   20.974611      19.51377       1.4608404     -0.96176341     19491.29     
    100000   1.0076108      0.0023323615  -0.00052329602  21.535977      20.039675      1.4963021     -0.65636283     20210.802    
    101000   1.0192154      0.0023323615  -0.00070580481  21.460221      19.946686      1.5135348     -0.65352637     20984.751    
    102000   1.1494013      0.0023323615   0.00072776051  21.629511      19.92265       1.706861      -0.75779798     21019.326    
    103000   1.0227085      0.0023323615  -0.0022284648   21.365044      19.846322      1.5187221     -0.69015375     20349.487    
    104000   0.97062781     0.0023323615  -0.0035016161   21.041099      19.599717      1.4413823     -0.94444933     19777.801    
    105000   1.1578782      0.0023323615  -0.0031460848   21.476976      19.757527      1.7194491     -0.75398643     19598.605    
    106000   1.0830276      0.0023323615   0.0012432305   21.333194      19.724898      1.6082959     -0.75587636     19073.348    
    107000   0.97892142     0.0023323615  -0.0011025033   21.064345      19.610647      1.4536983     -0.9025465      18809.135    
    108000   0.94114629     0.0023323615   0.0037043345   20.859871      19.462269      1.3976022     -1.0728878      18874.36     
    109000   1.1413708      0.0023323615   9.9707773e-05  21.364179      19.669244      1.6949356     -1.0005847      18809.851    
    110000   0.98877312     0.0023323615  -0.0022173669   21.251315      19.782987      1.4683281     -0.82537602     19257.876    
    111000   0.99555081     0.0023323615  -0.0024107751   21.319671      19.841278      1.478393      -0.76800352     19265.526    
    112000   1.0513673      0.0023323615  -0.00521941     21.286981      19.725701      1.5612804     -0.91998669     19412.059    
    113000   0.97036357     0.0023323615   0.000375425    20.929509      19.488519      1.4409899     -1.069401       18761.914    
    114000   0.98373005     0.0023323615  -0.0044673527   21.044096      19.583257      1.4608391     -1.031001       18705.172    
    115000   1.0683269      0.0023323615  -0.0033748487   21.254378      19.667913      1.5864654     -0.9646293      18922.616    
    116000   0.98465052     0.0023323615   0.00085285906  21.060159      19.597953      1.462206      -0.97417584     18860.358    
    117000   1.061394       0.0023323615  -0.0016780823   21.030944      19.454774      1.57617       -1.1169619      18824.538    
    118000   1.0520845      0.0023323615  -0.0021350326   20.865085      19.302739      1.5623455     -1.1621945      18661.732    
    119000   0.83832206     0.0023323615   0.0026898046   20.635287      19.390379      1.2449083     -1.1081292      18563.312    
    120000   0.97723034     0.0023323615  -0.0030296756   20.716442      19.265255      1.4511871     -1.3458952      18532.859    
    121000   1.0883771      0.0023323615   0.00046261687  21.059414      19.443174      1.61624       -1.1958043      18533.417    
    122000   1.0438068      0.0023323615   0.0020537703   20.635303      19.08525       1.5500532     -1.366855       18639.672    
    123000   1.003056       0.0023323615  -0.00083485987  20.656629      19.167091      1.4895381     -1.3054173      18599.044    
    124000   0.98260906     0.0023323615   0.00079242446  20.803786      19.344612      1.4591744     -1.0920566      18653.449    
    125000   0.95051292     0.0023323615   0.00080716741  20.806947      19.395435      1.4115117     -1.1446839      18452.655    
    126000   0.97012615     0.0023323615  -0.0038834086   20.858662      19.418025      1.4406373     -1.2294757      18597.987    
    127000   1.08358        0.0023323615  -0.0035029141   20.872744      19.263628      1.6091163     -1.227611       18613.285    
    128000   0.99350626     0.0023323615   0.0014537416   20.8126        19.337243      1.4753568     -1.1846039      18642.453    
    129000   0.94634421     0.0023323615  -0.00058807712  20.900206      19.494885      1.4053212     -0.99055727     18593.244    
    130000   1.0345055      0.0023323615  -0.00078995744  21.184966      19.648726      1.5362407     -0.87501532     18765.099    
    131000   1.0000831      0.0023323615  -0.0027369407   21.222293      19.73717       1.4851234     -0.86285078     18768.673    
    132000   1.1168639      0.0023323615   0.0023799102   21.165745      19.507202      1.6585429     -1.007708       18667.955    
    133000   1.1412047      0.0023323615  -0.00054362852  21.276844      19.582155      1.694689      -0.91705777     18700.23     
    134000   0.87872186     0.0023323615  -0.0030334631   20.996268      19.691366      1.304902      -0.81998918     18852.147    
    135000   1.1636993      0.0023323615  -0.00033239692  21.085039      19.356946      1.7280934     -1.0885659      18938.967    
    136000   1.0537444      0.0023323615   0.0019090929   21.077873      19.513063      1.5648105     -0.99000948     18812.166    
    137000   1.082905       0.0023323615   0.003529766    21.037734      19.42962       1.608114      -1.1324356      18861.27     
    138000   0.93663474     0.0023323615   0.0010914816   20.952302      19.561399      1.3909026     -0.86627974     18854.486    
    139000   1.0773615      0.0023323615  -0.0021635059   21.188264      19.588382      1.5998818     -0.93676603     19360.556    
    140000   1.1475515      0.0023323615   0.0010321108   21.346132      19.642018      1.7041139     -0.92995656     19524.068    
    141000   1.093467       0.0023323615   0.0019697109   21.214453      19.590654      1.6237985     -0.87681647     19185.165    
    142000   1.0992443      0.0023323615   0.0037169225   20.939504      19.307126      1.6323778     -1.2846389      18764.016    
    143000   1.0397225      0.0023323615   0.0020894052   20.957489      19.413501      1.5439879     -1.111372       18558.369    
    144000   0.98693605     0.0023323615   0.0049589031   21.138672      19.673072      1.4656        -0.93856358     18651.776    
    145000   0.83559852     0.0023323615  -0.00027311664  20.54428       19.303416      1.2408638     -1.1245811      18596.449    
    146000   0.99873206     0.0023323615  -0.0006319645   20.825103      19.341986      1.4831171     -1.3006271      18640.67     
    147000   0.83966104     0.0023323615   0.00045441005  20.435232      19.188335      1.2468966     -1.2986949      18654.467    
    148000   1.0695458      0.0023323615   0.0023419002   21.035812      19.447537      1.5882755     -1.0632355      18793.234    
    149000   1.0640261      0.0023323615   0.0043669361   21.195862      19.615783      1.5800788     -1.0253678      18708.292    
    150000   1.0929392      0.0023323615   0.0024556049   21.315164      19.692149      1.6230147     -0.77738241     18742.945    
    151000   0.94118518     0.0023323615  -0.0014658045   20.974798      19.577138      1.39766       -0.98109499     19005.817    
    152000   1.0181427      0.0023323615  -0.0020693248   21.228741      19.716799      1.511942      -0.78417689     18931.086    
    153000   0.93985271     0.0023323615  -0.0029917474   21.111034      19.715352      1.3956813     -0.86037468     18924.737    
    154000   0.92708721     0.0023323615   0.00036894905  20.896105      19.51938       1.3767245     -0.90695623     18997.551    
    155000   1.0034568      0.0023323615   0.0009262635   21.236031      19.745897      1.4901334     -0.69730911     19004.833    
    156000   0.94882843     0.0023323615  -2.6732345e-05  21.150653      19.741642      1.4090102     -0.76380989     19344.92     
    157000   0.86319237     0.0023323615  -0.0018414004   20.873357      19.591517      1.2818407     -0.9344079      18913.06     
    158000   1.0201659      0.0023323615   0.00013915983  21.260152      19.745206      1.5149464     -0.80320865     18820.637    
    159000   1.0363001      0.0023323615  -0.0031496883   21.478785      19.939879      1.5389057     -0.71909843     18844.519    
    160000   1.0051046      0.0023323615   0.001963864    20.791118      19.298538      1.4925804     -1.0240221      19149.01     
    161000   1.1257817      0.0023323615   0.0027355535   21.181625      19.50984       1.6717858     -0.99312187     18824.066    
    162000   0.930023       0.0023323615   0.0013797663   20.742814      19.36173       1.3810842     -1.0919311      18641.868    
    163000   0.86393583     0.0023323615   0.0027200704   20.596791      19.313846      1.2829447     -1.2505988      18603.561    
    164000   0.96830196     0.0023323615  -0.00013854387  20.573475      19.135547      1.4379284     -1.2382858      18542.889    
    165000   0.88492774     0.0023323615  -0.0011438836   20.6962        19.382082      1.3141177     -1.1657178      18524.714    
    166000   0.95577692     0.0023323615  -0.0012493664   20.746132      19.326803      1.4193287     -1.0844788      18648.66     
    167000   1.0416086      0.0023323615   0.0022724256   20.762256      19.215467      1.5467888     -1.2752938      18617.316    
    168000   1.0334032      0.0023323615  -0.00076505458  21.00157       19.466966      1.5346038     -1.0299602      18690.548    
    169000   1.0937866      0.0023323615   0.00053855413  21.219364      19.595091      1.6242731     -0.92476499     18594.512    
    170000   0.96136041     0.0023323615   0.00049768707  20.927453      19.499833      1.4276202     -1.0711786      18641.402    
    171000   0.85056629     0.0023323615   0.0010159017   20.555205      19.292114      1.2630909     -1.1121288      18677.572    
    172000   1.0197726      0.0023323615   0.0020895491   20.731832      19.21747       1.5143623     -1.2277323      18876.251    
    173000   1.0251144      0.0023323615  -0.0032880337   20.968418      19.446124      1.5222949     -1.1076286      18693.103    
    174000   0.89234566     0.0023323615   0.0015273184   20.832223      19.507089      1.3251333     -1.1226724      18710.386    
    175000   0.97422654     0.0023323615  -5.484515e-05   20.768639      19.321912      1.4467264     -1.2160121      18736.647    
    176000   1.0543781      0.0023323615   0.00118031     21.264339      19.698588      1.5657514     -0.91359897     18811.202    
    177000   0.99223168     0.0023323615   0.0027244473   20.982958      19.509494      1.473464      -0.95253223     18860.864    
    178000   1.0147477      0.0023323615  -0.0011210675   20.915282      19.408381      1.5069004     -1.1199034      18615.268    
    179000   1.1160688      0.0023323615   0.00020046366  20.990968      19.333606      1.6573621     -1.1295317      18802.722    
    180000   1.1413622      0.0023323615   0.0014789856   21.204677      19.509755      1.6949229     -0.93348654     18778.765    
    181000   1.0251695      0.0023323615  -0.0021076876   21.04014       19.517763      1.5223768     -1.0259849      18763.847    
    182000   0.95808209     0.0023323615   0.00096659521  20.786048      19.363296      1.4227519     -1.0735596      18867.006    
    183000   1.0625148      0.0023323615  -0.001637492    21.141048      19.563213      1.5778345     -0.98568147     19058.857    
    184000   0.96048021     0.0023323615   0.005816152    20.880928      19.454615      1.4263131     -0.91382049     19281.246    
    185000   0.91594411     0.0023323615  -0.00081408179  20.759657      19.39948       1.360177      -1.075605       18817.408    
    186000   0.95075552     0.0023323615   0.00017040567  20.694852      19.28298       1.4118719     -1.1556501      18703.374    
    187000   1.0183622      0.0023323615   0.00071308947  21.054594      19.542326      1.5122679     -1.001973       18746.325    
    188000   0.96975651     0.0023323615   0.0037736118   21.066895      19.626806      1.4400884     -0.97134307     18722.75     
    189000   1.0730046      0.0023323615  -0.00014145949  21.093196      19.499785      1.5934118     -0.88669302     18654.701    
    190000   1.0732715      0.0023323615  -0.0013022687   21.240258      19.64645       1.5938081     -0.82147404     18713.743    
    191000   1.0074459      0.0023323615   0.001553638    20.952001      19.455944      1.4960571     -0.96471897     19375.236    
    192000   1.027319       0.0023323615  -0.0009750091   21.151574      19.626005      1.5255688     -0.87659844     20003.49     
    193000   1.0644759      0.0023323615  -0.0056318144   21.066732      19.485985      1.5807467     -1.044151       20254.69     
    194000   0.88773653     0.0023323615   0.0038188087   20.542406      19.224118      1.3182887     -1.1963011      19972.673    
    195000   1.0666519      0.0023323615   0.0040183157   21.233167      19.649189      1.5839781     -0.8619292      19960.495    
    196000   1.1590276      0.0023323615   0.0030724348   21.358304      19.637148      1.721156      -0.81381432     19611.737    
    197000   1.0589077      0.0023323615  -0.00068618251  20.92563       19.353152      1.572478      -1.1038859      19292.166    
    198000   1.1874807      0.0023323615  -0.0042630815   21.035485      19.272077      1.7634088     -1.2329079      18650.654    
    199000   1.0757842      0.0023323615  -0.00082440914  20.953405      19.355866      1.5975395     -1.0168836      18614.879    
    200000   1.0015091      0.0023323615   0.0035065977   21.146357      19.659116      1.487241      -0.89201184     19249.304    
    201000   1.0260281      0.0023323615   0.0023088397   21.156164      19.632512      1.5236518     -0.88137419     20190.421    
    202000   1.0268651      0.0023323615   0.0038110665   21.109074      19.584179      1.5248947     -0.90882086     19756.571    
    203000   0.99087412     0.0023323615   0.001841879    21.112357      19.640909      1.4714481     -0.90249032     19473.691    
    204000   0.85695862     0.0023323615  -0.0039343287   20.90098       19.628397      1.2725836     -0.83376738     19201.283    
    205000   1.0237018      0.0023323615  -0.0046487263   21.082885      19.562688      1.5201972     -1.001505       18963.334    
    206000   1.0136001      0.0023323615  -0.00027367814  20.674206      19.16901       1.5051961     -1.2179493      18697.407    
    207000   0.93693631     0.0023323615   0.0016013122   20.822406      19.431055      1.3913504     -1.0458325      18721.37     
    208000   0.88448509     0.0023323615  -0.0044760888   20.763512      19.450052      1.3134604     -1.075598       18672.373    
    209000   1.0045637      0.0023323615  -0.0026686025   20.970675      19.478898      1.4917771     -1.024726       18703.048    
    210000   0.91065781     0.0023323615  -0.0027067399   20.631648      19.279321      1.3523268     -1.1857175      18828.402    
    211000   1.0066638      0.0023323615   0.0022564929   20.878388      19.383493      1.4948958     -1.1385224      18801.982    
    212000   0.94556689     0.0023323615  -0.0017218497   20.815967      19.4118        1.4041668     -1.0316322      18664.848    
    213000   1.1941174      0.0023323615  -5.538907e-06   21.335846      19.562581      1.7732643     -0.8771329      18885.495    
    214000   0.96282987     0.0023323615   0.00433202     20.954795      19.524993      1.4298024     -1.0015841      18733.693    
    215000   1.0539858      0.0023323615   0.0030372284   21.012775      19.447606      1.5651689     -1.1079013      18772.765    
    216000   1.038912       0.0023323615  -0.0007016792   20.925422      19.382638      1.5427843     -1.2299646      18744.036    
    217000   0.98586617     0.0023323615  -0.0016315873   20.804066      19.340055      1.4640113     -1.1628304      18574.169    
    218000   0.85973015     0.0023323615   0.0039589032   20.896321      19.619622      1.2766993     -1.013047       18560.171    
    219000   1.0417103      0.0023323615  -0.0014980244   20.989091      19.442152      1.5469398     -1.029053       18593.708    
    220000   1.110748       0.0023323615  -0.00014629592  21.095101      19.44564       1.6494607     -1.1238039      18564.285    
    221000   0.88948673     0.0023323615  -0.0020036279   20.531249      19.210362      1.3208878     -1.2752385      18524.377    
    222000   0.96495354     0.0023323615  -0.0023497888   20.840548      19.407592      1.432956      -1.1809652      18647.033    
    223000   1.0104229      0.0023323615   0.0022442066   20.788651      19.288173      1.500478      -1.2807619      18596.507    
    224000   0.92813071     0.0023323615   0.0039258875   20.95139       19.573116      1.3782741     -0.9410563      18712.27     
    225000   1.0232512      0.0023323615  -0.0017255379   20.920225      19.400697      1.5195281     -1.1531383      18742.125    
    226000   0.98178476     0.0023323615  -0.0032674329   20.989008      19.531058      1.4579504     -0.99591143     18787.086    
    227000   0.90678429     0.0023323615  -0.001968897    20.963146      19.616571      1.3465747     -0.96091762     18923.01     
    228000   1.0152611      0.0023323615   0.0047640426   20.861947      19.354285      1.5076627     -1.088619       18803.778    
    229000   1.0509967      0.0023323615   0.0015064033   21.288464      19.727734      1.56073       -0.86069275     18691.934    
    230000   1.0507771      0.0023323615  -0.00040897865  21.250215      19.689811      1.5604039     -0.70199954     18962.192    
    231000   0.99075308     0.0023323615   0.00010499747  20.693133      19.221865      1.4712683     -1.205136       18731.665    
    232000   1.0222805      0.0023323615   0.0043022979   20.973374      19.455287      1.5180865     -1.0252017      18600.767    
    233000   0.9640084      0.0023323615   0.0046581568   21.039658      19.608106      1.4315525     -0.93339492     18876.188    
    234000   0.97539858     0.0023323615   0.00069708982  21.075918      19.627451      1.4484669     -0.95501704     19787.309    
    235000   0.91023487     0.0023323615   0.00087381462  20.990879      19.63918       1.3516988     -0.9127237      19853.455    
    236000   1.0354699      0.0023323615   0.0006562436   21.544708      20.007035      1.5376728     -0.65544112     19128.477    
    237000   1.0217647      0.0023323615  -0.00055499958  21.119845      19.602524      1.5173206     -0.94652988     18777.522    
    238000   1.1521921      0.0023323615   0.0026513175   21.315704      19.604699      1.7110053     -0.81528869     18761.65     
    239000   0.82479047     0.0023323615   0.0029560989   20.776036      19.551222      1.2248138     -0.86600549     18797.308    
    240000   0.93741309     0.0023323615   0.001271704    21.217759      19.8257        1.3920584     -0.64433854     19126.344    
    241000   1.2128392      0.0023323615  -0.000333061    21.564578      19.763512      1.8010663     -0.75101738     19464.747    
    242000   0.98905578     0.0023323615  -0.0023351739   21.060473      19.591726      1.4687478     -0.83784304     20576.385    
    243000   0.93662865     0.0023323615  -0.0018897047   21.147448      19.756555      1.3908935     -0.81189071     21550.298    
    244000   0.902334       0.0023323615  -0.0011741181   21.178124      19.838158      1.339966      -0.72282406     22440.165    
    245000   0.91618485     0.0023323615  -0.0020882209   20.896046      19.535511      1.3605345     -0.96690719     21324.169    
    246000   1.0304189      0.0023323615  -0.00073853817  21.035864      19.505691      1.5301721     -0.99527251     19551.493    
    247000   0.98470303     0.0023323615   0.0030315236   20.985826      19.523542      1.462284      -0.96536378     18865.605    
    248000   1.122986       0.0023323615  -0.0013218301   21.403715      19.736081      1.6676342     -0.7912301      19062.547    
    249000   0.9439606      0.0023323615   0.0018348545   21.077504      19.675723      1.4017815     -0.88725896     18983.478    
    250000   1.0080173      0.0023323615  -0.0036148326   21.066854      19.569948      1.4969057     -0.92981599     18828.206    
    251000   0.86265818     0.0023323615   0.0020766959   20.7282        19.447152      1.2810474     -1.008233       18960.748    
    252000   1.0780181      0.0023323615   0.00037260812  21.118702      19.517846      1.6008568     -0.95388462     18820.58     
    253000   1.0761618      0.0023323615   0.00021664695  21.193722      19.595621      1.5981003     -0.90225485     18839.248    
    254000   0.95021929     0.0023323615   0.0028131958   20.988665      19.577589      1.4110756     -0.87325864     18888.594    
    255000   0.99887153     0.0023323615   0.0010488509   20.881674      19.39835       1.4833242     -1.0290802      19349.045    
    256000   0.75480824     0.0023323615   0.0013491822   20.566511      19.445621      1.1208902     -1.0839345      18857.575    
    257000   0.96157787     0.0023323615  -0.00011564721  21.148147      19.720204      1.4279431     -0.84054977     18656.814    
    258000   1.0469491      0.0023323615   0.0011104127   21.006599      19.45188       1.5547195     -1.0653908      18599.817    
    259000   1.0878429      0.0023323615   0.0023384175   21.261339      19.645892      1.6154467     -0.94849036     18551.153    
    260000   0.98654882     0.0023323615   0.0025163838   20.889484      19.424459      1.465025      -1.0093436      18648.413    
    261000   0.95873522     0.0023323615   8.3589294e-06  21.057025      19.633303      1.4237218     -0.92027049     18642.23     
    262000   0.95083264     0.0023323615   0.0034484992   20.868227      19.45624       1.4119865     -1.1710012      18783.176    
    263000   0.97469469     0.0023323615  -0.0034184964   21.167905      19.720484      1.4474216     -0.87374734     18669.453    
    264000   1.0515612      0.0023323615  -0.0011082729   21.175664      19.614096      1.5615684     -0.96083437     18756.727    
    265000   1.0075652      0.0023323615   0.0015548145   20.827695      19.331461      1.4962343     -1.1710594      18772.98     
    266000   1.002411       0.0023323615  -0.0003334902   20.987196      19.498616      1.4885803     -0.97504666     18741.048    
    267000   1.019513       0.0023323615  -0.0030380159   21.057996      19.544019      1.5139768     -0.99565883     18672.048    
    268000   0.93888801     0.0023323615  -0.0044838054   21.049046      19.654798      1.3942487     -0.8859142      18757.912    
    269000   1.0679429      0.0023323615   0.0062054703   21.29247       19.706574      1.5858952     -0.87556003     18982.128    
    270000   1.0206736      0.0023323615  -0.0028936197   21.288095      19.772395      1.5157002     -0.7592123      18897.065    
    271000   1.0720102      0.0023323615   0.0034300915   21.209489      19.617554      1.5919352     -0.91393656     19176.349    
    272000   1.0271439      0.0023323615  -0.00019214211  21.101578      19.576269      1.5253087     -0.89124572     18797.701    
    273000   0.84800914     0.0023323615  -0.0010019681   20.75204       19.492747      1.2592936     -0.95271099     18620.814    
    274000   0.93485763     0.0023323615   0.00066325514  21.088307      19.700043      1.3882636     -0.89231477     18801.305    
    275000   1.0275665      0.0023323615  -0.0015678429   21.024769      19.498833      1.5259363     -1.0729104      18980.731    
    276000   1.1086287      0.0023323615  -0.0030816167   21.059803      19.413489      1.6463136     -0.99728951     19423.346    
    277000   0.91813225     0.0023323615  -0.0015448359   21.141005      19.777579      1.3634264     -0.69859545     19470.587    
    278000   0.97235789     0.0023323615   0.0044572619   21.038453      19.594502      1.4439515     -0.97819879     19113.887    
    279000   1.0904821      0.0023323615  -0.0016871725   21.094296      19.47493       1.6193659     -1.0529343      18859.331    
    280000   0.96291456     0.0023323615   0.002921088    20.763296      19.333368      1.4299281     -1.1819919      18821.983    
    281000   0.90346653     0.0023323615  -0.0054655153   21.031375      19.689727      1.3416478     -0.91006666     18705.431    
    282000   0.91485847     0.0023323615   0.0018294692   20.771664      19.413099      1.3585648     -0.9781366      18621.599    
    283000   0.9466677      0.0023323615   0.00075742247  20.964208      19.558406      1.4058015     -0.92090487     18809.883    
    284000   1.0840341      0.0023323615   0.0026916421   21.131077      19.521286      1.6097907     -0.95276284     18785.944    
    285000   0.85017817     0.0023323615  -0.0034311281   20.900214      19.637699      1.2625146     -0.90228895     19119.991    
    286000   1.0092877      0.0023323615  -0.0019772599   21.095963      19.597171      1.4987922     -0.85942901     19738.689    
    287000   0.95408811     0.0023323615  -0.0019935424   21.091312      19.674491      1.4168208     -0.85739502     19310.499    
    288000   0.92696218     0.0023323615   0.0034402127   21.004646      19.628108      1.3765388     -0.9222907      19135.672    
    289000   0.88326064     0.0023323615  -0.0022640413   21.155869      19.844227      1.3116421     -0.82461756     19483.221    
    290000   0.97872364     0.0023323615  -0.00075915177  21.204549      19.751144      1.4534046     -0.77792359     19584.427    
    291000   1.0114391      0.0023323615   0.0006485174   21.257292      19.755305      1.501987      -0.70305657     19391.061    
    292000   0.7877109      0.0023323615  -0.0014947128   20.836081      19.66633       1.1697507     -0.9624912      18771.328    
    293000   0.94474774     0.0023323615  -0.00051798332  21.010331      19.607381      1.4029504     -0.94847661     18742.125    
    294000   0.85334691     0.0023323615  -0.00060234624  20.955291      19.688071      1.2672202     -0.81459376     18853.635    
    295000   0.96453388     0.0023323615   0.00071656469  21.041552      19.609219      1.4323328     -0.86560567     18894.729    
    296000   1.0618573      0.0023323615   0.0012476293   21.362544      19.785686      1.5768581     -0.70523459     18889.82     
    297000   0.94185086     0.0023323615   0.001846987    20.981397      19.582749      1.3986485     -0.90345313     19409.164    
    298000   1.0351999      0.0023323615   0.0038096206   21.206088      19.668816      1.5372719     -0.81404548     19668.21     
    299000   1.015407       0.0023323615   0.00032786703  21.268588      19.760708      1.5078794     -0.74786798     19641.879    
    300000   0.87776257     0.0023323615   0.00028814792  20.985072      19.681594      1.3034774     -0.79879381     19533.536    
    301000   0.98177403     0.0023323615  -0.0015289641   21.140265      19.68233       1.4579344     -0.88565564     19016.905    
    302000   0.96004863     0.0023323615  -0.00055486039  21.253684      19.828011      1.4256722     -0.71966905     18981.279    
    303000   1.0412523      0.0023323615   0.0014823542   21.318213      19.771954      1.5462596     -0.73417701     19602.147    
    304000   0.93916024     0.0023323615   0.00021640123  21.12788       19.733227      1.394653      -0.84889789     20978.289    
    305000   1.0756194      0.0023323615   0.0001869529   21.381763      19.784468      1.5972948     -0.70272904     21661.111    
    306000   0.97574689     0.0023323615  -0.00056596478  21.227181      19.778197      1.4489841     -0.61749836     20593.032    
    307000   0.95500289     0.0023323615   0.0002284021   21.08413       19.66595       1.4181793     -0.80342301     18971.127    
    308000   0.95349895     0.0023323615  -0.00023567422  20.712286      19.29634       1.4159459     -1.2017693      18918.237    
    309000   1.0072691      0.0023323615   0.0013760842   21.093035      19.59724       1.4957946     -0.96260068     18698.251    
    310000   1.0986769      0.0023323615   0.0055549553   21.029331      19.397796      1.6315352     -1.1406379      18695.691    
    311000   0.88839779     0.0023323615   0.0028805141   20.605045      19.285774      1.3192707     -1.1591663      18680.554    
    312000   0.92207208     0.0023323615   0.0011791118   20.710539      19.341262      1.369277      -1.06028        18675.314    
    313000   0.92038332     0.0023323615  -0.0025283366   20.930748      19.563979      1.3667692     -0.93143652     18869.832    
    314000   0.97782995     0.0023323615  -0.0011689975   20.865965      19.413887      1.4520775     -1.1568443      18778.812    
    315000   1.0499432      0.0023323615   0.0013356414   21.223273      19.664107      1.5591657     -0.88651355     18760.376    
    316000   0.98764246     0.0023323615   0.0013737502   20.696413      19.229764      1.4666491     -1.2363997      18670.606    
    317000   0.94051615     0.0023323615   0.0012431595   20.897801      19.501135      1.3966665     -1.1784241      18669.017    
    318000   0.99339646     0.0023323615   0.00040792129  21.023321      19.548127      1.4751937     -0.9226851      19345.209    
    319000   1.0000052      0.0023323615  -0.0010440029   21.079547      19.594539      1.4850078     -0.85968232     19886.86     
    320000   0.98558763     0.0023323615   0.0012970959   21.073825      19.610227      1.4635976     -0.87154398     19002.086    
    321000   1.0289814      0.0023323615   0.0015112404   21.092941      19.564903      1.5280374     -0.90346339     18585.011    
    322000   0.93528891     0.0023323615   0.0017420936   20.737367      19.348463      1.388904      -1.0330251      18860.565    
    323000   0.9962864      0.0023323615  -5.1090431e-05  20.827849      19.348364      1.4794853     -1.0051678      18771.766    
    324000   1.0018319      0.0023323615   0.00026682191  21.139988      19.652267      1.4877203     -0.94407013     18688.043    
    325000   1.1392393      0.0023323615   0.0023173088   21.127648      19.435878      1.6917704     -0.94881959     18710.873    
    326000   0.92601342     0.0023323615   0.00023167298  20.949784      19.574654      1.3751299     -0.97219775     18629.127    
    327000   0.97356481     0.0023323615  -0.0015481965   21.086513      19.64077       1.4457437     -0.90522047     18711.14     
    328000   0.97159416     0.0023323615   0.0017952313   21.151976      19.709159      1.4428173     -0.86244647     18951.521    
    329000   1.1469917      0.0023323615  -0.0022197491   21.445136      19.741853      1.7032826     -0.89260284     19627.132    
    330000   1.0758236      0.0023323615   0.0018034179   21.404132      19.806534      1.597598      -0.77439294     20148.425    
    331000   1.0420921      0.0023323615  -0.0012390706   21.135436      19.587929      1.5475068     -0.90226809     19503.665    
    332000   0.99903257     0.0023323615  -0.0010511228   21.093675      19.610111      1.4835634     -0.93732015     18839.682    
    333000   0.98952816     0.0023323615   0.0039977935   21.053358      19.583909      1.4694493     -1.0054414      18702.61     
    334000   1.008144       0.0023323615   0.0020899785   21.150005      19.652911      1.4970938     -0.91164885     18753.069    
    335000   0.96562079     0.0023323615   0.0034559176   20.947153      19.513206      1.4339469     -0.99729808     18852.015    
    336000   0.92027169     0.0023323615  -0.0023498975   21.265074      19.898471      1.3666035     -0.73587066     18725.111    
    337000   0.98311191     0.0023323615   0.0022691866   20.806271      19.346349      1.4599212     -1.1508534      18736.858    
    338000   0.89051079     0.0023323615   0.00014286199  21.133949      19.81154       1.3224085     -0.78242544     18750.449    
    339000   1.0829658      0.0023323615   0.0020572594   21.102475      19.49427       1.6082042     -1.0324078      18662.179    
    340000   0.87920496     0.0023323615  -0.0026845793   20.807774      19.502155      1.3056194     -0.99658396     18678.617    
    341000   0.96470275     0.0023323615  -0.0053771298   20.677302      19.244718      1.4325836     -1.3347602      18530.946    
    342000   0.96188847     0.0023323615  -0.0039807237   20.655002      19.226598      1.4284044     -1.3365031      18589.362    
    343000   0.96266922     0.0023323615  -0.0014767758   20.983761      19.554198      1.4295638     -0.92299244     18739.673    
    344000   1.0430524      0.0023323615   0.0017771916   21.33531       19.786377      1.5489328     -0.7771129      18899.387    
    345000   1.1603187      0.0023323615   0.0027172945   21.424293      19.701219      1.7230733     -0.7671355      19061.638    
    346000   0.9692146      0.0023323615   0.00066309435  21.333343      19.89406       1.4392837     -0.69357218     19848.784    
    347000   1.0224523      0.0023323615  -0.0006369496   21.260042      19.741701      1.5183416     -0.72176935     20052.329    
    348000   0.88709535     0.0023323615  -0.00056624967  20.919449      19.602112      1.3173366     -0.98229501     19687.98     
    349000   0.96040166     0.0023323615  -0.0019052719   20.690985      19.264789      1.4261965     -1.1799715      18815.404    
    350000   1.0970882      0.0023323615   0.00028935836  21.022635      19.393459      1.629176      -1.0776298      18879.893    
    351000   0.92230057     0.0023323615  -0.0017920186   20.856354      19.486738      1.3696163     -1.0818358      19025.188    
    352000   0.95606505     0.0023323615   0.001962046    20.997184      19.577428      1.4197566     -0.99032014     18614.247    
    353000   1.0131306      0.0023323615  -0.0029932779   21.289759      19.78526       1.504499      -0.91582543     18800.894    
    354000   1.1415596      0.0023323615  -0.001815109    21.343059      19.647843      1.695216      -0.98741865     18835.849    
    355000   0.91888486     0.0023323615  -0.0028208596   21.021222      19.656678      1.364544      -0.894601       18675.325    
    356000   0.98070907     0.0023323615  -0.0026499258   20.934681      19.478328      1.456353      -1.0842468      18622.106    
    357000   1.0154476      0.0023323615  -0.0013867267   21.199219      19.69128       1.5079396     -0.89581051     18849.388    
    358000   0.95707809     0.0023323615   0.0019010612   20.891074      19.469813      1.421261      -1.0712825      18793.853    
    359000   0.96969479     0.0023323615  -0.0002107291   20.876144      19.436148      1.4399968     -1.1122622      18685.933    
    360000   0.94962095     0.0023323615  -0.00048972841  20.879579      19.469392      1.4101871     -1.1978173      18636.926    
    361000   1.032337       0.0023323615  -0.0022134693   20.909939      19.376918      1.5330204     -1.0764665      18622.005    
    362000   1.0125761      0.0023323615   0.0022396599   20.89393       19.390255      1.5036755     -1.1946864      18595.433    
    363000   0.89730583     0.0023323615  -7.7840353e-05  20.710723      19.378224      1.3324992     -1.0795138      18622.593    
    364000   1.0891769      0.0023323615   0.00086673914  20.829247      19.211819      1.6174277     -1.2226165      18620.411    
    365000   1.1093039      0.0023323615   0.0022363691   21.061391      19.414074      1.6473162     -1.1615194      18605.846    
    366000   0.96296422     0.0023323615   0.00073529646  20.948337      19.518336      1.4300019     -1.0600992      18864.789    
    367000   1.0807835      0.0023323615   0.0027151085   20.964966      19.360002      1.6049635     -1.2098239      18559.159    
    368000   1.0223974      0.0023323615  -0.0031857913   20.913968      19.395707      1.5182601     -1.1618234      18589.944    
    369000   1.0891679      0.0023323615  -0.0046202959   21.194612      19.577197      1.6174144     -1.0424907      18669.265    
    370000   1.0550375      0.0023323615   0.0024701082   21.082079      19.515348      1.5667306     -1.0952411      18771.533    
    371000   0.95557528     0.0023323615  -0.0010351128   20.877944      19.458915      1.4190293     -1.2582803      18627.973    
    372000   0.81712991     0.0023323615  -0.001835724    20.622738      19.4093        1.2134379     -1.187382       18683.023    
    373000   1.0353755      0.0023323615  -0.0018728158   21.142091      19.604558      1.5375327     -0.85259474     18406.63     
    374000   1.0111747      0.0023323615  -0.0033571142   21.46317       19.961576      1.5015944     -0.65655805     18800.264    
    375000   1.2224139      0.0023323615  -0.0049540872   21.840884      20.025599      1.8152846     -0.65178309     19534.14     
    376000   0.90919066     0.0023323615  -0.00622124     21.342977      19.992829      1.3501481     -0.76670546     19374.574    
    377000   1.0620681      0.0023323615  -0.002002058    21.332772      19.755601      1.5771712     -0.83644031     19514.38     
    378000   1.0703211      0.0023323615   0.0015487536   21.053376      19.463949      1.5894269     -1.0448681      19332.668    
    379000   1.0098709      0.0023323615  -0.0015756402   20.945603      19.445945      1.4996583     -1.126245       18840.653    
    380000   0.93069287     0.0023323615   0.0056581702   20.913861      19.531782      1.3820789     -0.98190944     18770.925    
    381000   1.0330217      0.0023323615  -0.0010754948   21.233694      19.699656      1.5340372     -0.83216525     19107.396    
    382000   1.1448544      0.0023323615  -0.0025742483   21.382735      19.682626      1.7001089     -0.86250521     19369.081    
    383000   0.99710974     0.0023323615   0.00078781093  20.982372      19.501664      1.480708      -1.1602125      18675.479    
    384000   1.0855935      0.0023323615  -0.0027340525   21.10579       19.493683      1.6121064     -1.0744524      18615.084    
    385000   1.0210585      0.0023323615  -0.0018281703   21.342362      19.82609       1.5162719     -0.90021075     18668.636    
    386000   1.0886981      0.0023323615  -0.00074834238  21.194057      19.57734       1.6167167     -0.91335239     19197.416    
    387000   0.9637316      0.0023323615   0.0023026216   21.021614      19.590472      1.4311414     -0.93048875     19207.032    
    388000   1.1143138      0.0023323615   0.0028049957   21.154855      19.500099      1.654756      -1.0671172      18842.723    
    389000   1.0072388      0.0023323615   0.0010067415   20.986143      19.490394      1.4957497     -1.0665672      18693.817    
    390000   0.96235149     0.0023323615   0.0016587823   20.940709      19.511617      1.429092      -1.0021834      18647.295    
    391000   1.1082438      0.0023323615   0.0035495637   21.051805      19.406063      1.645742      -1.0006903      18624.74     
    392000   1.2380228      0.0023323615   0.0018632546   21.182209      19.343745      1.8384638     -1.1145215      18648.988    
    393000   1.0788631      0.0023323615   0.0007535748   21.064013      19.461901      1.6021117     -1.0176985      18719.229    
    394000   1.2323284      0.0023323615   0.0018609858   21.375716      19.545708      1.8300077     -0.90749664     18761.226    
    395000   0.96086898     0.0023323615  -0.00086079686  21.184854      19.757963      1.4268904     -0.8418856      18841.264    
    396000   1.0617815      0.0023323615   0.004136969    21.136074      19.559328      1.5767455     -0.9221781      19205.783    
    397000   0.99151145     0.0023323615  -0.0011059327   20.997327      19.524932      1.4723945     -0.93081143     19585.976    
    398000   1.0087718      0.0023323615  -0.0028112692   20.874677      19.376651      1.4980261     -1.0444845      19026.555    
    399000   1.0634036      0.0023323615   0.0013110336   20.965484      19.38633       1.5791544     -1.1573308      18742.921    
    400000   1.0472445      0.0023323615  -0.0030885618   21.06952       19.514362      1.5551581     -1.0046836      18633.948    
    401000   1.1642641      0.0023323615  -0.0070050543   21.017503      19.288571      1.7289322     -1.2399846      18554.974    
    402000   1.0199424      0.0023323615   0.0016724435   20.868851      19.354236      1.5146145     -1.1605357      18583.946    
    403000   1.1568081      0.0023323615   0.0014137801   20.916515      19.198655      1.71786       -1.2567039      18656.451    
    404000   1.0784593      0.0023323615  -0.0015069761   21.039238      19.437726      1.601512      -1.0767197      18747.191    
    405000   1.1933367      0.0023323615  -0.0022341756   21.405489      19.633384      1.7721051     -0.85394778     18795.212    
    406000   0.93458896     0.0023323615  -0.003520616    20.993677      19.605812      1.3878646     -0.90808611     19089.388    
    407000   1.1509267      0.0023323615   0.0014005594   21.068437      19.359311      1.7091261     -1.0642065      18881.476    
    408000   1.0327599      0.0023323615  -0.0036112983   21.115319      19.581671      1.5336485     -0.94077947     18731.029    
    409000   0.81847016     0.0023323615   0.0025639052   20.819729      19.604301      1.2154282     -0.8172052      19283.612    
    410000   1.0650335      0.0023323615   7.3929025e-05  21.337617      19.756042      1.5815748     -0.74149152     19659.296    
    411000   0.96706486     0.0023323615   0.00094490675  21.045928      19.609837      1.4360913     -1.0319295      19360.909    
    412000   1.0353539      0.0023323615   0.0011311691   21.162568      19.625067      1.5375005     -0.94806813     18911.265    
    413000   0.96667391     0.0023323615  -0.0055943116   21.03319       19.597679      1.4355108     -0.88927451     19261.782    
    414000   0.96812945     0.0023323615  -0.0017179453   21.226222      19.78855       1.4376722     -0.70430129     19560.505    
    415000   1.0720016      0.0023323615  -3.8293296e-05  21.101826      19.509904      1.5919223     -0.98652847     19579.494    
    416000   0.97367246     0.0023323615   7.8297416e-05  21.027184      19.58128       1.4459036     -0.89921775     18980.499    
    417000   1.0432359      0.0023323615  -0.0051899005   21.157462      19.608256      1.5492053     -0.9966003      18666.493    
    418000   1.2344013      0.0023323615   0.0040218329   21.391894      19.558808      1.8330859     -0.9573202      18782.013    
    419000   0.96276576     0.0023323615  -0.0015123783   20.930943      19.501236      1.4297072     -0.92495595     19043.726    
    420000   0.98820922     0.0023323615   0.0035408447   21.149068      19.681577      1.4674907     -0.82530496     19073.421    
    421000   1.0269287      0.0023323615   0.0011016606   21.205124      19.680134      1.5249891     -0.87705897     18965.068    
    422000   1.0940462      0.0023323615   0.0011565319   21.074924      19.450266      1.6246585     -1.0355709      18773.747    
    423000   0.99638781     0.0023323615   0.0019780735   20.971266      19.49163       1.4796359     -1.0230184      18834.438    
    424000   1.1512282      0.0023323615   0.0015958169   21.376257      19.666683      1.7095738     -0.99912375     18637.099    
    425000   0.91482031     0.0023323615  -0.0023188245   20.610711      19.252202      1.3585082     -1.1766616      18760.031    
    426000   0.97441004     0.0023323615   0.00040728055  20.913004      19.466005      1.4469989     -1.1500145      18661.428    
    427000   0.93731231     0.0023323615  -0.00077789627  20.832859      19.44095       1.3919088     -1.1353418      18732.649    
    428000   1.07684        0.0023323615  -0.0043863719   21.187666      19.588558      1.5991073     -1.014683       18815.794    
    429000   1.0788989      0.0023323615   0.002339501    21.157445      19.55528       1.6021648     -0.99668648     18634.723    
    430000   1.0619594      0.0023323615  -0.0017943159   21.389211      19.812201      1.5770097     -0.80041418     19016.796    
    431000   0.97055465     0.0023323615   0.0029962976   20.872062      19.430788      1.4412737     -1.0647251      18777.077    
    432000   0.91707845     0.0023323615   0.00081973737  21.076299      19.714437      1.3618615     -0.81730013     18929.715    
    433000   1.0750473      0.0023323615   0.004224152    21.314279      19.717834      1.5964453     -0.77816454     20110.257    
    434000   0.97883795     0.0023323615   0.00045730276  20.993515      19.539941      1.4535744     -0.85122028     20522.883    
    435000   0.91432958     0.0023323615   0.00080143298  21.07222       19.714441      1.3577794     -0.88136546     20144.773    
    436000   0.93010574     0.0023323615  -0.0017012167   21.021644      19.640437      1.381207      -0.93156837     19097.825    
    437000   0.87933932     0.0023323615  -0.0018979798   21.205914      19.900095      1.3058189     -0.62849086     19257.962    
    438000   0.88554364     0.0023323615  -0.001629126    20.987327      19.672295      1.3150323     -0.88228731     19157.677    
    439000   1.0562815      0.0023323615   0.0044209555   21.131         19.562422      1.568578      -0.97516186     18722.971    
    440000   1.0115353      0.0023323615   0.003790006    20.866258      19.364128      1.50213       -1.0326623      18722.189    
    441000   0.96542745     0.0023323615  -0.0025898177   21.032595      19.598935      1.4336598     -0.95367444     18732.273    
    442000   0.99605001     0.0023323615   0.0040897511   21.034927      19.555792      1.4791343     -1.0504956      18651.242    
    443000   0.9869955      0.0023323615  -0.0016496154   20.747386      19.281698      1.4656883     -1.2714972      18554.947    
    444000   0.96626272     0.0023323615  -0.0026818161   20.974121      19.539221      1.4349001     -0.93960126     18668.367    
    445000   1.0272906      0.0023323615   0.0032866613   21.257192      19.731666      1.5255265     -0.89567269     18675.409    
    446000   1.0212434      0.0023323615   0.0015954067   20.865674      19.349127      1.5165464     -1.089512       18818.217    
    447000   0.96761979     0.0023323615  -0.0011180317   21.156584      19.719669      1.4369154     -0.95971383     18629.343    
    448000   0.89510726     0.0023323615  -0.00069279713  20.640703      19.311469      1.3292343     -1.2014942      18749.177    
    449000   0.99172827     0.0023323615  -0.0036749403   20.967138      19.494422      1.4727165     -1.0725265      18614.466    
    450000   1.0810034      0.0023323615   0.0015281605   20.930761      19.325471      1.60529       -1.1202878      18448.875    
    451000   1.105745       0.0023323615  -0.0017745902   21.01768       19.375649      1.6420313     -1.2277022      18510.968    
    452000   1.1241869      0.0023323615   0.0069111801   21.030117      19.360699      1.6694175     -1.1863615      18523.717    
    453000   1.0588507      0.0023323615  -0.0030963269   20.815796      19.243403      1.5723934     -1.2558877      18543.884    
    454000   0.96398556     0.0023323615   0.00275582     20.773605      19.342086      1.4315186     -1.1244154      18378.898    
    455000   0.95907907     0.0023323615  -0.004324888    20.923517      19.499285      1.4242324     -1.0359582      18567.303    
    456000   0.96302938     0.0023323615   0.0038605596   21.025963      19.595864      1.4300986     -0.96077304     18666.308    
    457000   0.93127852     0.0023323615  -0.0042286877   20.72425       19.341301      1.3829486     -1.0715643      18743.645    
    458000   0.83853636     0.0023323615  -0.00069355367  20.897816      19.652589      1.2452265     -0.89973451     18584.046    
    459000   1.1305133      0.0023323615   0.0032364702   20.877986      19.199174      1.6788122     -1.3791387      18635.885    
    460000   1.166124       0.0023323615  -0.001916001    21.119075      19.38738       1.7316942     -1.208308       18604.022    
    461000   1.0186455      0.0023323615  -0.0023949753   20.897121      19.384433      1.5126886     -1.0892571      18515.505    
    462000   1.1347324      0.0023323615   0.0010698672   21.20643       19.521352      1.6850777     -1.0316514      18697.253    
    463000   1.1574927      0.0023323615   0.0045114094   21.258052      19.539175      1.7188767     -1.043929       18769.874    
    464000   0.94830724     0.0023323615  -0.0010466195   20.955787      19.547551      1.4082363     -0.89017807     19695.326    
    465000   0.89578034     0.0023323615  -0.00015849473  21.01504       19.684807      1.3302338     -0.84275768     20297.263    
    466000   0.95642318     0.0023323615  -0.0023329366   20.96816       19.547872      1.4202884     -0.93654159     19514.826    
    467000   0.9304536      0.0023323615   0.00047861197  20.874683      19.492959      1.3817236     -0.99680443     18739.447    
    468000   0.89035033     0.0023323615  -5.520996e-05   21.034025      19.711855      1.3221702     -0.84530964     18617.236    
    469000   1.0809649      0.0023323615  -0.0033388605   21.223815      19.618582      1.6052329     -0.94078091     18836.446    
    470000   1.0415515      0.0023323615  -0.0023500704   21.0889        19.542196      1.546704      -0.88903249     18917.007    
    471000   0.89245834     0.0023323615  -0.0030135384   20.794853      19.469553      1.3253006     -1.0145759      18711.74     
    472000   0.97641938     0.0023323615   0.00014748585  21.074718      19.624735      1.4499828     -0.89109239     18556.62     
    473000   0.8861721      0.0023323615   0.0027974056   20.907051      19.591086      1.3159656     -0.87471694     18804.284    
    474000   0.85409473     0.0023323615  -0.0020916983   21.031223      19.762892      1.2683307     -0.84482421     18812.606    
    475000   1.1170556      0.0023323615  -0.0004483626   21.275493      19.616665      1.6588275     -0.94052885     18572.316    
    476000   0.98043457     0.0023323615   0.0074401496   21.073547      19.617601      1.4559453     -0.89774761     18728.185    
    477000   0.90128627     0.0023323615   0.0029982784   21.04981       19.711399      1.3384101     -0.98822658     19235.834    
    478000   1.0540445      0.0023323615   0.0018179864   21.246317      19.681061      1.5652561     -0.80172372     19270.164    
    479000   0.93954151     0.0023323615   0.0013839036   20.808851      19.413632      1.3952191     -1.120404       19467.067    
    480000   1.082817       0.0023323615  -3.4815572e-05  21.36596       19.757977      1.6079832     -0.90247645     21236.694    
    481000   1.0416193      0.0023323615  -0.00078770698  21.324434      19.77763       1.5468047     -0.68574348     24453.775    
    482000   1.0768735      0.0023323615  -0.0053264123   21.203546      19.604389      1.5991572     -0.97542795     26606.925    
    483000   1.0000728      0.0023323615   7.8006755e-05  20.982364      19.497255      1.4851081     -1.035943       25496.762    
    484000   0.92075019     0.0023323615  -0.00049476311  20.990134      19.62282       1.367314      -0.94962804     23890.756    
    485000   1.0211878      0.0023323615   0.001686489    21.084444      19.567981      1.5164639     -0.9174338      20733.334    
    486000   0.96934951     0.0023323615   0.00039608437  21.251942      19.812458      1.439484      -0.81883589     19145.271    
    487000   0.95753452     0.0023323615  -0.0030968472   20.840986      19.419048      1.4219388     -1.1079073      18704.502    
    488000   1.1299215      0.0023323615  -0.0031164718   21.424243      19.74631       1.6779334     -0.83795713     18786.92     
    489000   1.0044403      0.0023323615   0.0014921182   21.195999      19.704406      1.4915938     -0.83791712     18670.972    
    490000   1.0577627      0.0023323615  -0.00047105747  21.091265      19.520488      1.5707776     -0.9317282      18546.658    
    491000   1.0220608      0.0023323615  -0.0020577886   21.167691      19.649931      1.5177603     -0.97815224     18795.963    
    492000   1.012277       0.0023323615  -0.0016536508   21.31472       19.811488      1.5032314     -0.78257362     19032.726    
    493000   0.88554098     0.0023323615   0.00076696456  20.858094      19.543065      1.3150284     -1.003762       19222.402    
    494000   1.0460068      0.0023323615   0.0041484164   21.289985      19.736665      1.55332       -0.94891231     18892.294    
    495000   0.99867693     0.0023323615   0.0027894286   20.831279      19.348244      1.4830352     -1.2183454      18541.187    
    496000   1.0187692      0.0023323615   0.0024565912   20.891568      19.378695      1.5128723     -1.1588714      18922.806    
    497000   1.0196723      0.0023323615   0.0043218416   21.198103      19.68389       1.5142133     -0.97238413     19931.823    
    498000   1.194736       0.0023323615   0.003233032    21.15558       19.381397      1.7741829     -1.0608976      19487.96     
    499000   1.1581034      0.0023323615   0.00013504036  20.994916      19.275132      1.7197835     -1.1823145      18728.023    
    500000   0.98333137     0.0023323615  -0.0010172039   20.878016      19.417769      1.4602471     -1.0698536      18731.07     
    501000   1.1448711      0.0023323615   0.0032604811   21.056767      19.356634      1.7001336     -1.0752798      18766.553    
    502000   1.0425114      0.0023323615  -0.0026139009   21.082856      19.534727      1.5481295     -0.96372129     18765.035    
    503000   1.1424679      0.0023323615  -0.0017237683   21.070863      19.374298      1.6965648     -1.0614811      18717.811    
    504000   1.1467241      0.0023323615  -0.0022972201   21.294358      19.591472      1.7028852     -0.95177436     18658.254    
    505000   0.95090276     0.0023323615   0.00086212988  20.73141       19.319319      1.4120906     -1.0087668      18543.988    
    506000   1.1963472      0.0023323615   0.0033505264   21.365265      19.588689      1.7765757     -0.98028779     18593.414    
    507000   0.99215023     0.0023323615  -0.0027257593   21.056513      19.58317       1.4733431     -0.9353775      18715.045    
    508000   1.0910658      0.0023323615   0.0013628188   21.126862      19.50663       1.6202328     -1.0162197      18565.152    
    509000   1.1496686      0.0023323615  -0.0017572396   21.389022      19.681764      1.7072579     -0.97300613     18644.828    
    510000   0.96801616     0.0023323615   0.0012398368   20.89392       19.456416      1.437504      -1.0127766      18747.222    
    511000   1.047872       0.0023323615  -0.0030406568   21.178305      19.622215      1.5560899     -0.94344457     18531.71     
    512000   0.88049528     0.0023323615   0.0012076688   20.711804      19.404269      1.3075355     -1.0236518      18710.151    
    513000   1.1220246      0.0023323615   0.00032170638  21.356117      19.68991       1.6662065     -0.9361244      18735.638    
    514000   1.0116113      0.0023323615   0.0016044231   21.043468      19.541225      1.5022427     -0.98290592     18829.972    
    515000   0.99311661     0.0023323615  -0.0057822901   20.934834      19.460056      1.4747782     -1.0395604      18556.834    
    516000   1.07769        0.0023323615  -0.0013805666   21.351511      19.751141      1.6003697     -0.7941351      18614.427    
    517000   0.92756416     0.0023323615  -0.0031331877   20.970391      19.592958      1.3774328     -0.86527568     18839.33     
    518000   0.98296912     0.0023323615   0.002172241    20.960866      19.501157      1.4597091     -1.0230953      18809.334    
    519000   0.9026669      0.0023323615  -0.001293968    21.009346      19.668886      1.3404603     -0.82731466     18761.089    
    520000   0.95526023     0.0023323615   0.0034341483   21.02627       19.607709      1.4185614     -0.90586147     19016.926    
    521000   0.99818253     0.0023323615   0.002930887    20.843851      19.36155       1.4823011     -0.96218221     19054.792    
    522000   1.0496655      0.0023323615   0.0023137788   21.155741      19.596988      1.5587532     -0.91307301     18584.209    
    523000   1.1062335      0.0023323615  -0.00071647464  21.262705      19.619948      1.6427568     -0.99206386     18530.027    
    524000   0.98776107     0.0023323615   0.0046599045   21.070824      19.603999      1.4668252     -0.98076508     18671.591    
    525000   0.99105676     0.0023323615  -0.00038012795  21.025504      19.553785      1.4717193     -1.0418001      18685.737    
    526000   0.92976117     0.0023323615  -0.0020941443   20.910183      19.529488      1.3806953     -0.97705785     18627.333    
    527000   0.92024861     0.0023323615  -0.0029102253   20.957057      19.590488      1.3665692     -0.90854139     18737.727    
    528000   0.90787046     0.0023323615   0.00036863589  20.987229      19.639041      1.3481876     -0.85220896     18937.846    
    529000   1.0095718      0.0023323615  -0.0016052458   21.204935      19.705721      1.4992141     -0.8595799      19122.94     
    530000   1.058412       0.0023323615   0.0039284948   20.958698      19.386957      1.5717418     -1.0771385      18862.928    
    531000   1.1413473      0.0023323615   0.0031863912   21.457403      19.762502      1.6949008     -0.76872193     18709.021    
    532000   1.0701636      0.0023323615  -0.0030004165   21.339817      19.750624      1.589193      -0.83541916     18866.821    
    533000   0.87676152     0.0023323615   0.0065593721   20.957394      19.655403      1.3019909     -1.001383       18768.546    
    534000   0.9375209      0.0023323615  -0.00012839256  20.962139      19.569921      1.3922185     -0.98143322     18746.159    
    535000   0.98274289     0.0023323615  -0.00057768719  21.166674      19.707301      1.4593732     -0.84849096     18697.743    
    536000   0.93585203     0.0023323615  -0.0017566167   21.102082      19.712342      1.3897403     -0.81997431     18776.618    
    537000   0.94893295     0.0023323615   0.00013403188  21.053741      19.644576      1.4091654     -0.80479686     18849.822    
    538000   0.99812356     0.0023323615  -0.00020946865  21.017637      19.535423      1.4822135     -0.93011834     18859.007    
    539000   1.0613406      0.0023323615  -0.00039228617  21.013638      19.437547      1.5760907     -0.97907367     18646.127    
    540000   1.1066671      0.0023323615   0.00305488     21.321739      19.678338      1.6434006     -0.88000455     18861.448    
    541000   1.0540407      0.0023323615  -0.0010674677   21.187695      19.622445      1.5652505     -0.85594529     18825.572    
    542000   0.87569894     0.0023323615  -0.0032761848   20.980216      19.679803      1.3004129     -0.85922188     18654.945    
    543000   1.0109627      0.0023323615  -0.0046285044   20.917151      19.415872      1.5012797     -1.1323944      18514.385    
    544000   1.029165       0.0023323615   0.0035810683   21.082482      19.554172      1.52831       -0.95835941     18613.907    
    545000   1.0931545      0.0023323615   0.002245128    21.180883      19.557549      1.6233344     -0.93394012     18834.783    
    546000   1.0193732      0.0023323615   0.0027993553   21.130124      19.616355      1.5137692     -0.97053858     18665.351    
    547000   0.85750855     0.0023323615  -0.00099913264  20.804545      19.531145      1.2734002     -0.9176758      18471.754    
    548000   1.0073834      0.0023323615  -0.00069695726  21.162342      19.666378      1.4959644     -0.92034003     18736.373    
    549000   1.0110321      0.0023323615  -0.0026289532   21.233605      19.732222      1.5013827     -0.84144412     18603.54     
    550000   1.0998213      0.0023323615   0.0033662251   21.002198      19.368964      1.6332346     -1.0209872      18633.519    
    551000   0.84135178     0.0023323615  -0.0011003739   20.881469      19.632061      1.2494074     -0.89718647     18654.767    
    552000   0.92700064     0.0023323615   0.00031491968  20.888558      19.511962      1.3765959     -0.90624815     18688.084    
    553000   0.9983125      0.0023323615  -0.00056316654  21.000382      19.517888      1.4824941     -0.9842157      18592.642    
    554000   0.96085584     0.0023323615  -0.0019749069   20.903796      19.476925      1.4268709     -1.0462466      18658.652    
    555000   1.0568525      0.0023323615   0.00093549051  21.146109      19.576683      1.5694259     -0.89036945     19177.764    
    556000   0.9879337      0.0023323615  -0.00203902     21.11289       19.645808      1.4670815     -0.91558876     19481.509    
    557000   0.96803937     0.0023323615   0.0048209039   21.054035      19.616497      1.4375385     -0.83251464     19061.994    
    558000   1.0539774      0.0023323615   0.00069822947  21.269875      19.704718      1.5651565     -0.84416629     19565.788    
    559000   0.87480489     0.0023323615   0.0019436057   20.729484      19.430399      1.2990853     -0.95607862     19848.899    
    560000   0.97256711     0.0023323615   0.0015707305   21.020561      19.576299      1.4442622     -1.0174335      19567.675    
    561000   1.0787573      0.0023323615   0.0052216351   21.234678      19.632724      1.6019546     -0.92167849     19112.936    
    562000   0.9396432      0.0023323615  -0.00074935464  21.033849      19.638479      1.3953702     -0.86976216     18887.618    
    563000   1.0272125      0.0023323615   0.0005107882   21.086185      19.560774      1.5254106     -0.92478249     18849.836    
    564000   1.0019435      0.0023323615  -0.0048831712   21.305773      19.817887      1.487886      -0.73269836     18894.307    
    565000   1.0920664      0.0023323615   0.001587963    21.31778       19.696062      1.6217186     -0.82438489     18722.55     
    566000   0.99338272     0.0023323615   0.0014083222   20.978602      19.503429      1.4751733     -1.0214801      18652.295    
    567000   1.0018282      0.0023323615  -0.00071006973  21.384925      19.897211      1.4877149     -0.74901896     18674.532    
    568000   0.98259039     0.0023323615   0.004604446    21.112764      19.653617      1.4591467     -0.94136384     19409.745    
    569000   1.0141743      0.0023323615   0.0014159962   21.22174       19.715691      1.5060488     -0.89742717     19863.241    
    570000   0.97812289     0.0023323615   0.004354156    21.031332      19.57882       1.4525125     -0.9348975      19505.029    
    571000   1.0356249      0.0023323615   0.0063763183   20.923312      19.385409      1.5379029     -1.0832554      18859.007    
    572000   0.94366944     0.0023323615   0.0011749567   21.044132      19.642783      1.4013491     -0.7759869      18760.56     
    573000   0.86226595     0.0023323615   0.00036011534  20.811127      19.530662      1.2804649     -0.9464481      18853.692    
    574000   1.0321061      0.0023323615  -0.00027203517  21.025157      19.492479      1.5326776     -1.0598363      18726.945    
    575000   1.0094146      0.0023323615   0.0015733782   21.069289      19.570308      1.4989807     -0.85295461     18587.593    
    576000   1.046692       0.0023323615  -0.0019472095   21.379292      19.824955      1.5543376     -0.64938552     19121.119    
    577000   0.95786663     0.0023323615  -0.001106303    21.158016      19.735584      1.4224319     -0.72116986     19770.463    
    578000   0.97828285     0.0023323615  -0.0015633335   21.285998      19.833248      1.45275       -0.74842163     19450.735    
    579000   0.87187959     0.0023323615   0.00081182304  21.08012       19.785378      1.2947412     -0.73821902     19685.635    
    580000   0.97388998     0.0023323615  -0.0059813008   20.824011      19.377785      1.4462266     -1.0771468      19532.152    
    581000   0.92468386     0.0023323615   0.0017351941   21.063748      19.690592      1.3731555     -0.84086655     19533.44     
    582000   0.97508939     0.0023323615  -0.0034637816   21.045728      19.59772       1.4480078     -0.92997439     19061.037    
    583000   0.91740555     0.0023323615  -0.0045774022   21.030521      19.668174      1.3623472     -0.90662226     18694.777    
    584000   1.0274502      0.0023323615  -0.0017618354   21.173369      19.647605      1.5257636     -0.93532684     18756.713    
    585000   0.93313399     0.0023323615  -0.001792376    20.994472      19.608768      1.385704      -0.92752014     18829.151    
    586000   1.0217379      0.0023323615  -0.00030835122  20.792999      19.275718      1.5172807     -1.254497       18531.734    
    587000   1.0043591      0.0023323615  -0.0043487091   20.901965      19.410492      1.4914733     -1.183016       18464.103    
    588000   0.81381611     0.0023323615  -0.0038109384   20.527165      19.318648      1.2085169     -1.0472867      18676.845    
    589000   1.0381574      0.0023323615   0.00012391077  20.671011      19.129347      1.5416637     -1.2975167      18568.619    
    590000   1.0070788      0.0023323615   0.00070861676  20.864051      19.368539      1.495512      -1.1200596      18437.074    
    591000   1.0151621      0.0023323615   0.0013980255   20.574995      19.06748       1.5075157     -1.3300656      18432.093    
    592000   1.0254734      0.0023323615  -0.001173677    20.835379      19.312551      1.522828      -1.2949217      18435.705    
    593000   1.1343421      0.0023323615   0.001512996    21.17664       19.492142      1.684498      -1.1219127      18607.334    
    594000   0.99125739     0.0023323615  -0.001312698    21.066263      19.594245      1.4720172     -1.0474003      18703.332    
    595000   1.0548756      0.0023323615  -0.001683504    20.813288      19.246798      1.5664902     -1.2779645      18682.299    
    596000   0.98482576     0.0023323615   0.00059417351  21.20616       19.743694      1.4624663     -0.91332589     18633.165    
    597000   0.95445032     0.0023323615  -0.0011976987   21.028001      19.610642      1.4173587     -0.89497209     18845.74     
    598000   0.92888373     0.0023323615  -0.00056265543  20.771303      19.39191       1.3793923     -1.0643559      18878.422    
    599000   1.0620735      0.0023323615   0.00093300691  21.441478      19.864299      1.5771791     -0.70932791     19613.837    
    600000   0.95900188     0.0023323615   0.00065161922  21.14512       19.721002      1.4241178     -0.69860399     20955.373    
    601000   0.99514112     0.0023323615   0.00046478474  21.006626      19.528841      1.4777846     -0.89945515     21631.25     
    602000   0.94994781     0.0023323615   0.0017749185   21.009788      19.599115      1.4106725     -0.84686337     20859.495    
    603000   0.92952349     0.0023323615  -0.00058061877  21.166643      19.786301      1.3803424     -0.76586426     19200.433    
    604000   0.99556554     0.0023323615  -0.0037436534   21.130668      19.652253      1.4784148     -0.93585256     18817.742    
    605000   0.96568126     0.0023323615   0.004286436    21.042596      19.60856       1.4340367     -0.88619227     18803.703    
    606000   1.0068061      0.0023323615  -0.0049173671   21.086847      19.59174       1.495107      -0.8692675      18910.502    
    607000   0.94312131     0.0023323615  -0.00081934057  20.950555      19.55002       1.4005352     -0.9132416      18784.286    
    608000   0.80128566     0.0023323615  -0.0016070058   20.983732      19.793823      1.1899092     -0.79038677     19174.805    
    609000   1.0332429      0.0023323615  -0.0018641403   21.247854      19.713489      1.5343656     -0.8507587      19451.441    
    610000   0.75313714     0.0023323615   0.0025091511   20.575653      19.457244      1.1184086     -1.0446702      19289.511    
    611000   0.95887538     0.0023323615  -0.00089562207  21.037071      19.613142      1.4239299     -0.94108892     18873.535    
    612000   0.96926929     0.0023323615  -0.0039651479   20.977076      19.537711      1.4393649     -1.0432317      18859.795    
    613000   0.99887933     0.0023323615   0.002752747    20.97764       19.494304      1.4833358     -0.9355835      18818.121    
    614000   0.93408368     0.0023323615   0.00064940093  21.037523      19.650408      1.3871143     -0.87130584     18724.099    
    615000   1.0201688      0.0023323615   0.0022427311   21.147795      19.632844      1.5149507     -0.84698399     18963.565    
    616000   0.91494129     0.0023323615   0.00055694508  21.069986      19.711298      1.3586878     -0.87722746     18760.94     
    617000   0.94870341     0.0023323615   0.0030076445   20.988033      19.579208      1.4088246     -0.9894836      19172.021    
    618000   1.0101059      0.0023323615  -0.0029547745   21.015881      19.515874      1.5000072     -1.0514387      19359.239    
    619000   0.93351264     0.0023323615   0.001044307    21.068321      19.682055      1.3862663     -0.90374163     18809.373    
    620000   0.87686763     0.0023323615  -0.0014283858   20.910301      19.608152      1.3021484     -0.84710244     18789.983    
    621000   1.0421783      0.0023323615  -0.0007385083   21.254672      19.707037      1.5476347     -0.84153982     18671.761    
    622000   1.0045035      0.0023323615   0.0019404754   21.051323      19.559636      1.4916877     -0.97874367     18657.012    
    623000   1.0272364      0.0023323615  -0.00088129272  21.187323      19.661877      1.525446      -0.87684544     18669.984    
    624000   0.97330538     0.0023323615  -0.0022956043   21.05775       19.612391      1.4453585     -0.99951439     18511.099    
    625000   0.94514488     0.0023323615   5.3584966e-05  20.989499      19.585959      1.4035401     -0.92958151     18850.118    
    626000   1.0658363      0.0023323615  -0.00085699983  21.092096      19.509329      1.5827669     -1.043706       19510.096    
    627000   1.0499281      0.0023323615   0.0070773018   21.212401      19.653258      1.5591432     -0.97892624     21079.294    
    628000   1.1338336      0.0023323615  -0.003751311    21.363792      19.680049      1.6837429     -0.91358303     20681.237    
    629000   1.1153211      0.0023323615  -0.0016223522   21.289721      19.633469      1.6562519     -0.89223582     19541.166    
    630000   1.0534496      0.0023323615  -0.001159856    21.054709      19.490336      1.5643727     -1.0730798      18787.012    
    631000   1.1643968      0.0023323615  -0.0024886389   21.258626      19.529497      1.7291292     -1.0619391      18572.731    
    632000   1.0056056      0.0023323615  -0.0034812422   21.010723      19.517399      1.4933243     -1.0593289      18618.671    
    633000   0.94333674     0.0023323615  -0.00042386206  21.097377      19.696522      1.4008551     -0.94888475     18543.312    
    634000   0.8568069      0.0023323615  -0.0030140607   20.82761       19.555252      1.2723583     -1.0130357      18677.247    
    635000   1.0225711      0.0023323615   0.0026240945   20.861609      19.343091      1.518518      -1.1224713      18596.14     
    636000   0.87897703     0.0023323615   0.00027437773  20.645646      19.340365      1.3052809     -1.2045581      18688.627    
    637000   0.99579992     0.0023323615   0.00086000809  20.879049      19.400287      1.4787629     -1.1445119      18478.57     
    638000   1.1073789      0.0023323615   0.00050545152  20.95159       19.307133      1.6444577     -1.2235018      18509.472    
    639000   1.0970502      0.0023323615  -0.0031199291   20.966616      19.337496      1.6291196     -1.1850377      18511.315    
    640000   1.0033609      0.0023323615   0.0014516971   21.116268      19.626277      1.4899909     -0.82093333     18633.304    
    641000   1.0271517      0.0023323615   0.0039662492   20.849427      19.324107      1.5253203     -1.0566782      18715.199    
    642000   0.91809253     0.0023323615  -0.0045798604   20.834881      19.471514      1.3633674     -0.98352715     18597.921    
    643000   0.99356438     0.0023323615   0.0010529227   21.184866      19.709423      1.4754431     -0.88960592     18546.014    
    644000   1.016995       0.0023323615  -0.0014968668   21.327297      19.81706       1.5102376     -0.84307806     18708.436    
    645000   1.0876469      0.0023323615   0.00048298295  21.024834      19.409679      1.6151556     -1.0594149      18509.263    
    646000   0.99112968     0.0023323615   0.0013054184   20.815099      19.343271      1.4718276     -1.0295652      18655.879    
    647000   0.95151962     0.0023323615  -0.0017752515   21.04772       19.634713      1.4130066     -0.82874478     19078.966    
    648000   1.0145732      0.0023323615  -0.0025459642   20.94138       19.434739      1.5066412     -1.0879132      18793.712    
    649000   1.0596451      0.0023323615   0.00011377594  21.085843      19.51227       1.573573      -1.0270736      18381.417    
    650000   1.0065411      0.0023323615   0.0051524312   21.301576      19.806863      1.4947135     -0.8015954      18758.624    
    651000   1.0591512      0.0023323615   0.002690954    21.297068      19.724229      1.5728396     -0.87776071     19003.526    
    652000   1.0029415      0.0023323615  -0.0023521377   20.911111      19.421742      1.4893682     -1.129651       18681.271    
    653000   1.1386249      0.0023323615  -0.0013299074   21.183563      19.492706      1.690858      -1.0299129      18865.463    
    654000   0.96819947     0.0023323615   0.002882266    20.86288       19.425103      1.4377762     -1.0900624      18765.769    
    655000   0.91569481     0.0023323615   0.0021186983   21.050653      19.690846      1.3598068     -0.86361382     18734.991    
    656000   0.91175484     0.0023323615  -0.0043707267   21.315205      19.961249      1.3539559     -0.61401066     19059.802    
    657000   1.1160167      0.0023323615   0.0049408114   21.278311      19.621026      1.6572848     -0.79665703     19257.456    
    658000   1.0335636      0.0023323615  -0.00070370342  21.124146      19.589304      1.5348419     -0.96233791     18773.415    
    659000   1.0975107      0.0023323615   0.0013154166   21.277004      19.647201      1.6298033     -0.95416938     18647.786    
    660000   1.0476724      0.0023323615  -0.0021044322   21.28017       19.724376      1.5557934     -0.87571701     18861.153    
    661000   1.0338964      0.0023323615   0.00036657206  21.290982      19.755645      1.5353362     -0.91160212     19291.148    
    662000   0.81312055     0.0023323615  -0.0013909484   20.918126      19.710642      1.207484      -0.8127574      19915.569    
    663000   0.92426882     0.0023323615   0.00011733838  21.127928      19.755389      1.3725392     -0.77132688     19807.932    
    664000   0.89981828     0.0023323615  -0.0030805766   21.128258      19.792028      1.3362302     -0.58235933     19631.089    
    665000   1.0016057      0.0023323615  -0.00048129542  21.242062      19.754677      1.4873845     -0.81529558     19263.473    
    666000   1.1212951      0.0023323615  -0.0044872989   21.453731      19.788608      1.6651233     -0.72927738     19208.925    
    667000   0.928795       0.0023323615   0.00084593297  21.229266      19.850005      1.3792606     -0.64650355     19724.665    
    668000   0.89460802     0.0023323615   0.0014498596   21.250761      19.922268      1.3284929     -0.74976251     20170.323    
    669000   1.0533517      0.0023323615  -0.0010455482   21.299721      19.735494      1.5642273     -0.82274608     19244.023    
    670000   1.0987846      0.0023323615  -0.0018234645   21.223728      19.592033      1.6316951     -0.87279827     18797.35     
    671000   1.0127387      0.0023323615   0.00079165407  21.138155      19.634238      1.503917      -0.79811175     18976.021    
    672000   0.90644678     0.0023323615  -0.00238952     21.050169      19.704095      1.3460735     -0.79389258     20827.481    
    673000   1.1226466      0.0023323615  -0.0012793562   21.499999      19.832869      1.6671302     -0.75101522     22756.87     
    674000   1.0268394      0.0023323615   0.00045348957  21.047609      19.522752      1.5248565     -0.86171869     23368.628    
    675000   1.0412179      0.0023323615  -0.00081952705  21.223112      19.676903      1.5462086     -0.77730554     23354.757    
    676000   0.91032931     0.0023323615  -0.00075675872  21.02518       19.673341      1.351839      -0.81198509     22739.485    
    677000   0.89325687     0.0023323615  -0.003004189    20.992422      19.665935      1.3264865     -0.80291304     20787.449    
    678000   1.0395025      0.0023323615  -0.001658899    21.03263       19.488969      1.5436612     -0.95128608     19157.544    
    679000   0.97149013     0.0023323615   0.0053800203   21.19662       19.753957      1.4426629     -0.81494948     18727.25     
    680000   0.91133458     0.0023323615   0.0016275371   20.910043      19.556712      1.3533318     -1.0117871      18757.334    
    681000   1.0732463      0.0023323615   0.0010794032   21.183827      19.590056      1.5937708     -0.99345285     18825.433    
    682000   1.0952532      0.0023323615  -0.0013670703   21.122243      19.495792      1.626451      -1.0281749      19200.592    
    683000   1.0147112      0.0023323615   0.00049510077  21.21441       19.707564      1.5068462     -0.84785833     19206.027    
    684000   1.0829823      0.0023323615  -0.0010992012   21.349688      19.74146       1.6082287     -0.82885357     19463.954    
    685000   0.95391359     0.0023323615  -0.0025600852   21.216638      19.800076      1.4165617     -0.78435293     19554.438    
    686000   0.9461291      0.0023323615   0.00086122956  21.031283      19.626281      1.4050017     -0.93094388     19783.81     
    687000   0.92190484     0.0023323615   0.0017150365   21.076651      19.707622      1.3690287     -0.74684693     19854.719    
    688000   0.96851933     0.0023323615  -0.0037962635   21.199246      19.760995      1.4382512     -0.84384988     20374.813    
    689000   1.0403738      0.0023323615   0.000267573    21.008175      19.46322       1.5449551     -0.9467542      20603.561    
    690000   1.0217323      0.0023323615  -0.00220902     21.147542      19.630269      1.5172725     -0.9398741      20483.301    
    691000   1.1308061      0.0023323615   0.00095532852  21.171685      19.492438      1.679247      -0.90734883     19760.439    
    692000   0.93667778     0.0023323615   0.0022894202   21.105619      19.714652      1.3909665     -0.77352532     19805.429    
    693000   1.1536919      0.0023323615  -0.0013125711   21.245594      19.532361      1.7132324     -0.99841192     18997.562    
    694000   0.93340761     0.0023323615  -0.002985187    21.070076      19.683965      1.3861103     -0.97559586     18523.497    
    695000   0.94926454     0.0023323615   0.0020999742   21.090044      19.680387      1.4096578     -0.93818418     18753.426    
    696000   1.1391006      0.0023323615  -0.00063574381  21.352303      19.660738      1.6915644     -0.92204918     18657.821    
    697000   1.1496753      0.0023323615   0.0011375342   21.195242      19.487974      1.7072678     -0.98244291     18691.42     
    698000   1.1203656      0.0023323615   0.00049238716  21.140664      19.476921      1.6637429     -0.9827892      18595.146    
    699000   1.0732336      0.0023323615  -0.0025749914   21.236572      19.64282       1.5937519     -0.88738731     18681.369    
    700000   0.82737938     0.0023323615  -1.6714841e-06  20.815975      19.587316      1.2286584     -0.91550157     18712.81     
    701000   0.96254325     0.0023323615  -0.0020715385   20.971907      19.542531      1.4293767     -1.0394625      18536.346    
    702000   1.0082646      0.0023323615   0.0016225424   21.201976      19.704703      1.4972729     -0.81319164     18630.887    
    703000   0.9995261      0.0023323615  -0.0023174333   21.259649      19.775353      1.4842963     -0.82315832     18822.231    
    704000   0.90841445     0.0023323615  -0.0021652499   21.104088      19.755092      1.3489955     -0.8820764      18693.716    
    705000   0.98288876     0.0023323615   0.0013378079   21.101004      19.641414      1.4595898     -0.86431226     18708.65     
    706000   0.87914375     0.0023323615  -0.00086634955  20.842593      19.537065      1.3055285     -0.87454787     18739.018    
    707000   0.95025381     0.0023323615  -0.00022257227  20.973179      19.562052      1.4111269     -1.0155736      18774.039    
    708000   0.92978184     0.0023323615   0.0033182961   20.661585      19.280859      1.380726      -1.168131       18479.565    
    709000   0.87096848     0.0023323615   0.0018018536   20.776074      19.482686      1.2933882     -1.0095729      18486.29     
    710000   0.94527965     0.0023323615   0.00097073663  20.93521       19.531469      1.4037403     -0.95999299     18653.912    
    711000   0.88451171     0.0023323615   0.0026131784   21.147966      19.834466      1.3134999     -0.77150901     18773.612    
    712000   1.1248466      0.0023323615  -0.0005210808   21.228225      19.557827      1.6703973     -0.9101512      18811.316    
    713000   1.094632       0.0023323615   0.0027550214   21.155893      19.530365      1.6255285     -0.86621056     18701.187    
    714000   0.9934256      0.0023323615  -0.00059994655  21.026379      19.551142      1.475237      -0.92657494     18741.302    
    715000   0.96316456     0.0023323615  -0.0034830752   20.898786      19.468487      1.4302994     -1.0616884      18523.961    
    716000   1.0388892      0.0023323615  -0.0015541743   21.047315      19.504565      1.5427505     -0.97783204     18500.48     
    717000   1.1470287      0.0023323615  -0.0047516069   21.356419      19.653082      1.7033376     -0.98791748     18537.127    
    718000   0.95867581     0.0023323615  -0.0012593526   20.982643      19.55901       1.4236336     -0.97416288     18550.815    
    719000   1.0644382      0.0023323615   0.0022447046   21.307364      19.726673      1.5806907     -0.8826227      18665.738    
    720000   0.90714565     0.0023323615   0.0032429493   20.96117       19.614059      1.3471113     -1.0030025      18819.576    
    721000   0.94451561     0.0023323615   0.0022824743   20.844455      19.44185       1.4026057     -1.046445       18793.337    
    722000   0.94644049     0.0023323615  -0.0008436616   21.190863      19.785399      1.4054641     -0.85624142     18807.505    
    723000   0.95580692     0.0023323615  -0.0035666765   21.140079      19.720706      1.4193733     -0.86880062     18639.338    
    724000   0.93989731     0.0023323615  -0.004511491    21.029101      19.633354      1.3957475     -0.88704308     18732.522    
    725000   0.89693248     0.0023323615   0.0033516884   21.002407      19.670462      1.3319447     -0.92778275     18848.235    
    726000   0.96310179     0.0023323615  -0.0029153277   21.260878      19.830672      1.4302062     -0.7607614      19193.713    
    727000   0.76170401     0.0023323615  -3.4485195e-05  20.830837      19.699707      1.1311304     -0.87340117     19236.861    
    728000   0.89206179     0.0023323615   0.0015879288   20.886701      19.561989      1.3247118     -0.93059504     19254.644    
    729000   1.0340971      0.0023323615   0.0015031333   21.271515      19.735881      1.5356342     -0.79276928     19854.904    
    730000   0.95708497     0.0023323615   0.0012627301   20.95717       19.535898      1.4212712     -0.87413156     19661.751    
    731000   1.0929162      0.0023323615   0.0048106427   21.273232      19.650251      1.6229805     -0.92772325     19084.216    
    732000   1.1585686      0.0023323615   0.0005705565   21.45855       19.738076      1.7204744     -0.81869128     18737.435    
    733000   1.0817851      0.0023323615  -0.00050765944  21.149806      19.543355      1.6064509     -0.98753235     18863.637    
    734000   0.93494322     0.0023323615   0.0028764037   20.97165       19.58326       1.3883907     -0.89176681     19029.224    
    735000   1.0135393      0.0023323615   0.0015380783   21.217278      19.712172      1.5051058     -0.81246253     18910.119    
    736000   0.89217512     0.0023323615   0.0035810161   20.869358      19.544478      1.3248801     -0.94299849     18874.299    
    737000   0.99184636     0.0023323615  -0.0017725379   20.952938      19.480047      1.4728918     -1.0056652      18719.639    
    738000   0.88141179     0.0023323615  -0.00021537343  20.768388      19.459492      1.3088965     -1.0591067      18633.579    
    739000   0.993901       0.0023323615   0.00060257754  21.071015      19.595072      1.475943      -0.85073649     18681.557    
    740000   0.91438469     0.0023323615  -0.0030906328   20.829131      19.471269      1.3578613     -0.98742151     18716.957    
    741000   1.0258295      0.0023323615  -0.0025124679   21.189313      19.665956      1.5233568     -0.81006798     18816.486    
    742000   1.046147       0.0023323615   0.00069101247  21.145751      19.592223      1.5535283     -0.85802091     18938.655    
    743000   0.94675061     0.0023323615  -0.00074286538  21.006054      19.600129      1.4059247     -1.0064881      18879.726    
    744000   1.0387837      0.0023323615   0.0013794615   21.125621      19.583027      1.5425938     -0.93619773     18804.405    
    745000   1.0892274      0.0023323615   0.00057964792  21.489523      19.87202       1.6175027     -0.75894595     18890.985    
    746000   0.87077347     0.0023323615  -3.0311846e-06  20.979519      19.686421      1.2930986     -0.98400431     18770.869    
    747000   0.97358375     0.0023323615   5.2682808e-05  20.911388      19.465617      1.4457719     -0.90675882     19079.911    
    748000   0.9957715      0.0023323615   0.0049157323   21.184658      19.705937      1.4787207     -0.89814737     19194.832    
    749000   1.0036328      0.0023323615   0.0047102787   21.175503      19.685109      1.4903948     -0.89361        19075.637    
    750000   1.0181311      0.0023323615  -0.0011353045   21.156435      19.64451       1.5119247     -0.8088302      18876.487    
    751000   1.0974747      0.0023323615   0.00072814885  21.297916      19.668166      1.6297499     -0.8365791      19478.764    
    752000   1.1088746      0.0023323615   4.2814342e-05  21.29028       19.643602      1.6466787     -0.81130251     21139.582    
    753000   0.99530195     0.0023323615  -0.0004359938   20.955972      19.477948      1.4780234     -0.85356449     21871.606    
    754000   0.860249       0.0023323615  -0.003141909    21.174026      19.896556      1.2774698     -0.65426828     20681.332    
    755000   0.9292332      0.0023323615   0.00051016808  20.850056      19.470145      1.3799113     -1.0896847      19301.687    
    756000   0.86455706     0.0023323615  -0.0032127329   20.800708      19.516841      1.2838672     -1.036781       18641.179    
    757000   0.96367498     0.0023323615  -0.0022828822   20.960645      19.529588      1.4310573     -0.94933112     18701.208    
    758000   0.88904188     0.0023323615   0.00038400652  21.040512      19.720285      1.3202272     -0.80863178     18630.754    
    759000   0.97133955     0.0023323615   0.0013103667   20.824119      19.38168       1.4424392     -1.0269755      18753.908    
    760000   1.0198747      0.0023323615   0.002954908    21.218938      19.704424      1.514514      -0.8101667      18843.071    
    761000   0.997852       0.0023323615   0.0025812585   20.925612      19.443802      1.4818102     -0.96470169     18909.202    
    762000   0.99406652     0.0023323615   0.00036661978  21.005646      19.529457      1.4761888     -1.0567397      18826.544    
    763000   0.92301882     0.0023323615  -0.0047989427   20.898686      19.528004      1.3706829     -0.99743248     18989.56     
    764000   0.93035542     0.0023323615  -0.0033380235   20.999715      19.618137      1.3815778     -0.94513272     19826.921    
    765000   0.98053326     0.0023323615  -0.0011417238   21.13755       19.681458      1.4560919     -0.76955673     20991.648    
    766000   0.92747389     0.0023323615  -0.00016363655  21.150432      19.773133      1.3772987     -0.77418301     21424.266    
    767000   0.95004145     0.0023323615  -0.0020835342   21.133431      19.722619      1.4108116     -0.7495903      20962.851    
    768000   0.95187548     0.0023323615  -0.0016035147   21.19285       19.779315      1.4135351     -0.71331197     19978.185    
    769000   1.0056313      0.0023323615   0.0027492546   21.185342      19.691979      1.4933625     -0.78621041     19096.506    
    770000   0.83568813     0.0023323615   0.0013041636   20.664167      19.42317       1.2409969     -0.99579266     18817.369    
    771000   1.0138066      0.0023323615   0.0025625814   20.973372      19.46787       1.5055028     -0.9472653      18738.881    
    772000   1.027159       0.0023323615  -0.001229128    21.237932      19.712601      1.5253311     -0.92152222     18753.439    
    773000   0.86256134     0.0023323615   0.00035737027  21.049049      19.768145      1.2809036     -0.84884106     18898.539    
    774000   0.96608397     0.0023323615  -0.00044217746  20.919077      19.484442      1.4346347     -1.0625186      18760.172    
    775000   1.0511266      0.0023323615   0.0038119909   20.947007      19.386084      1.560923      -1.1132509      18713.715    
    776000   1.0336758      0.0023323615   0.0011377439   21.294747      19.759738      1.5350085     -0.73821804     18823.491    
    777000   0.98446793     0.0023323615  -0.0020913149   21.305758      19.843823      1.4619349     -0.70285277     20434.647    
    778000   0.90468344     0.0023323615  -0.0013220965   21.029016      19.685561      1.3434549     -0.79982411     22868.584    
    779000   1.0746273      0.0023323615  -0.0012000321   21.207604      19.611783      1.5958216     -0.84712238     22140.605    
    780000   1.0020004      0.0023323615  -0.00094883344  21.222069      19.734099      1.4879706     -0.70195273     19774.595    
    781000   1.0148359      0.0023323615   0.00012985126  21.092732      19.5857        1.5070313     -0.87699537     18947.909    
    782000   0.75050634     0.0023323615  -0.00085724506  20.784148      19.669646      1.1145019     -0.91187213     18684.425    
    783000   1.0968519      0.0023323615  -0.00050030002  21.32823       19.699405      1.628825      -0.81224375     18652.654    
    784000   1.0188489      0.0023323615   0.0020836091   21.085567      19.572576      1.5129907     -0.98295525     18678.883    
    785000   0.88325885     0.0023323615   0.00284338     20.800336      19.488697      1.3116394     -0.98588564     18459.046    
    786000   1.0099895      0.0023323615  -0.0027540374   20.970417      19.470582      1.4998344     -1.0896572      18494.848    
    787000   0.98424494     0.0023323615   0.0012962012   20.928413      19.46681       1.4616037     -0.99243281     18491.188    
    788000   1.0233751      0.0023323615  -0.0027527177   21.16435       19.644638      1.5197121     -0.93447445     18671.346    
    789000   0.8853767      0.0023323615  -0.0023725608   20.924963      19.610179      1.3147844     -0.954374       18799.113    
    790000   1.0979016      0.0023323615  -0.00084670943  21.160751      19.530368      1.6303839     -1.0480705      18752.33     
    791000   1.010436       0.0023323615   0.0025659918   21.258819      19.758322      1.5004974     -0.85876207     18967.583    
    792000   1.0432233      0.0023323615   0.0058249662   21.206503      19.657316      1.5491866     -0.84794073     18980.42     
    793000   0.97854415     0.0023323615   0.002801205    21.110641      19.657503      1.4531381     -0.86288402     19115.117    
    794000   1.042536       0.0023323615   0.00036481477  21.238411      19.690245      1.548166      -0.85552357     19048.632    
    795000   0.88089423     0.0023323615   9.3220188e-06  20.925016      19.616888      1.3081279     -0.93586854     18889.23     
    796000   1.0929216      0.0023323615   0.0025552656   21.302843      19.679854      1.6229886     -0.77509481     19135.797    
    797000   0.99840598     0.0023323615  -0.00076911911  21.237674      19.755041      1.4826329     -0.85462741     19966.104    
    798000   1.0580338      0.0023323615  -0.0017880518   21.403434      19.832254      1.5711802     -0.69793653     21453.198    
    799000   1.0918937      0.0023323615  -0.0017947703   21.378473      19.757011      1.6214622     -0.75216322     21993.983    
    800000   1.0024912      0.0023323615  -0.0034137005   21.064829      19.576129      1.4886994     -0.8182656      21948.129    
    801000   0.92344099     0.0023323615  -0.0018499373   20.892514      19.521204      1.3713099     -0.83176501     21112.19     
    802000   0.99000436     0.0023323615  -0.0028151723   21.494572      20.024416      1.4701565     -0.68509825     20179.363    
    803000   0.97935096     0.0023323615  -0.00065464146  21.077052      19.622715      1.4543362     -0.81799558     19279.466    
    804000   0.93639788     0.0023323615  -0.0016072546   20.832318      19.441767      1.3905508     -1.1328629      18808.309    
    805000   1.0106523      0.0023323615  -0.0045828642   21.070479      19.56966       1.5008187     -0.93352841     18529.219    
    806000   0.89522591     0.0023323615   7.4474696e-05  20.754717      19.425306      1.3294105     -1.0254395      18644.163    
    807000   0.98264973     0.0023323615   0.0013691663   20.857321      19.398086      1.4592348     -1.1290307      18548.933    
    808000   0.87537205     0.0023323615   0.0010035141   20.836918      19.536991      1.2999275     -0.99048941     18629.697    
    809000   1.0708869      0.0023323615  -0.0014882746   21.200862      19.610595      1.590267      -0.98353108     18587.036    
    810000   1.0251396      0.0023323615  -0.0010907365   20.847517      19.325184      1.5223323     -1.14121        18539.606    
    811000   1.0013753      0.0023323615   0.001037967    20.726471      19.239429      1.4870423     -1.2792202      18665.351    
    812000   0.93498492     0.0023323615  -0.0028958825   20.640664      19.252211      1.3884526     -1.1973559      18517.404    
    813000   0.9226635      0.0023323615  -0.0013948922   20.749311      19.379156      1.3701553     -1.0834803      18501.437    
    814000   1.1215277      0.0023323615  -9.8501543e-05  20.946868      19.2814        1.6654687     -1.2320185      18515.285    
    815000   0.95306321     0.0023323615   0.00032064946  21.03955       19.624251      1.4152989     -0.94257469     18632.754    
    816000   0.95195028     0.0023323615  -0.00051469614  20.797037      19.38339       1.4136462     -1.220273       18517.504    
    817000   1.1126075      0.0023323615  -0.0026022619   20.932667      19.280445      1.6522222     -1.2886056      18442.746    
    818000   1.0281236      0.0023323615  -0.00099537277  20.827484      19.30072       1.5267635     -1.2891692      18252.627    
    819000   1.1035153      0.0023323615   0.00024469909  20.939631      19.30091       1.6387202     -1.1517103      18402.5      
    820000   1.0431217      0.0023323615   0.00084721934  20.934651      19.385615      1.5490358     -1.0843864      18520.455    
    821000   1.061367       0.0023323615   0.00062703673  21.139186      19.563056      1.5761299     -1.0274855      18529.233    
    822000   1.0482481      0.0023323615  -0.00083653825  21.068172      19.511524      1.5566485     -1.0191676      18494.7      
    823000   0.87820816     0.0023323615  -0.0013930599   20.92499       19.620851      1.3041391     -1.0233579      18538.828    
    824000   1.046924       0.0023323615   0.00046679183  20.881124      19.326442      1.5546822     -1.0844898      18591.637    
    825000   0.94224282     0.0023323615   0.00031257194  20.840261      19.44103       1.3992306     -1.1665869      18528.937    
    826000   1.0220033      0.0023323615  -5.1755691e-06  20.865536      19.347862      1.5176748     -1.167859       18522.59     
    827000   1.0280618      0.0023323615   0.00050596846  20.963839      19.437168      1.5266718     -1.0665446      18451.211    
    828000   1.0175001      0.0023323615   0.00014480007  21.016066      19.505078      1.5109877     -1.0789505      18389.822    
    829000   1.0236974      0.0023323615  -0.002827906    20.796778      19.276587      1.5201907     -1.2427333      18466.863    
    830000   0.90182674     0.0023323615  -0.0019525874   20.934842      19.59563       1.3392127     -0.97018507     18511.291    
    831000   0.98379554     0.0023323615  -0.0020856201   20.954575      19.493638      1.4609364     -0.9716825      18685.754    
    832000   0.92502117     0.0023323615   0.0013169211   20.976479      19.602822      1.3736564     -1.0917609      18521.486    
    833000   1.0681714      0.0023323615   0.0012257394   21.198142      19.611907      1.5862345     -0.94574362     18564.123    
    834000   0.99622737     0.0023323615  -0.0020805345   21.146988      19.667591      1.4793976     -0.84088769     18754.592    
    835000   1.0792407      0.0023323615   0.0023624365   21.230641      19.627969      1.6026725     -0.98172664     18633.617    
    836000   0.87813577     0.0023323615  -0.0022291667   20.835815      19.531783      1.3040316     -0.98885566     18482.847    
    837000   0.95577422     0.0023323615  -0.00083697595  20.88003       19.460706      1.4193247     -1.0619265      18381.708    
    838000   1.0269031      0.0023323615   0.0010204397   20.668231      19.14328       1.5249511     -1.2781102      18463.16     
    839000   0.99469742     0.0023323615  -0.00034570339  21.026341      19.549215      1.4771257     -1.0482366      18400.736    
    840000   1.1039472      0.0023323615   0.0032257959   21.069126      19.429764      1.6393615     -1.0263345      18538.029    
    841000   1.1019205      0.0023323615   9.8992839e-05  20.918475      19.282123      1.6363519     -1.2113596      18516.281    
    842000   1.0785028      0.0023323615   0.00029294416  21.236213      19.634636      1.6015766     -0.85462238     18486.575    
    843000   1.0080915      0.0023323615   0.0036746325   21.023872      19.526856      1.4970159     -1.0357519      18693.67     
    844000   1.0707549      0.0023323615   0.00069426359  21.252114      19.662043      1.590071      -1.0007042      18660.78     
    845000   1.0227534      0.0023323615  -0.0022942897   20.972116      19.453327      1.5187888     -1.0918758      18513.424    
    846000   1.011631       0.0023323615  -0.0043041582   21.129277      19.627005      1.502272      -0.918016       18519.84     
    847000   0.97883126     0.0023323615  -0.00027574827  21.030204      19.576639      1.4535644     -0.97104039     18598.902    
    848000   1.0420058      0.0023323615   0.00077679041  21.059117      19.511739      1.5473787     -1.0073609      18641.329    
    849000   1.0316365      0.0023323615  -0.0031607164   21.062133      19.530152      1.5319802     -1.03152        18456.206    
    850000   1.0060685      0.0023323615   0.0021576696   21.120006      19.625995      1.4940117     -0.90921726     18643.132    
    851000   0.96574167     0.0023323615   0.00013938153  20.774221      19.340095      1.4341264     -1.0999651      18626.586    
    852000   1.0333085      0.0023323615  -0.00048162097  21.192726      19.658263      1.5344631     -0.87840508     18569.017    
    853000   0.97850702     0.0023323615   0.0038642549   21.167886      19.714803      1.4530829     -0.74480353     18818.309    
    854000   0.93865039     0.0023323615   0.00339611     20.950265      19.556369      1.3938958     -0.83888158     19451.391    
    855000   0.97985286     0.0023323615   0.0034970574   21.229982      19.7749        1.4550815     -0.84429697     20713.641    
    856000   0.94212463     0.0023323615  -0.0018822001   20.890297      19.491242      1.3990551     -1.0363469      20296.875    
    857000   1.0431798      0.0023323615  -0.0013217667   21.132066      19.582944      1.5491219     -0.85970141     19109.858    
    858000   1.060007       0.0023323615  -0.00056898549  21.089005      19.514894      1.5741104     -0.96116732     19157.471    
    859000   1.0378601      0.0023323615  -0.0012630156   21.224097      19.682875      1.5412222     -0.80517067     18997.396    
    860000   1.0953716      0.0023323615   0.0013644477   21.29807       19.671443      1.6266268     -0.77171114     18915.447    
    861000   1.1731575      0.0023323615  -0.0010279356   21.170226      19.428087      1.742139      -1.0418774      18793.956    
    862000   1.1038759      0.0023323615   0.0031386954   21.051805      19.412549      1.6392556     -1.1363112      18709.551    
    863000   1.1805724      0.0023323615   0.0023696825   20.864334      19.111185      1.75315       -1.4374551      18398.405    
    864000   1.0121859      0.0023323615  -0.0020654425   20.869378      19.366282      1.5030961     -1.2314464      18291.399    
    865000   0.95103629     0.0023323615  -0.003379224    20.944827      19.532538      1.4122889     -1.0293169      18633.715    
    866000   1.0000174      0.0023323615   0.0033677667   21.030659      19.545633      1.4850258     -0.98221542     18744.367    
    867000   0.94733864     0.0023323615   0.0016786737   20.922154      19.515356      1.4067979     -1.0356685      18654.226    
    868000   1.0467668      0.0023323615  -0.0030052272   21.162487      19.608038      1.5544486     -1.0049326      18905.595    
    869000   1.1581833      0.0023323615  -0.0035493384   21.258939      19.539037      1.7199023     -1.1246837      18523.328    
    870000   1.1003733      0.0023323615  -4.4308256e-05  20.932955      19.2989        1.6340544     -1.2787956      18517.284    
    871000   1.0717716      0.0023323615   0.0003572159   20.921055      19.329474      1.5915809     -1.1332756      18669.177    
    872000   1.0376614      0.0023323615  -0.0025411846   21.205383      19.664456      1.5409271     -0.86681931     18744.357    
    873000   0.98378124     0.0023323615  -0.00032403598  20.75361       19.292694      1.4609151     -1.1767835      18598.524    
    874000   0.98191045     0.0023323615  -0.0013312416   20.638919      19.180782      1.458137      -1.3748524      18398.938    
    875000   1.0744499      0.0023323615   0.0030099491   21.077509      19.481951      1.5955582     -0.99827054     18483.655    
    876000   0.95685266     0.0023323615   0.0013214412   20.845432      19.424506      1.4209262     -1.1007921      18676.475    
    877000   0.99187128     0.0023323615  -0.0016858352   20.766774      19.293845      1.4729288     -1.1650576      18581.548    
    878000   0.82873575     0.0023323615  -0.0016985986   20.731014      19.500342      1.2306726     -0.95463254     18572.68     
    879000   1.0406023      0.0023323615   0.0031157184   20.980221      19.434927      1.5452944     -0.93640688     18590.349    
    880000   0.89255803     0.0023323615  -0.0014880881   21.033276      19.707827      1.3254487     -0.80130149     18718.607    
    881000   1.0362235      0.0023323615   0.0015685858   21.292933      19.754141      1.5387919     -0.72815758     18942.845    
    882000   1.1009         0.0023323615  -0.0022492603   21.315676      19.68084       1.6348365     -0.84711066     19985.326    
    883000   0.91377788     0.0023323615   0.00025205989  20.827217      19.470257      1.3569602     -0.95791749     19720.916    
    884000   1.1490375      0.0023323615   0.00080073693  21.253297      19.546977      1.7063206     -1.0177304      19100.781    
    885000   1.0094543      0.0023323615  -0.0011626728   20.980573      19.481534      1.4990396     -1.0462669      18566.9      
    886000   0.94635082     0.0023323615  -0.0035376417   20.849147      19.443816      1.405331      -1.1620176      18560.018    
    887000   1.0134876      0.0023323615   0.0037256084   21.108958      19.603929      1.5050291     -0.98710694     18566.578    
    888000   1.0078983      0.0023323615   0.00032536326  21.018781      19.522052      1.496729      -1.1432447      18416.469    
    889000   0.9198314      0.0023323615  -0.0039187731   20.823601      19.457651      1.3659496     -1.0601294      18560.837    
    890000   1.0086244      0.0023323615   0.00076944826  20.841549      19.343742      1.4978073     -1.0502838      18496.811    
    891000   0.90355426     0.0023323615   0.00070900544  21.297816      19.956038      1.3417781     -0.72511066     18584.063    
    892000   1.0145549      0.0023323615  -0.00024361357  21.072389      19.565775      1.5066141     -1.0061881      18621.009    
    893000   1.0317826      0.0023323615  -0.0043485867   21.144777      19.61258       1.5321971     -0.9366835      18587.68     
    894000   1.1066346      0.0023323615   0.001889789    21.119446      19.476094      1.6433524     -1.0229286      18717.828    
    895000   1.1169257      0.0023323615  -0.0018588011   21.322393      19.663758      1.6586347     -0.84319558     18849.698    
    896000   0.93970366     0.0023323615  -9.4712422e-05  20.560713      19.165253      1.3954599     -1.245875       18804.869    
    897000   1.0452684      0.0023323615   0.0035845797   20.990434      19.43821       1.5522235     -1.067428       18714.511    
    898000   0.9426533      0.0023323615   0.001437114    20.884944      19.485104      1.3998402     -1.1304011      18557.52     
    899000   0.91620887     0.0023323615   0.0011077506   20.866183      19.505613      1.3605702     -0.9087692      18644.567    
    900000   1.0583602      0.0023323615  -0.0019160857   21.249279      19.677614      1.5716649     -0.84015726     18825.188    
    901000   1.1272991      0.0023323615   0.0026339777   21.212248      19.538209      1.6740392     -0.98088016     18778.073    
    902000   1.0443217      0.0023323615   0.0038681377   21.107878      19.55706       1.5508177     -0.96162437     18500.655    
    903000   1.0534075      0.0023323615   0.0013213448   21.04306       19.47875       1.5643102     -1.014569       18578.079    
    904000   0.9644369      0.0023323615   0.00099449036  20.749123      19.316935      1.4321888     -1.2601274      18521.263    
    905000   1.1177748      0.0023323615  -0.0024911102   21.024349      19.364453      1.6598956     -1.2366632      18530.643    
    906000   1.0061125      0.0023323615  -0.00046738964  20.997349      19.503272      1.4940771     -1.0494865      18610.891    
    907000   1.032799       0.0023323615   0.00012392847  21.143443      19.609736      1.5337065     -0.95225111     18613.775    
    908000   1.0809452      0.0023323615   0.00063732125  21.137871      19.532667      1.6052036     -1.0032568      18708.138    
    909000   0.88161054     0.0023323615  -0.0046711383   21.06843       19.759238      1.3091916     -0.76161976     19084.493    
    910000   0.88241483     0.0023323615   0.00074747786  21.000556      19.69017       1.310386      -0.84150766     19480.335    
    911000   1.0014703      0.0023323615   0.0021923005   20.959671      19.472488      1.4871833     -0.97375072     19343.008    
    912000   1.0073         0.0023323615  -0.0027341072   20.897958      19.402118      1.4958405     -1.0601047      18911.265    
    913000   0.90541947     0.0023323615   0.0010125078   20.92847       19.583922      1.3445479     -0.96231475     18775.76     
    914000   0.93207877     0.0023323615  -0.0015104883   20.93299       19.548853      1.384137      -0.97402549     19065.38     
    915000   0.98635089     0.0023323615  -0.0061531868   21.162514      19.697783      1.4647311     -0.91075847     19249.776    
    916000   1.0701798      0.0023323615   0.0010736877   20.896398      19.307181      1.589217      -1.1003065      18774.35     
    917000   1.181891       0.0023323615   0.0025282997   21.189503      19.434395      1.7551082     -1.0683961      18633.092    
    918000   1.0016625      0.0023323615  -0.0033578925   21.082896      19.595427      1.4874687     -0.8795387      18372.654    
    919000   0.98712821     0.0023323615  -0.0043345914   21.030536      19.564651      1.4658854     -0.95775614     18490.986    
    920000   1.090677       0.0023323615  -0.00041071714  20.915729      19.296074      1.6196554     -1.1517841      18302.169    
    921000   0.95993846     0.0023323615   0.0022277087   21.244872      19.819363      1.4255086     -0.70203263     18793.938    
    922000   1.2432271      0.0023323615  -0.0013046294   21.385327      19.539135      1.8461923     -0.97403642     18670.009    
    923000   1.0948271      0.0023323615   0.0018890413   21.255005      19.629186      1.6258182     -0.93307918     18611.658    
    924000   1.048414       0.0023323615   0.0057937424   21.115117      19.558222      1.5568948     -0.97834219     18747.99     
    925000   0.96711576     0.0023323615  -1.8729925e-06  21.002177      19.566011      1.4361669     -0.99124242     18638.882    
    926000   0.99921578     0.0023323615  -3.615935e-05   21.187618      19.703783      1.4838354     -0.7826656      19155.948    
    927000   1.0054879      0.0023323615   0.00092063632  21.302786      19.809637      1.4931495     -0.63762025     20302.548    
    928000   1.0993426      0.0023323615   0.0006974805   21.280415      19.647891      1.6325238     -0.79627189     20809.309    
    929000   1.0732615      0.0023323615   0.00067541204  21.266572      19.672779      1.5937933     -0.8675597      20107.016    
    930000   1.0289078      0.0023323615  -0.00097885458  21.026107      19.498179      1.5279281     -0.89969241     19213.096    
    931000   1.0072634      0.0023323615   0.0032496721   21.016571      19.520785      1.4957861     -1.0472308      18556.395    
    932000   0.81153762     0.0023323615   0.00030417031  20.525319      19.320185      1.2051334     -1.2764977      18453.77     
    933000   0.95606288     0.0023323615  -5.6634486e-05  20.651949      19.232196      1.4197534     -1.1247074      18486.171    
    934000   1.0404419      0.0023323615  -4.5735428e-05  20.609416      19.06436       1.5450562     -1.3237011      18391.673    
    935000   1.0238346      0.0023323615  -0.0015827843   20.928237      19.407843      1.5203943     -1.0719602      18337.336    
    936000   0.98268004     0.0023323615   0.0018132312   20.815138      19.355858      1.4592799     -1.117987       18579.241    
    937000   0.95427897     0.0023323615   0.0020501875   20.820411      19.403307      1.4171043     -1.0783851      18569.639    
    938000   1.0306121      0.0023323615   0.0016687972   21.059223      19.528764      1.5304589     -0.94044643     18582.911    
    939000   0.98704434     0.0023323615   0.0011787341   21.072316      19.606556      1.4657608     -0.8314817      18779.762    
    940000   0.93047181     0.0023323615   0.00233158     20.962415      19.580664      1.3817506     -0.89199681     19296.727    
    941000   1.1162813      0.0023323615   0.0059483941   21.385161      19.727483      1.6576777     -0.7862723      19402.678    
    942000   0.93995896     0.0023323615  -0.0060112469   21.102115      19.706275      1.3958391     -0.77433076     19045.848    
    943000   1.0417459      0.0023323615   0.00022367206  21.095894      19.548901      1.5469927     -1.028289       18606.44     
    944000   1.0920828      0.0023323615   0.0035713223   21.008743      19.387         1.6217429     -1.098301       18525.171    
    945000   0.92329234     0.0023323615   2.0548846e-05  21.103025      19.731936      1.3710891     -0.75388103     18923.323    
    946000   0.92433145     0.0023323615   0.0059748679   20.914712      19.54208       1.3726322     -0.81832372     19091.677    
    947000   1.0273725      0.0023323615   0.0016008371   20.954598      19.42895       1.5256482     -1.1619337      18842.951    
    948000   1.0267794      0.0023323615  -0.0021507708   21.128385      19.603617      1.5247674     -1.0132422      18691.665    
    949000   1.05554        0.0023323615  -0.0030174438   20.903708      19.336231      1.5674769     -1.0973907      19249.081    
    950000   0.89063964     0.0023323615   0.00086099988  20.850962      19.528363      1.3225999     -0.95103516     19762.082    
    951000   1.112399       0.0023323615  -0.00099865831  21.19573       19.543818      1.6519125     -0.9066439      19852.926    
    952000   0.8980878      0.0023323615  -0.00085774353  20.998443      19.664782      1.3336604     -0.90207213     19212.356    
    953000   1.0078193      0.0023323615  -7.2029163e-05  20.977944      19.481333      1.4966117     -1.1163476      18976.858    
    954000   0.96593728     0.0023323615   6.0258983e-05  21.114229      19.679812      1.4344169     -0.99337743     18758.021    
    955000   1.108912       0.0023323615  -0.00088061569  21.054816      19.408081      1.6467343     -1.0862272      18818.632    
    956000   1.0864624      0.0023323615   0.00032524732  21.308822      19.695425      1.6133966     -0.93838317     18947.474    
    957000   0.9221223      0.0023323615  -2.0658529e-05  21.211839      19.842487      1.3693516     -0.74025905     19114.601    
    958000   0.93193943     0.0023323615  -0.0016054351   20.922164      19.538234      1.38393       -1.0014465      18772.772    
    959000   1.0013535      0.0023323615  -0.0024382865   21.022437      19.535427      1.48701       -0.93556149     18559.667    
    960000   1.0675632      0.0023323615  -0.0027927041   21.101537      19.516206      1.5853314     -1.0453418      18485.407    
    961000   1.0667455      0.0023323615  -0.0017607508   21.060533      19.476416      1.5841171     -1.1678539      18344.211    
    962000   0.85613871     0.0023323615   0.0020532381   20.757167      19.485801      1.271366      -1.0022643      18512.441    
    963000   0.87723052     0.0023323615  -0.002918179    20.809946      19.507258      1.3026873     -1.0786002      18520.249    
    964000   0.93064819     0.0023323615   0.00069840712  20.744708      19.362696      1.3820126     -1.0449717      18654.077    
    965000   0.92102995     0.0023323615   0.0047280109   20.894277      19.526547      1.3677295     -1.015388       18871.54     
    966000   0.95585992     0.0023323615   0.0022420928   20.843509      19.424057      1.419452      -0.99529201     18658.331    
    967000   0.93977133     0.0023323615  -0.004949122    21.011057      19.615496      1.3955604     -0.95515858     18494.635    
    968000   1.0330107      0.0023323615   0.00042572398  21.053635      19.519614      1.5340208     -1.0653821      18562.148    
    969000   1.0963876      0.0023323615   0.00080227085  21.022603      19.394467      1.6281356     -1.0759128      18756.22     
    970000   0.90177021     0.0023323615  -0.0027633224   20.922822      19.583693      1.3391288     -0.95840094     19083.727    
    971000   0.84018045     0.0023323615  -3.851771e-05   20.743062      19.495394      1.247668      -0.98790687     18653.86     
    972000   1.019374       0.0023323615   0.0021578495   20.864834      19.351064      1.5137705     -1.0430999      18550.036    
    973000   1.0058444      0.0023323615  -0.0019708799   21.050517      19.556838      1.493679      -0.88379463     18631.119    
    974000   0.9624341      0.0023323615   0.0019582748   21.177318      19.748103      1.4292146     -0.77305134     18673.543    
    975000   1.1436328      0.0023323615   0.0012992155   21.529318      19.831023      1.6982947     -0.72986092     18850.381    
    976000   0.97488956     0.0023323615  -0.00342244     21.128901      19.68119       1.447711      -0.75166185     18691.647    
    977000   0.95121519     0.0023323615  -0.0011955709   20.958888      19.546333      1.4125546     -0.95988077     18713.873    
    978000   0.93603399     0.0023323615  -0.0026492912   20.970609      19.580598      1.3900105     -0.88624179     18569.846    
    979000   0.97736419     0.0023323615  -0.0011871983   20.963398      19.512012      1.4513858     -1.0476043      18771.579    
    980000   1.0834463      0.0023323615   0.0045030589   21.192285      19.583367      1.6089178     -1.0071215      18877.855    
    981000   1.029804       0.0023323615  -0.00029089098  21.214469      19.68521       1.529259      -0.89468652     19722.861    
    982000   0.94712151     0.0023323615  -0.00076498374  21.267882      19.861406      1.4064754     -0.68430268     21960.303    
    983000   1.0013689      0.0023323615  -0.0014675221   21.449148      19.962115      1.4870328     -0.67222149     23467.837    
    984000   0.9457941      0.0023323615  -3.3571644e-05  21.18764       19.783135      1.4045042     -0.822811       21967.108    
    985000   1.0214587      0.0023323615  -0.0032339529   21.313524      19.796658      1.5168661     -0.78103694     20380.53     
    986000   0.99621841     0.0023323615  -0.002223397    21.067318      19.587934      1.4793843     -1.0091118      19158.254    
    987000   1.1263759      0.0023323615  -0.0020496134   21.355475      19.682807      1.6726682     -0.74568435     18799.651    
    988000   1.0794464      0.0023323615   0.00064586896  21.196002      19.593024      1.6029779     -0.94690116     18681.495    
    989000   1.0635435      0.0023323615  -0.0022418109   20.836042      19.25668       1.5793621     -1.198612       18746.772    
    990000   0.92434584     0.0023323615  -0.0010848094   20.736729      19.364076      1.3726536     -1.0756818      18715.375    
    991000   1.0959587      0.0023323615  -0.0026718908   21.242701      19.615203      1.6274986     -1.0139556      18643.233    
    992000   1.0234366      0.0023323615   0.0030325411   21.128967      19.609164      1.5198034     -0.99104368     18684.834    
    993000   1.005402       0.0023323615  -0.0043808187   21.210153      19.717131      1.4930219     -0.80805291     18688.501    
    994000   1.0270506      0.0023323615   5.7363468e-05  21.069387      19.544217      1.5251702     -0.87407984     18683.715    
    995000   1.1145013      0.0023323615   0.00060972619  21.032285      19.377251      1.6550345     -1.1115248      18442.545    
    996000   0.98387787     0.0023323615   0.0026489776   20.880887      19.419828      1.4610586     -1.1177345      18387.797    
    997000   0.93085608     0.0023323615   0.0028513488   20.862966      19.480645      1.3823213     -1.0021044      18431.882    
    998000   0.952192       0.0023323615  -0.00022900641  20.846867      19.432862      1.4140051     -1.0295254      18445.742    
    999000   0.88292363     0.0023323615  -0.0017717706   20.942585      19.631444      1.3111416     -1.0030538      18681.959    
   1000000   1.1143177      0.0023323615   0.0045532478   20.914069      19.259307      1.6547618     -1.2335643      18628.998    
Loop time of 52.5967 on 1 procs for 1000000 steps with 100 atoms

Performance: 8213436.457 tau/day, 19012.584 timesteps/s
99.4% CPU use with 1 MPI tasks x 1 OpenMP threads

MPI task timing breakdown:
Section |  min time  |  avg time  |  max time  |%varavg| %total
---------------------------------------------------------------
Pair    | 43.542     | 43.542     | 43.542     |   0.0 | 82.78
Bond    | 1.2678     | 1.2678     | 1.2678     |   0.0 |  2.41
Neigh   | 3.8502     | 3.8502     | 3.8502     |   0.0 |  7.32
Comm    | 1.3797     | 1.3797     | 1.3797     |   0.0 |  2.62
Output  | 0.25278    | 0.25278    | 0.25278    |   0.0 |  0.48
Modify  | 1.9495     | 1.9495     | 1.9495     |   0.0 |  3.71
Other   |            | 0.3553     |            |       |  0.68

Nlocal:            100 ave         100 max         100 min
Histogram: 1 0 0 0 0 0 0 0 0 0
Nghost:            286 ave         286 max         286 min
Histogram: 1 0 0 0 0 0 0 0 0 0
Neighs:           4851 ave        4851 max        4851 min
Histogram: 1 0 0 0 0 0 0 0 0 0

Total # of neighbors = 4851
Ave neighs/atom = 48.51
Ave special neighs/atom = 1.98
Neighbor list builds = 97917
Dangerous builds = 80178

write_data      ${outputfile_assembled} nofix nocoeff
write_data      7_assembled.data nofix nocoeff
System init for write_data ...
Generated 0 of 6 mixed pair_coeff terms from geometric mixing rule

Total wall time: 0:00:53
