LAMMPS (23 Jun 2022 - Update 1)
OMP_NUM_THREADS environment is not set. Defaulting to 1 thread. (src/comm.cpp:98)
  using 1 OpenMP thread(s) per MPI task


variable        runtime equal 1000000
variable		subsample_rate equal 1000

variable		outputfile_created string '3_created.data'
variable		outputfile_relaxed string '5_relaxed.data'
variable		outputfile_selfasb string '6_a_self_assemble.lammpstrj'
variable		outputfile_trajlin string '6_b_trajlin.data'
variable		outputfile_assembled string '7_assembled.data'

units           lj
atom_style      full
dimension       3
boundary        p p p
timestep        0.005

read_data       ${outputfile_created}
read_data       3_created.data
Reading data file ...
  orthogonal box = (0 0 0) to (35 35 35)
  1 by 1 by 1 MPI processor grid
  reading atoms ...
  100 atoms
  reading velocities ...
  100 velocities
  scanning bonds ...
  1 = max bonds/atom
  reading bonds ...
  99 bonds
Finding 1-2 1-3 1-4 neighbors ...
  special bond factors lj:    0        0        0       
  special bond factors coul:  0        0        0       
     2 = max # of 1-2 neighbors
     2 = max # of 1-3 neighbors
     4 = max # of 1-4 neighbors
     6 = max # of special neighbors
  special bonds CPU = 0.000 seconds
  read_data CPU = 0.006 seconds

bond_style      fene
bond_coeff      * 30.0 1.5 1.0 1.0
special_bonds   fene
Finding 1-2 1-3 1-4 neighbors ...
  special bond factors lj:    0        1        1       
  special bond factors coul:  0        1        1       
     2 = max # of 1-2 neighbors
     6 = max # of special neighbors
  special bonds CPU = 0.000 seconds

variable        Temp equal 1.0
variable        velSeed equal 926458

velocity        all create ${Temp} ${velSeed}
velocity        all create 1 ${velSeed}
velocity        all create 1 926458

### Output
thermo_style    custom step temp density press etotal pe ke epair spcpu
thermo          1000

###########################################################################
# Soft relaxation (to remove overlaps of particles)
######################################################################

pair_style      soft 1.0
pair_coeff      * * 0.0
variable        prefactor equal ramp(0,300)
fix             rampSoft all adapt 1 pair soft a * * v_prefactor

minimize        0.0 1.0e-8 1000 100000
WARNING: Using 'neigh_modify every 1 delay 0 check yes' setting during minimization (src/min.cpp:187)
Generated 0 of 6 mixed pair_coeff terms from geometric mixing rule
Neighbor list info ...
  update every 1 steps, delay 0 steps, check yes
  max neighbors/atom: 2000, page size: 100000
  master list distance cutoff = 1.3
  ghost atom cutoff = 1.3
  binsize = 0.65, bins = 54 54 54
  1 neighbor lists, perpetual/occasional/extra = 1 0 0
  (1) pair soft, perpetual
      attributes: half, newton on
      pair build: half/bin/newton
      stencil: half/bin/3d
      bin: standard
WARNING: Communication cutoff 1.3 is shorter than a bond length based estimate of 1.7550000000000001. This may lead to errors. (src/comm.cpp:727)
Per MPI rank memory allocation (min/avg/max) = 8.346 | 8.346 | 8.346 Mbytes
   Step          Temp         Density         Press          TotEng         PotEng         KinEng         E_pair         S/CPU     
         0   1              0.0023323615  -0.0039617958   21.524174      20.039174      1.485          0              0            
       362   1              0.0023323615   0.0023090379   21.485548      20.000548      1.485          0              66421.592    
Loop time of 0.00545247 on 1 procs for 362 steps with 100 atoms

99.2% CPU use with 1 MPI tasks x 1 OpenMP threads

Minimization stats:
  Stopping criterion = force tolerance
  Energy initial, next-to-last, final = 
      20.0391741078675   20.0005480767337   20.0005480767337
  Force two-norm initial, final = 11.878422 7.9509778e-09
  Force max component initial, final = 6.6117807 1.3572772e-09
  Final line search alpha, max atom move = 1 1.3572772e-09
  Iterations, force evaluations = 362 738

MPI task timing breakdown:
Section |  min time  |  avg time  |  max time  |%varavg| %total
---------------------------------------------------------------
Pair    | 0.00021966 | 0.00021966 | 0.00021966 |   0.0 |  4.03
Bond    | 0.0023254  | 0.0023254  | 0.0023254  |   0.0 | 42.65
Neigh   | 0.0017077  | 0.0017077  | 0.0017077  |   0.0 | 31.32
Comm    | 0.00019134 | 0.00019134 | 0.00019134 |   0.0 |  3.51
Output  | 0          | 0          | 0          |   0.0 |  0.00
Modify  | 0          | 0          | 0          |   0.0 |  0.00
Other   |            | 0.001008   |            |       | 18.49

Nlocal:            100 ave         100 max         100 min
Histogram: 1 0 0 0 0 0 0 0 0 0
Nghost:             20 ave          20 max          20 min
Histogram: 1 0 0 0 0 0 0 0 0 0
Neighs:              0 ave           0 max           0 min
Histogram: 1 0 0 0 0 0 0 0 0 0

Total # of neighbors = 0
Ave neighs/atom = 0
Ave special neighs/atom = 1.98
Neighbor list builds = 17
Dangerous builds = 0

fix             nvtSoft all nvt temp ${Temp} ${Temp} 0.5
fix             nvtSoft all nvt temp 1 ${Temp} 0.5
fix             nvtSoft all nvt temp 1 1 0.5
run             100000
Generated 0 of 6 mixed pair_coeff terms from geometric mixing rule
WARNING: Communication cutoff 1.3 is shorter than a bond length based estimate of 1.7550000000000001. This may lead to errors. (src/comm.cpp:727)
Per MPI rank memory allocation (min/avg/max) = 7.221 | 7.221 | 7.221 Mbytes
   Step          Temp         Density         Press          TotEng         PotEng         KinEng         E_pair         S/CPU     
       362   1              0.0023323615   0.0023090379   21.485548      20.000548      1.485          0              0            
      1000   0.90989032     0.0023323615  -0.0021940042   21.776974      20.425787      1.3511871      0.00036425437  76746.146    
      2000   0.86546688     0.0023323615   0.0034714157   21.677128      20.39191       1.2852183      0.0025814786   77035.05     
      3000   0.98199538     0.0023323615   0.0028144228   21.866132      20.407869      1.4582631      0.0011756043   74001.509    
      4000   1.004495       0.0023323615  -0.0014058211   21.945624      20.453949      1.4916751      0.011986179    74584.775    
      5000   1.1222705      0.0023323615   0.0044495116   21.986385      20.319813      1.6665718      0.0050317639   75053.585    
      6000   1.0538243      0.0023323615   0.0023957538   21.985713      20.420784      1.564929       0.012100514    75310.108    
      7000   1.0210598      0.0023323615  -0.00038820026  21.904665      20.388391      1.5162738      0              77119.161    
      8000   0.94819751     0.0023323615   0.0024943091   21.747889      20.339816      1.4080733      0              76962.109    
      9000   0.92364502     0.0023323615   0.0020053029   21.724166      20.352554      1.3716129      1.7780894e-05  76004.983    
     10000   0.86685188     0.0023323615   0.00078277366  21.644879      20.357604      1.287275       0.0098636418   76305.204    
     11000   1.0057103      0.0023323615   0.00010113276  21.8558        20.362321      1.4934798      0.020705341    76224.613    
     12000   0.97901664     0.0023323615  -0.0026996968   21.871206      20.417366      1.4538397      0.0052928539   76030.34     
     13000   0.97718436     0.0023323615  -6.1641422e-06  21.963706      20.512587      1.4511188      0.025022446    75737.729    
     14000   1.0530014      0.0023323615  -0.0009993112   21.947994      20.384287      1.5637071      0.0020860456   75173.585    
     15000   0.99094527     0.0023323615   0.0011068478   21.895146      20.423592      1.4715537      0.0015091113   76079.889    
     16000   0.91285091     0.0023323615  -0.00025424173  21.87524       20.519657      1.3555836      0.0047853639   75157.455    
     17000   0.82806978     0.0023323615  -0.00054698156  21.701984      20.472301      1.2296836      0              75684.718    
     18000   1.043278       0.0023323615  -6.6143919e-05  22.003299      20.454031      1.5492679      0.0034319132   76144.604    
     19000   1.0879249      0.0023323615  -0.0017804642   21.998985      20.383416      1.6155685      0.015376175    75035.586    
     20000   1.1144506      0.0023323615   0.0025198298   22.190904      20.535944      1.6549592      0              76133.334    
     21000   1.0427751      0.0023323615   0.0011345349   22.099492      20.550971      1.548521       0.00040047813  76137.398    
     22000   1.0586695      0.0023323615   0.0017882747   22.05673       20.484606      1.5721242      0              76123.464    
     23000   1.0058426      0.0023323615  -0.0055245362   21.954628      20.460951      1.4936763      0.0027619031   75152.868    
     24000   0.98273442     0.0023323615   0.0015147357   21.862067      20.402707      1.4593606      0              75868.695    
     25000   0.95835343     0.0023323615   0.0017808774   21.937761      20.514606      1.4231548      0.00020839942  75501.694    
     26000   0.93993778     0.0023323615  -0.0021777292   21.884849      20.489042      1.3958076      0.0088889834   76168.076    
     27000   0.9308188      0.0023323615  -0.00011239942  21.842252      20.459986      1.3822659      0.021612409    75353.89     
     28000   1.0149581      0.0023323615   0.0041996387   21.906846      20.399633      1.5072129      0.0064059022   74857.808    
     29000   0.92841138     0.0023323615  -2.5398808e-05  21.987185      20.608494      1.3786909      0.0046112484   75961.717    
     30000   1.021043       0.0023323615   0.001589158    22.097958      20.581709      1.5162489      0.016799508    73677.742    
     31000   1.0465985      0.0023323615  -0.0021744286   22.037917      20.483718      1.5541987      0.0057879149   76192.148    
     32000   0.98907108     0.0023323615  -0.0015558606   22.044089      20.575318      1.4687705      0.009448173    75482.106    
     33000   1.0918536      0.0023323615  -0.0025643847   22.039275      20.417873      1.6214025      0              74804.789    
     34000   0.99801543     0.0023323615   0.0016279766   21.932339      20.450286      1.4820529      0.017384617    77109.629    
     35000   1.0352271      0.0023323615  -0.0052971711   22.076004      20.538692      1.5373122      0.00010473809  75744.561    
     36000   1.1141579      0.0023323615  -0.00093279925  22.222491      20.567966      1.6545245      0.00033678641  76850.536    
     37000   1.0369415      0.0023323615   0.00013065175  22.217841      20.677983      1.5398581      0.013788831    75883.289    
     38000   1.0515596      0.0023323615   0.0021717558   22.070766      20.5092        1.561566       0.0067894678   75917.169    
     39000   1.0238495      0.0023323615   0.00026414509  22.040141      20.519725      1.5204165      0.00044464649  75371.758    
     40000   1.0749111      0.0023323615  -0.0026849368   22.039327      20.443084      1.596243       0.012651334    74089.776    
     41000   0.99070886     0.0023323615  -0.0030385564   22.03241       20.561207      1.4712027      0.00092855646  77173.356    
     42000   0.95315224     0.0023323615   0.0019788197   21.965263      20.549832      1.4154311      0.020233689    75703.78     
     43000   1.0644183      0.0023323615  -0.0011168725   22.287172      20.706511      1.5806611      0.039694129    75750.374    
     44000   1.0253747      0.0023323615  -0.006676522    22.066233      20.543552      1.5226814      0              74941.385    
     45000   0.94179556     0.0023323615  -0.0047206018   21.970644      20.572077      1.3985664      0.019869988    75486.043    
     46000   1.0083495      0.0023323615  -0.0017646918   21.972114      20.474715      1.497399       0.00026040605  75629.207    
     47000   0.98767959     0.0023323615  -0.00080218158  22.091674      20.62497       1.4667042      0.024266258    75086.332    
     48000   1.1473449      0.0023323615  -0.0025885687   22.080512      20.376705      1.7038072      0.00065962995  75536.66     
     49000   1.0679312      0.0023323615   0.0017688272   21.970482      20.384604      1.5858779      0.014142422    76518.307    
     50000   0.9581935      0.0023323615   0.0014398836   21.955202      20.532284      1.4229173      0.0055011948   76096.36     
     51000   1.0215759      0.0023323615  -0.00093292688  21.934681      20.41764       1.5170402      0              75503.746    
     52000   0.98079591     0.0023323615   0.0040701936   21.977374      20.520892      1.4564819      0.0020862422   76547.007    
     53000   1.0090927      0.0023323615   0.0013324753   22.095438      20.596935      1.4985027      0              75832.501    
     54000   0.97519627     0.0023323615   0.0013260734   22.070151      20.621984      1.4481665      0.026885444    76565.967    
     55000   1.1805087      0.0023323615  -0.001586238    22.424088      20.671033      1.7530554      0.024690954    76228.692    
     56000   0.98387121     0.0023323615   0.0037155145   22.104425      20.643376      1.4610487      0.01435493     75949.29     
     57000   1.0723812      0.0023323615  -0.0037916262   22.122726      20.53024       1.592486       0.013635549    76413.277    
     58000   1.0152349      0.0023323615   0.00021908047  22.082827      20.575203      1.5076238      0.00077375639  76230.203    
     59000   1.1424502      0.0023323615  -0.0052108657   22.30072       20.604182      1.6965385      0.013308184    77173.177    
     60000   1.0359703      0.0023323615  -0.00097887545  22.188218      20.649802      1.538416       0.00011346294  75366.975    
     61000   1.1646839      0.0023323615  -0.002085017    22.239945      20.51039       1.7295556      0.012918477    77533.943    
     62000   1.101836       0.0023323615   0.0010338878   22.171386      20.53516       1.6362265      0.001396566    76464.034    
     63000   0.96616435     0.0023323615   0.00097550571  21.903821      20.469067      1.4347541      0.013027663    77771.299    
     64000   1.0068907      0.0023323615  -0.0020278726   22.061652      20.566419      1.4952327      0.013750276    76103.964    
     65000   0.98723233     0.0023323615   0.0022441476   22.031073      20.565033      1.46604        0.0066686189   76799.972    
     66000   1.0273881      0.0023323615  -0.0003515278   22.183579      20.657908      1.5256713      0              74984.283    
     67000   0.96528212     0.0023323615  -0.00014822656  21.9396        20.506156      1.4334439      0.010365557    76748.539    
     68000   1.069702       0.0023323615   9.4754668e-05  22.081119      20.492611      1.5885075      0.00049153926  74154.562    
     69000   1.1229502      0.0023323615   0.0011504079   22.200329      20.532748      1.6675811      0.0068454249   76986.692    
     70000   1.0062775      0.0023323615  -0.00085311964  22.094021      20.599699      1.4943221      0.013222355    75313.574    
     71000   1.0906935      0.0023323615   0.00015260357  22.145362      20.525682      1.6196798      0.018338513    76260.374    
     72000   1.010401       0.0023323615  -6.0487182e-06  22.154105      20.653659      1.5004455      0.0013793953   75094.864    
     73000   1.1177599      0.0023323615  -0.0034084797   22.254435      20.594562      1.6598735      0.00011231735  77562.496    
     74000   0.9768019      0.0023323615   0.00016143893  22.07312       20.622569      1.4505508      0.0084515956   75719.917    
     75000   1.1360996      0.0023323615   0.002159116    22.161595      20.474487      1.6871079      0.0089909162   76335.493    
     76000   0.97379329     0.0023323615  -0.00068458621  21.988928      20.542845      1.446083       0              75304.545    
     77000   0.94876793     0.0023323615  -0.0016073976   21.923496      20.514575      1.4089204      0.017745108    75472.518    
     78000   0.83947996     0.0023323615  -0.00062768559  21.726727      20.480099      1.2466277      0.0054510099   76243.478    
     79000   1.0090614      0.0023323615  -0.00080262643  22.068192      20.569736      1.4984562      0.00023011166  77045.461    
     80000   1.1217643      0.0023323615  -0.0038177864   22.367902      20.702082      1.66582        0.032902439    76331.933    
     81000   1.0240158      0.0023323615   0.00023547123  22.031597      20.510933      1.5206635      0.0068767308   75657.988    
     82000   1.003236       0.0023323615  -0.0022802982   21.894199      20.404393      1.4898055      0.019136282    75057.021    
     83000   1.0554159      0.0023323615   0.004011718    22.104562      20.537269      1.5672927      0.0080869707   74769.156    
     84000   0.83527346     0.0023323615  -0.0034122221   21.874648      20.634267      1.2403811      0.0030083664   76024.144    
     85000   1.036002       0.0023323615   0.0013573923   21.962923      20.42446       1.5384629      0.015709144    76592.703    
     86000   0.9432002      0.0023323615  -0.0032183248   21.913588      20.512936      1.4006523      0.013730309    76638.988    
     87000   0.95566008     0.0023323615  -0.00049614223  21.91653       20.497375      1.4191552      0.0035862035   75764.234    
     88000   0.93373351     0.0023323615  -0.00097093893  21.870485      20.483891      1.3865943      0.0018212145   75177.547    
     89000   0.9684944      0.0023323615  -0.00047342045  21.973429      20.535215      1.4382142      0.00087524744  75621.589    
     90000   0.98293324     0.0023323615  -0.0032204602   22.050919      20.591263      1.4596559      0.015353933    76950.009    
     91000   1.0832827      0.0023323615   0.0048517083   22.11977       20.511095      1.6086749      0.0052867789   77887.759    
     92000   0.85899662     0.0023323615  -0.0013049519   21.765697      20.490087      1.27561        0.0024124001   76693.169    
     93000   0.96176266     0.0023323615  -4.4223672e-05  21.874222      20.446004      1.4282176      0.0045653365   77185.889    
     94000   0.96019503     0.0023323615   0.00024459347  21.944954      20.519064      1.4258896      3.8053462e-05  76636.398    
     95000   0.94702149     0.0023323615  -0.0033658915   21.86315       20.456823      1.4063269      0              77233.49     
     96000   0.91119348     0.0023323615  -0.0013197298   21.825018      20.471896      1.3531223      0.00043282989  76080.295    
     97000   1.0016687      0.0023323615  -0.0019514304   22.013024      20.525546      1.487478       0.0048369955   75571.43     
     98000   1.02143        0.0023323615  -0.0057874974   22.177965      20.661142      1.5168235      0              74682.499    
     99000   1.032786       0.0023323615   0.0018228259   21.975336      20.441649      1.5336871      7.1595851e-05  77652.774    
    100000   1.0594928      0.0023323615   0.0036169719   22.011024      20.437677      1.5733468      0.00032948157  76015.568    
    100362   1.1904942      0.0023323615  -0.00089755607  22.316856      20.548972      1.7678839      0.00063845255  75407.712    
Loop time of 1.31663 on 1 procs for 100000 steps with 100 atoms

Performance: 32811154.120 tau/day, 75951.746 timesteps/s
99.3% CPU use with 1 MPI tasks x 1 OpenMP threads

MPI task timing breakdown:
Section |  min time  |  avg time  |  max time  |%varavg| %total
---------------------------------------------------------------
Pair    | 0.049636   | 0.049636   | 0.049636   |   0.0 |  3.77
Bond    | 0.12587    | 0.12587    | 0.12587    |   0.0 |  9.56
Neigh   | 0.80357    | 0.80357    | 0.80357    |   0.0 | 61.03
Comm    | 0.055636   | 0.055636   | 0.055636   |   0.0 |  4.23
Output  | 0.0010078  | 0.0010078  | 0.0010078  |   0.0 |  0.08
Modify  | 0.24786    | 0.24786    | 0.24786    |   0.0 | 18.83
Other   |            | 0.03305    |            |       |  2.51

Nlocal:            100 ave         100 max         100 min
Histogram: 1 0 0 0 0 0 0 0 0 0
Nghost:             60 ave          60 max          60 min
Histogram: 1 0 0 0 0 0 0 0 0 0
Neighs:             36 ave          36 max          36 min
Histogram: 1 0 0 0 0 0 0 0 0 0

Total # of neighbors = 36
Ave neighs/atom = 0.36
Ave special neighs/atom = 1.98
Neighbor list builds = 9821
Dangerous builds = 8265
unfix           nvtSoft
unfix           rampSoft
reset_timestep  0

write_data      ${outputfile_relaxed}
write_data      5_relaxed.data
System init for write_data ...
Generated 0 of 6 mixed pair_coeff terms from geometric mixing rule
WARNING: Communication cutoff 1.3 is shorter than a bond length based estimate of 1.7550000000000001. This may lead to errors. (src/comm.cpp:727)
WARNING: Not all mixed pair coeffs generated from mixing. Use write_data with 'pair ij' option to store all pair coeffs. (src/write_data.cpp:309)

###########################################################################
# Full LJ with Coulomb
######################################################################

# Cutoffs and parameters:
# - Values: Marcel Verkade's Bachelor Thesis
# - Mapping to atom groups: Patrick Onck's paper
# - 1: aliphatic, 2: aromatic, 3: anion, 4: cation
# pair_style	lj/cut/coul/cut <lj_cut_global> <coul_cut_global>
# pair_coeff	<type_1>  <type_2>  <eps>  <sigma>  <r_cut_lj>  <r_cut_coul>

# Problem: Onck's model is much more complex, and Marcel has no sigma reported
# Using sigma=1 randomly

variable		glob_ljeps equal 1.0
variable		glob_ljsig 	equal 1.0
variable		glob_coulcut equal 10.0
variable		att_ljcut equal 2.50
variable		rep_ljcut equal 1.12

pair_style		lj/cut/coul/cut 						${att_ljcut} 	${glob_coulcut}
pair_style		lj/cut/coul/cut 						2.5 	${glob_coulcut}
pair_style		lj/cut/coul/cut 						2.5 	10
pair_coeff		1 1 	${glob_ljeps} 	${glob_ljsig}	${att_ljcut} 	${glob_coulcut}
pair_coeff		1 1 	1 	${glob_ljsig}	${att_ljcut} 	${glob_coulcut}
pair_coeff		1 1 	1 	1	${att_ljcut} 	${glob_coulcut}
pair_coeff		1 1 	1 	1	2.5 	${glob_coulcut}
pair_coeff		1 1 	1 	1	2.5 	10
pair_coeff		1 2 	${glob_ljeps} 	${glob_ljsig}	${att_ljcut} 	${glob_coulcut}
pair_coeff		1 2 	1 	${glob_ljsig}	${att_ljcut} 	${glob_coulcut}
pair_coeff		1 2 	1 	1	${att_ljcut} 	${glob_coulcut}
pair_coeff		1 2 	1 	1	2.5 	${glob_coulcut}
pair_coeff		1 2 	1 	1	2.5 	10
pair_coeff		1 3 	${glob_ljeps} 	${glob_ljsig}	${rep_ljcut} 	${glob_coulcut}
pair_coeff		1 3 	1 	${glob_ljsig}	${rep_ljcut} 	${glob_coulcut}
pair_coeff		1 3 	1 	1	${rep_ljcut} 	${glob_coulcut}
pair_coeff		1 3 	1 	1	1.12 	${glob_coulcut}
pair_coeff		1 3 	1 	1	1.12 	10
pair_coeff		1 4 	${glob_ljeps} 	${glob_ljsig}	${rep_ljcut} 	${glob_coulcut}
pair_coeff		1 4 	1 	${glob_ljsig}	${rep_ljcut} 	${glob_coulcut}
pair_coeff		1 4 	1 	1	${rep_ljcut} 	${glob_coulcut}
pair_coeff		1 4 	1 	1	1.12 	${glob_coulcut}
pair_coeff		1 4 	1 	1	1.12 	10
pair_coeff		2 2 	${glob_ljeps} 	${glob_ljsig}	${att_ljcut} 	${glob_coulcut}
pair_coeff		2 2 	1 	${glob_ljsig}	${att_ljcut} 	${glob_coulcut}
pair_coeff		2 2 	1 	1	${att_ljcut} 	${glob_coulcut}
pair_coeff		2 2 	1 	1	2.5 	${glob_coulcut}
pair_coeff		2 2 	1 	1	2.5 	10
pair_coeff		2 3 	${glob_ljeps} 	${glob_ljsig}	${rep_ljcut} 	${glob_coulcut}
pair_coeff		2 3 	1 	${glob_ljsig}	${rep_ljcut} 	${glob_coulcut}
pair_coeff		2 3 	1 	1	${rep_ljcut} 	${glob_coulcut}
pair_coeff		2 3 	1 	1	1.12 	${glob_coulcut}
pair_coeff		2 3 	1 	1	1.12 	10
pair_coeff		2 4 	${glob_ljeps} 	${glob_ljsig}	${att_ljcut} 	${glob_coulcut}
pair_coeff		2 4 	1 	${glob_ljsig}	${att_ljcut} 	${glob_coulcut}
pair_coeff		2 4 	1 	1	${att_ljcut} 	${glob_coulcut}
pair_coeff		2 4 	1 	1	2.5 	${glob_coulcut}
pair_coeff		2 4 	1 	1	2.5 	10
pair_coeff		3 3 	${glob_ljeps} 	${glob_ljsig}	${rep_ljcut} 	${glob_coulcut}
pair_coeff		3 3 	1 	${glob_ljsig}	${rep_ljcut} 	${glob_coulcut}
pair_coeff		3 3 	1 	1	${rep_ljcut} 	${glob_coulcut}
pair_coeff		3 3 	1 	1	1.12 	${glob_coulcut}
pair_coeff		3 3 	1 	1	1.12 	10
pair_coeff		3 4 	${glob_ljeps} 	${glob_ljsig}	${att_ljcut} 	${glob_coulcut}
pair_coeff		3 4 	1 	${glob_ljsig}	${att_ljcut} 	${glob_coulcut}
pair_coeff		3 4 	1 	1	${att_ljcut} 	${glob_coulcut}
pair_coeff		3 4 	1 	1	2.5 	${glob_coulcut}
pair_coeff		3 4 	1 	1	2.5 	10
pair_coeff		4 4 	${glob_ljeps} 	${glob_ljsig}	${rep_ljcut} 	${glob_coulcut}
pair_coeff		4 4 	1 	${glob_ljsig}	${rep_ljcut} 	${glob_coulcut}
pair_coeff		4 4 	1 	1	${rep_ljcut} 	${glob_coulcut}
pair_coeff		4 4 	1 	1	1.12 	${glob_coulcut}
pair_coeff		4 4 	1 	1	1.12 	10


fix             noDriftRot 	all momentum 10 linear 1 1 1 angular
fix             nvt1 		all nvt temp ${Temp} ${Temp} 0.5
fix             nvt1 		all nvt temp 1 ${Temp} 0.5
fix             nvt1 		all nvt temp 1 1 0.5

# dump          assemble 	all custom 1000 				${outputfile_selfasb} id type xu yu zu vx vy vz
dump            lindump 	all custom ${subsample_rate} 	${outputfile_trajlin} id type xu yu zu vx vy vz
dump            lindump 	all custom 1000 	${outputfile_trajlin} id type xu yu zu vx vy vz
dump            lindump 	all custom 1000 	6_b_trajlin.data id type xu yu zu vx vy vz

run             ${runtime}
run             1000000
Generated 0 of 6 mixed pair_coeff terms from geometric mixing rule
Neighbor list info ...
  update every 1 steps, delay 10 steps, check yes
  max neighbors/atom: 2000, page size: 100000
  master list distance cutoff = 10.3
  ghost atom cutoff = 10.3
  binsize = 5.15, bins = 7 7 7
  1 neighbor lists, perpetual/occasional/extra = 1 0 0
  (1) pair lj/cut/coul/cut, perpetual
      attributes: half, newton on
      pair build: half/bin/newton
      stencil: half/bin/3d
      bin: standard
Per MPI rank memory allocation (min/avg/max) = 7.712 | 7.712 | 7.712 Mbytes
   Step          Temp         Density         Press          TotEng         PotEng         KinEng         E_pair         S/CPU     
         0   1.1904942      0.0023323615  -0.0014383036   21.984795      20.216911      1.7678839     -0.33142309     0            
      1000   1.0221526      0.0023323615   0.0014701355   21.218772      19.700876      1.5178966     -0.75376139     33578.173    
      2000   1.0784369      0.0023323615  -0.0034070507   21.365486      19.764007      1.6014787     -0.73001904     31140.297    
      3000   0.94326003     0.0023323615   0.00035647242  20.847881      19.44714       1.4007411     -1.0865449      26640.012    
      4000   0.96365202     0.0023323615  -0.00011247276  20.773831      19.342808      1.4310233     -1.1786142      20978.998    
      5000   0.80342679     0.0023323615   0.001929978    20.000117      18.807028      1.1930888     -1.5571609      18502.636    
      6000   0.82087845     0.0023323615   0.003764737    20.06423       18.845225      1.2190045     -1.6124316      18371.504    
      7000   1.0041102      0.0023323615   0.0027455648   20.517456      19.026353      1.4911037     -1.4985622      18176.346    
      8000   0.9260564      0.0023323615   0.0035630681   20.344149      18.968955      1.3751938     -1.5199532      18320.095    
      9000   0.94589016     0.0023323615   0.0039327209   20.027771      18.623124      1.4046469     -1.8025649      18042.435    
     10000   1.1257495      0.0023323615  -0.00018838719  20.602871      18.931133      1.671738      -1.5610374      18142.884    
     11000   1.1129297      0.0023323615  -0.0020152052   20.644087      18.991387      1.6527006     -1.5725868      18236.388    
     12000   1.1299104      0.0023323615   0.00031496589  20.59625       18.918333      1.6779169     -1.5555616      18447.306    
     13000   0.92660409     0.0023323615  -0.0010815507   20.183644      18.807637      1.3760071     -1.6438305      18448.807    
     14000   1.101415       0.0023323615  -0.00010803576  20.66265       19.027049      1.6356012     -1.6383442      18455.684    
     15000   0.87993747     0.0023323615  -0.0027062475   20.447648      19.140941      1.3067071     -1.4239044      18432.63     
     16000   0.97607139     0.0023323615   0.00082488807  20.516611      19.067145      1.449466      -1.3646416      18323.219    
     17000   0.9242746      0.0023323615   0.00014006798  20.356023      18.983476      1.3725478     -1.5725024      18522.403    
     18000   0.81547358     0.0023323615   0.0032602677   19.925736      18.714758      1.2109783     -1.8167513      18419.939    
     19000   0.93848464     0.0023323615  -0.0018286685   19.983469      18.589819      1.3936497     -1.8073858      18353.286    
     20000   0.9979004      0.0023323615  -0.0028141109   20.565406      19.083524      1.4818821     -1.4539187      18284.582    
     21000   0.98496993     0.0023323615  -0.0012642988   20.301757      18.839077      1.4626803     -1.7101504      18264.058    
     22000   1.0341209      0.0023323615  -0.0016876705   20.155305      18.619635      1.5356696     -1.8282162      18282.234    
     23000   0.97148807     0.0023323615  -0.0018472227   20.260834      18.818175      1.4426598     -1.7214161      18253.964    
     24000   0.92641768     0.0023323615   0.0016533052   20.129947      18.754217      1.3757303     -1.7920349      18145.539    
     25000   0.8742196      0.0023323615  -0.0011531239   20.136835      18.838619      1.2982161     -1.7642346      18482.165    
     26000   0.86874864     0.0023323615   0.0013621934   20.196989      18.906897      1.2900917     -1.5263967      18398.586    
     27000   1.0494489      0.0023323615  -0.0032908002   20.32609       18.767659      1.5584316     -1.6923851      18165.654    
     28000   0.91075959     0.0023323615  -0.0021467249   20.150389      18.797911      1.352478      -1.5847164      18234.223    
     29000   1.066252       0.0023323615   0.0018062104   20.319055      18.735671      1.5833842     -1.748318       18251.785    
     30000   0.94132584     0.0023323615   0.0051774231   20.393311      18.995442      1.3978689     -1.5351215      18317.668    
     31000   1.1321696      0.0023323615  -0.0026137002   20.563448      18.882176      1.6812718     -1.8018747      18227.323    
     32000   0.95816132     0.0023323615  -0.0053906779   20.229137      18.806267      1.4228696     -1.6743154      18248.688    
     33000   1.0219957      0.0023323615   0.0009809854   20.4814        18.963737      1.5176636     -1.627232       18324.4      
     34000   1.0013613      0.0023323615   0.0033608214   20.466725      18.979703      1.4870215     -1.5739283      18307.565    
     35000   1.0660814      0.0023323615  -0.0011556504   20.774003      19.190872      1.5831309     -1.4086335      18265.7      
     36000   1.0319104      0.0023323615  -0.00089409733  20.58379       19.051403      1.532387      -1.4233308      18341.62     
     37000   1.065234       0.0023323615  -0.0024516907   20.586392      19.004519      1.5818725     -1.6195237      18428.257    
     38000   0.94073685     0.0023323615   0.0017871354   20.436865      19.039871      1.3969942     -1.5040686      18374.541    
     39000   1.1041894      0.0023323615  -0.0012929199   20.51513       18.875409      1.6397213     -1.6771825      18226.751    
     40000   1.0276874      0.0023323615  -0.0014895326   20.822037      19.295922      1.5261158     -1.3502712      18217.995    
     41000   1.0194448      0.0023323615  -0.0018291395   20.453296      18.939421      1.5138755     -1.5953016      18280.556    
     42000   1.0455179      0.0023323615  -3.8252937e-05  20.45679       18.904196      1.552594      -1.7027339      18291.739    
     43000   1.0397691      0.0023323615   0.0017586981   20.352567      18.80851       1.5440571     -1.6977516      18321.658    
     44000   0.97175733     0.0023323615   0.0038854541   20.497392      19.054332      1.4430596     -1.4083302      18395.398    
     45000   1.0339782      0.0023323615   0.0019746546   20.365237      18.82978       1.5354576     -1.7371397      18176.075    
     46000   1.0997268      0.0023323615  -0.0011587446   20.553483      18.920388      1.6330943     -1.5965         18306.883    
     47000   1.0058653      0.0023323615   0.00045454097  20.432881      18.93917       1.49371       -1.6255605      18318.03     
     48000   0.96463281     0.0023323615  -0.00045280481  20.353573      18.921093      1.4324797     -1.4331119      18283.55     
     49000   1.0134057      0.0023323615   0.0022560295   20.201835      18.696928      1.5049074     -1.7723143      18143.811    
     50000   0.85968747     0.0023323615   0.0034996928   20.022309      18.745673      1.2766359     -1.7382625      18224.964    
     51000   0.91471684     0.0023323615  -0.0018465372   20.186078      18.827724      1.3583545     -1.6585569      18247.017    
     52000   1.0112566      0.0023323615  -0.0035350372   20.38334       18.881624      1.501716      -1.5560911      18190.995    
     53000   1.0720442      0.0023323615   0.0015286183   20.707187      19.115201      1.5919856     -1.4312209      18158.774    
     54000   0.89542078     0.0023323615  -0.0016323253   20.411012      19.081313      1.3296999     -1.5595939      18156.7      
     55000   1.1893744      0.0023323615   0.0028460762   20.72948       18.963259      1.766221      -1.6882744      18246.63     
     56000   0.96170289     0.0023323615   0.00099652904  20.421605      18.993477      1.4281288     -1.6332521      18220.186    
     57000   1.1792987      0.0023323615  -0.00047731761  20.296242      18.544984      1.7512585     -1.9322038      18267.588    
     58000   1.0292596      0.0023323615   0.0045183757   20.214063      18.685613      1.5284505     -1.8943166      18191.631    
     59000   0.97533624     0.0023323615  -0.0018304395   20.171307      18.722933      1.4483743     -1.8735757      18177.826    
     60000   1.0033161      0.0023323615   0.0014198391   20.278079      18.788155      1.4899244     -1.6715502      18355.551    
     61000   1.0398264      0.0023323615  -0.00049516624  20.313002      18.76886       1.5441422     -1.7472562      18275.85     
     62000   0.89963429     0.0023323615   0.0019834513   19.938514      18.602557      1.3359569     -1.8315918      18305.829    
     63000   1.0281131      0.0023323615   0.0012779484   20.489835      18.963087      1.526748      -1.6397319      18331.905    
     64000   0.89611048     0.0023323615   0.0010480852   20.068837      18.738113      1.3307241     -1.685932       18189.403    
     65000   0.98797026     0.0023323615  -0.00234185     20.519972      19.052836      1.4671358     -1.5548637      18377.549    
     66000   1.1167876      0.0023323615   0.0046604397   20.472762      18.814332      1.6584295     -1.7407179      18263.708    
     67000   1.1241178      0.0023323615  -0.0035150579   20.642045      18.97273       1.6693149     -1.5326993      18142.228    
     68000   1.0568962      0.0023323615   0.0010499949   20.664744      19.095253      1.5694909     -1.6312476      18252.502    
     69000   0.97663437     0.0023323615  -0.0020592032   20.053761      18.603459      1.450302      -1.9497096      18125.1      
     70000   1.0020819      0.0023323615   0.0025362705   20.150495      18.662403      1.4880916     -1.8694731      18234.326    
     71000   1.0830921      0.0023323615  -6.1637118e-05  20.199033      18.590642      1.6083917     -1.8773782      18296.503    
     72000   1.0583545      0.0023323615   0.0034294222   20.244501      18.672845      1.5716564     -1.8309229      18260.189    
     73000   0.93739102     0.0023323615  -0.0011704727   19.868189      18.476163      1.3920257     -1.992313       18061.707    
     74000   1.0099926      0.0023323615  -0.003993289    20.525263      19.025424      1.499839      -1.5519854      18234.226    
     75000   0.87846569     0.0023323615  -0.0062137208   20.238555      18.934033      1.3045215     -1.6076061      18357.283    
     76000   1.0049797      0.0023323615   0.0014900587   19.977932      18.485538      1.4923949     -1.9583294      18270.611    
     77000   1.0149465      0.0023323615   0.001403968    20.364636      18.85744       1.5071956     -1.7009309      18190.395    
     78000   0.97078853     0.0023323615   0.0015225685   20.349799      18.908178      1.441621      -1.7182039      18189.456    
     79000   1.0105474      0.0023323615   0.0014869225   20.409469      18.908806      1.500663      -1.618912       18142.314    
     80000   0.99053992     0.0023323615   0.000936165    20.166032      18.69508       1.4709518     -1.763249       18250.049    
     81000   1.0655309      0.0023323615  -0.001224633    20.654769      19.072456      1.5823134     -1.6826712      18251.821    
     82000   0.97202272     0.0023323615  -0.00073169535  19.878974      18.43552       1.4434537     -2.0223031      18176.684    
     83000   1.0160551      0.0023323615  -0.0011757777   20.265371      18.756529      1.5088419     -1.7926766      18090.607    
     84000   0.97957899     0.0023323615   0.0012749759   20.057889      18.603214      1.4546748     -1.8697382      18598.335    
     85000   1.1484929      0.0023323615   0.0035483049   20.642832      18.93732       1.705512      -1.6092441      18340.633    
     86000   1.0137867      0.0023323615  -0.0021639021   20.242641      18.737168      1.5054733     -1.7600209      18407.207    
     87000   0.93832806     0.0023323615  -0.0001899983   20.254408      18.860991      1.3934172     -1.6571652      18312.438    
     88000   0.82225276     0.0023323615  -0.0033780318   20.095092      18.874047      1.2210454     -1.6649301      18439.417    
     89000   1.1725417      0.0023323615   0.0016893746   20.659417      18.918192      1.7412245     -1.7905226      18512.897    
     90000   1.0037586      0.0023323615   0.0018118189   20.407673      18.917091      1.4905816     -1.6426554      18388.43     
     91000   0.86213791     0.0023323615  -0.0016878116   20.388484      19.108209      1.2802748     -1.3345228      18452.197    
     92000   1.0566147      0.0023323615  -0.0016368962   20.146182      18.577109      1.5690728     -1.9318343      18272.655    
     93000   1.1336401      0.0023323615   0.0032498544   20.738411      19.054955      1.6834556     -1.5807511      18406.137    
     94000   1.0541667      0.0023323615  -0.001430178    20.295904      18.730466      1.5654376     -1.7700661      18744.196    
     95000   1.1402203      0.0023323615  -0.00023011443  20.775156      19.081929      1.6932271     -1.6984901      18702.792    
     96000   1.1367586      0.0023323615  -0.0025231956   20.426886      18.7388        1.6880866     -1.7380192      18713.351    
     97000   1.0070012      0.0023323615   0.0023621402   20.481629      18.986232      1.4953967     -1.5872001      18648.282    
     98000   0.96609642     0.0023323615  -0.00024009405  20.316229      18.881576      1.4346532     -1.592267       18591.358    
     99000   1.0106715      0.0023323615  -0.0020160624   20.277567      18.77672       1.5008471     -1.6660767      18688.386    
    100000   0.91804331     0.0023323615   0.00065523953  20.006491      18.643196      1.3632943     -1.8354074      18558.126    
    101000   0.91730915     0.0023323615   0.0044034047   20.192977      18.830773      1.3622041     -1.7761342      18615.252    
    102000   1.0275588      0.0023323615   0.0043211297   20.614589      19.088665      1.5259248     -1.491147       18506.317    
    103000   0.88695768     0.0023323615   0.0018419708   20.212844      18.895712      1.3171322     -1.674457       18571.569    
    104000   0.92496719     0.0023323615  -0.0055676218   20.06123       18.687654      1.3735763     -1.8773178      18680.804    
    105000   0.89361738     0.0023323615   0.0029204469   20.028848      18.701826      1.3270218     -1.9057945      18642.173    
    106000   0.97840292     0.0023323615  -0.0021492117   20.151643      18.698714      1.4529283     -1.8787054      18681.513    
    107000   0.98208326     0.0023323615  -0.0021112201   20.155368      18.696974      1.4583936     -1.8385572      18649.198    
    108000   0.87792666     0.0023323615   0.0001288769   20.095953      18.792232      1.3037211     -1.7253049      18578.517    
    109000   1.1472         0.0023323615   0.0023489154   20.492562      18.78897       1.703592      -1.7355065      18617.637    
    110000   1.1013501      0.0023323615   0.0025375783   20.533081      18.897576      1.635505      -1.5890285      18508.678    
    111000   0.94237047     0.0023323615   0.00078061866  20.347036      18.947616      1.3994202     -1.4518267      18626.247    
    112000   1.0568041      0.0023323615   0.00083656055  20.382901      18.813547      1.5693541     -1.6727         18603.254    
    113000   0.97414673     0.0023323615   0.0015752185   20.578943      19.132335      1.4466079     -1.5056977      18688.981    
    114000   1.1360943      0.0023323615  -0.0024553318   20.721269      19.034169      1.6871        -1.4766662      18529.084    
    115000   1.0051325      0.0023323615  -0.0043708574   20.487237      18.994615      1.4926218     -1.5314151      18630.784    
    116000   0.95500761     0.0023323615   0.001968621    20.080818      18.662632      1.4181863     -1.793661       18526.731    
    117000   1.2207917      0.0023323615   0.0040723243   20.990483      19.177607      1.8128756     -1.3577249      18660.477    
    118000   1.067694       0.0023323615   0.00099808824  20.417757      18.832231      1.5855256     -1.6939632      18706.975    
    119000   1.0966674      0.0023323615   8.2872617e-05  20.365199      18.736648      1.6285511     -1.7626621      18727.809    
    120000   1.0297084      0.0023323615   0.00077381824  20.369933      18.840816      1.529117      -1.6845162      18634.784    
    121000   0.92704374     0.0023323615  -0.00483586     20.198281      18.821621      1.37666       -1.6263686      18640.516    
    122000   1.0505643      0.0023323615   0.0038259996   20.698517      19.138429      1.560088      -1.4254015      18618.714    
    123000   1.0608926      0.0023323615   0.0030305078   20.297714      18.722289      1.5754255     -1.7573814      18755.85     
    124000   0.92597156     0.0023323615  -0.0040682306   20.215058      18.839991      1.3750678     -1.8175203      18605.144    
    125000   0.92187687     0.0023323615   0.0023672488   20.195694      18.826707      1.3689872     -1.773013       18631.072    
    126000   1.0899322      0.0023323615   0.0039389076   20.538348      18.919799      1.6185494     -1.5101895      18576.411    
    127000   0.98861614     0.0023323615   0.0024254629   20.109818      18.641723      1.468095      -1.7902293      18611.711    
    128000   1.2607371      0.0023323615  -0.0015812846   20.836731      18.964537      1.8721945     -1.5373395      18530.071    
    129000   1.0820906      0.0023323615  -0.0015139404   20.543532      18.936627      1.6069046     -1.5956309      18606.472    
    130000   0.93251259     0.0023323615  -0.001545157    20.414701      19.02992       1.3847812     -1.4588413      18648.024    
    131000   0.97280658     0.0023323615  -0.0023546293   20.216574      18.771956      1.4446178     -1.6800676      18588.897    
    132000   1.1102152      0.0023323615   0.0021465549   20.668789      19.020119      1.6486696     -1.5847345      18515.078    
    133000   0.96094787     0.0023323615   0.00064539224  20.088693      18.661685      1.4270076     -1.8335         18454.356    
    134000   1.0801518      0.0023323615  -0.0021965517   20.420214      18.816188      1.6040254     -1.641345       18392.222    
    135000   0.9911107      0.0023323615  -0.0010910507   20.485809      19.01401       1.4717994     -1.4801606      18417.383    
    136000   0.92994604     0.0023323615  -0.0032590373   20.4939        19.112931      1.3809699     -1.4304351      18488.321    
    137000   0.93418089     0.0023323615  -5.2914294e-05  20.192069      18.80481       1.3872586     -1.6147901      18293.143    
    138000   1.0419159      0.0023323615  -0.0048489951   20.509787      18.962542      1.5472452     -1.5935028      18499.138    
    139000   0.98519933     0.0023323615  -5.8774514e-05  20.283223      18.820202      1.463021      -1.6507371      18254.378    
    140000   0.99990667     0.0023323615  -0.0027008001   20.280873      18.796012      1.4848614     -1.6706714      18311.981    
    141000   1.0194728      0.0023323615   0.0012997167   20.172111      18.658194      1.513917      -1.8278807      18329.559    
    142000   1.0650462      0.0023323615   8.856026e-05   20.279482      18.697888      1.5815936     -1.8668008      18205.541    
    143000   1.0324801      0.0023323615   0.00028337767  20.263054      18.729821      1.5332329     -1.6917274      18263.591    
    144000   1.0013919      0.0023323615   0.0018995327   20.464561      18.977494      1.4870669     -1.5462011      18256.011    
    145000   0.94857795     0.0023323615  -0.0045139505   20.11196       18.703322      1.4086383     -1.8381271      18287.65     
    146000   1.0898826      0.0023323615  -0.00024876408  20.26746       18.648984      1.6184756     -1.8212524      18144.982    
    147000   1.0831158      0.0023323615  -0.002038443    20.187482      18.579055      1.608427      -1.8834471      18244.559    
    148000   1.0268343      0.0023323615   0.0032437063   20.482124      18.957275      1.524849      -1.6988731      18420.17     
    149000   1.0412298      0.0023323615  -0.0023939804   20.27866       18.732434      1.5462262     -1.8350439      18290.398    
    150000   1.1625239      0.0023323615  -0.0036922052   20.243182      18.516835      1.7263479     -2.0652119      18229.524    
    151000   1.0289666      0.0023323615   0.0057049206   20.414857      18.886841      1.5280153     -1.6779966      18346.674    
    152000   1.0384291      0.0023323615  -0.0011755778   20.400883      18.858816      1.5420672     -1.7417247      18283.355    
    153000   0.98388042     0.0023323615  -0.00044249109  20.407004      18.945942      1.4610624     -1.5708661      18235.375    
    154000   0.8779759      0.0023323615  -0.0012294324   20.140234      18.836439      1.3037942     -1.6508715      18234.4      
    155000   0.98393322     0.0023323615   0.0023735928   20.331499      18.870358      1.4611408     -1.5078331      18280.941    
    156000   0.94225681     0.0023323615   0.00078791182  20.237578      18.838327      1.3992514     -1.6606897      18287.72     
    157000   1.0198169      0.0023323615  -0.0022481645   20.25267       18.738242      1.5144281     -1.7452746      18213.351    
    158000   1.0012893      0.0023323615  -0.003778429    20.406134      18.91922       1.4869146     -1.6426237      18637.644    
    159000   1.0091098      0.0023323615   0.0046701433   20.333473      18.834945      1.4985281     -1.6893458      18643.854    
    160000   0.99033746     0.0023323615   0.00035444706  20.1682        18.697548      1.4706511     -1.819262       18648.658    
    161000   0.95417845     0.0023323615   0.0006998417   20.310529      18.893574      1.416955      -1.6790254      18580.056    
    162000   0.97564315     0.0023323615  -0.0010654054   20.65294       19.20411       1.4488301     -1.2515965      18444.61     
    163000   0.95859006     0.0023323615   0.00087480148  20.475143      19.051636      1.4235062     -1.4720595      18445.241    
    164000   0.86266906     0.0023323615   0.0019704467   20.351758      19.070694      1.2810636     -1.5025065      18284.909    
    165000   0.97459669     0.0023323615  -0.0031768642   20.786394      19.339118      1.4472761     -1.200446       18558.116    
    166000   1.126915       0.0023323615   0.0010760097   20.515255      18.841787      1.6734688     -1.6276659      18417.747    
    167000   0.89697975     0.0023323615  -0.0010442381   20.356265      19.02425       1.3320149     -1.5282735      18556.132    
    168000   1.0354564      0.0023323615  -0.0043843249   20.595475      19.057822      1.5376528     -1.4524642      18606.084    
    169000   0.8963675      0.0023323615   0.0021972741   20.334195      19.00309       1.3311057     -1.5029382      18664.179    
    170000   1.0864815      0.0023323615   0.0012506261   20.416585      18.80316       1.613425      -1.7091325      18650.404    
    171000   1.1914711      0.0023323615  -0.0017640359   20.475965      18.706631      1.7693346     -1.7387413      18606.753    
    172000   1.1369301      0.0023323615  -0.0017989874   20.331147      18.642806      1.6883413     -1.8139275      18529.779    
    173000   1.096298       0.0023323615  -0.00033135939  20.360979      18.732977      1.6280025     -1.8330229      18459.766    
    174000   0.87151468     0.0023323615  -0.0013896555   20.000973      18.706774      1.2941993     -1.7581556      18296.151    
    175000   0.93904056     0.0023323615  -0.0021619329   20.29236       18.897884      1.3944752     -1.7723051      18429.329    
    176000   1.0330685      0.0023323615  -6.4397372e-05  20.625612      19.091505      1.5341067     -1.4090716      18378.459    
    177000   0.9309452      0.0023323615  -0.0046797193   20.484268      19.101814      1.3824536     -1.4406625      18222.019    
    178000   0.95847456     0.0023323615   0.00068865601  20.553212      19.129878      1.4233347     -1.258143       18209.393    
    179000   0.86591292     0.0023323615  -0.00013290029  20.154688      18.868808      1.2858807     -1.602134       18222.056    
    180000   0.94442084     0.0023323615   0.0011310928   20.122002      18.719537      1.4024649     -1.8005644      18285.64     
    181000   1.0091882      0.0023323615   0.0027557384   20.350264      18.851619      1.4986445     -1.6684419      18295.235    
    182000   0.87149394     0.0023323615   0.00046627722  20.072513      18.778345      1.2941685     -1.6079278      18357.168    
    183000   1.055766       0.0023323615   0.0045123945   20.314405      18.746592      1.5678126     -1.65317        18227.084    
    184000   1.1666429      0.0023323615   0.0027297344   20.426459      18.693994      1.7324647     -1.8023414      18067.808    
    185000   0.9369657      0.0023323615   0.0020256918   19.894545      18.503151      1.3913941     -1.8812853      18190.348    
    186000   1.0235574      0.0023323615   0.002413977    20.267794      18.747811      1.5199827     -1.711842       18248.968    
    187000   1.1040917      0.0023323615  -0.00048537699  20.394639      18.755063      1.6395762     -1.6754456      18216.738    
    188000   1.2356222      0.0023323615  -0.0018194477   20.907528      19.072629      1.834899      -1.3973834      18434.448    
    189000   0.95997521     0.0023323615  -0.00017967248  20.356462      18.930899      1.4255632     -1.4551717      18261.886    
    190000   0.92280413     0.0023323615   0.004746686    20.345446      18.975081      1.3703641     -1.5346507      18177.988    
    191000   0.95426009     0.0023323615  -0.0021913028   20.459555      19.042478      1.4170762     -1.5416506      18279.766    
    192000   1.2334501      0.0023323615   0.00079021124  20.652718      18.821044      1.8316735     -1.6739509      18155.973    
    193000   0.95496085     0.0023323615  -0.00053140931  20.312085      18.893968      1.4181169     -1.6356739      18245.679    
    194000   0.85303213     0.0023323615   8.4235357e-05  20.325314      19.058561      1.2667527     -1.5130859      18173.245    
    195000   0.88952984     0.0023323615  -0.001093934    20.22367       18.902718      1.3209518     -1.5883413      18490.41     
    196000   1.0640247      0.0023323615   0.0049871474   20.477547      18.89747       1.5800767     -1.5953187      18422.985    
    197000   0.99758423     0.0023323615   0.00048624836  20.317851      18.836438      1.4814126     -1.6209784      18344.351    
    198000   0.96811414     0.0023323615   0.0031525732   20.174344      18.736694      1.4376495     -1.8725622      18155.695    
    199000   1.0354496      0.0023323615   0.0019126353   20.45786       18.920217      1.5376427     -1.7861163      18155.801    
    200000   0.8854901      0.0023323615  -0.00016617971  20.109485      18.794532      1.3149528     -1.7795069      18245.352    
    201000   0.92855402     0.0023323615  -0.0036791657   20.472026      19.093124      1.3789027     -1.4720894      18137.039    
    202000   0.99610333     0.0023323615  -0.0004091132   20.29202       18.812806      1.4792135     -1.6881031      18300.026    
    203000   0.98978347     0.0023323615   0.0017225659   20.386179      18.91635       1.4698284     -1.6141834      18269.869    
    204000   1.0252913      0.0023323615   0.00087358983  20.502901      18.980343      1.5225576     -1.5641269      18602.946    
    205000   0.87168701     0.0023323615   0.00095556285  20.202518      18.908062      1.2944552     -1.6472536      18618.575    
    206000   0.89126363     0.0023323615  -0.0020405325   20.077387      18.753861      1.3235265     -1.7935351      18557.574    
    207000   1.0161995      0.0023323615   0.00030926551  20.345124      18.836068      1.5090563     -1.6959739      18390.9      
    208000   0.91775412     0.0023323615   0.0022076907   20.316839      18.953974      1.3628649     -1.4900775      18172.17     
    209000   0.92040427     0.0023323615  -0.0033844803   20.045272      18.678472      1.3668003     -1.8227006      18182.962    
    210000   1.1190909      0.0023323615  -0.00042532771  20.604224      18.942374      1.6618499     -1.5276161      18188.343    
    211000   1.0303558      0.0023323615  -2.6718434e-05  20.258127      18.728048      1.5300784     -1.7280822      18657.945    
    212000   1.0959937      0.0023323615  -0.0038140464   20.419014      18.791464      1.6275506     -1.6830914      18587.159    
    213000   1.0749179      0.0023323615   0.0048251922   20.462429      18.866176      1.5962532     -1.6387483      18714.407    
    214000   0.89212509     0.0023323615  -0.005218495    20.011994      18.687189      1.3248058     -1.8363395      18699.194    
    215000   0.97020413     0.0023323615  -0.0029461567   20.396865      18.956112      1.4407531     -1.5389367      18829.826    
    216000   0.94314564     0.0023323615  -0.0013254271   19.902432      18.501861      1.4005713     -1.9298035      18687.644    
    217000   0.96885794     0.0023323615   0.003402007    20.333114      18.89436       1.438754      -1.5429716      18674.369    
    218000   0.94809676     0.0023323615  -0.0034143183   20.243432      18.835509      1.4079237     -1.6914818      18597.095    
    219000   1.0347255      0.0023323615  -0.00047990891  20.605952      19.069385      1.5365674     -1.4631452      18596.291    
    220000   1.0088154      0.0023323615  -0.0019886418   20.3504        18.852309      1.4980909     -1.6271537      18337.129    
    221000   0.93985619     0.0023323615   0.0052479522   20.007567      18.611881      1.3956864     -1.8554469      18386.212    
    222000   1.0294689      0.0023323615  -4.2805928e-06  20.311352      18.782591      1.5287613     -1.6960073      18282.016    
    223000   0.95295773     0.0023323615  -0.00042763678  19.862055      18.446912      1.4151422     -1.937196       18172.034    
    224000   1.0274819      0.0023323615  -0.00073210344  20.287379      18.761568      1.5258106     -1.757823       18279.046    
    225000   1.0404648      0.0023323615  -0.0012721886   20.166515      18.621425      1.5450903     -1.8287523      18150.357    
    226000   0.88054989     0.0023323615   5.9788005e-05  20.078134      18.770518      1.3076166     -1.7351156      18163.625    
    227000   1.0047397      0.0023323615  -0.0013473968   20.629385      19.137347      1.4920385     -1.4406707      18152.843    
    228000   1.0015876      0.0023323615  -0.0074820409   20.802756      19.315398      1.4873576     -1.414647       18296.232    
    229000   0.99653531     0.0023323615  -0.00013270688  20.628264      19.148409      1.4798549     -1.4395654      18290.435    
    230000   0.9579409      0.0023323615   0.0025330363   20.364811      18.942269      1.4225422     -1.6479896      18203.638    
    231000   1.0314824      0.0023323615   0.00036425134  20.277243      18.745491      1.5317514     -1.753955       18173.001    
    232000   1.0401644      0.0023323615  -0.00053878842  20.093471      18.548826      1.5446442     -1.8838782      18129.518    
    233000   0.93973722     0.0023323615  -0.00049256919  20.282466      18.886956      1.3955098     -1.6317618      18152.195    
    234000   1.0707681      0.0023323615   0.0040274996   20.403819      18.813728      1.5900906     -1.8138341      18245.679    
    235000   0.95459746     0.0023323615  -0.0018649055   20.140844      18.723267      1.4175772     -1.8907027      18166.161    
    236000   1.0266045      0.0023323615   0.00030005105  20.274163      18.749656      1.5245077     -1.7329231      18129.9      
    237000   0.92556892     0.0023323615  -0.0013808773   20.315354      18.940884      1.3744699     -1.661583       18019.627    
    238000   0.9724192      0.0023323615   0.00096921517  20.410164      18.966121      1.4440425     -1.690764       18262.187    
    239000   1.0257956      0.0023323615  -0.00092578792  20.503028      18.979721      1.5233065     -1.5427595      18269.45     
    240000   1.0517742      0.0023323615   0.00060967403  20.510307      18.948423      1.5618847     -1.4341241      18303.925    
    241000   0.91971767     0.0023323615   0.00017199346  20.337138      18.971357      1.3657807     -1.4775493      18267.575    
    242000   1.0989501      0.0023323615  -9.2577835e-05  20.346148      18.714207      1.6319409     -1.8173109      18270.845    
    243000   0.9761009      0.0023323615  -0.0029306643   20.562089      19.112579      1.4495098     -1.5075004      18487.999    
    244000   1.0003698      0.0023323615   0.0013679732   20.35141       18.865861      1.4855491     -1.7726131      18614.429    
    245000   0.98306037     0.0023323615   0.0021278288   20.513738      19.053894      1.4598447     -1.4248043      18657.599    
    246000   0.95299781     0.0023323615  -0.00082774459  20.121407      18.706205      1.4152017     -1.7269718      18594.919    
    247000   0.94009568     0.0023323615  -0.0042197718   20.370251      18.974209      1.3960421     -1.5867788      18248.625    
    248000   0.99423001     0.0023323615  -0.0027110835   20.394863      18.918431      1.4764316     -1.669406       18286.306    
    249000   0.99414946     0.0023323615   0.0060211203   20.34078       18.864468      1.476312      -1.6463247      18404.648    
    250000   0.93277767     0.0023323615  -0.0023209722   20.370416      18.985241      1.3851748     -1.5404825      18188.684    
    251000   0.94239801     0.0023323615   0.003780093    20.197535      18.798074      1.399461      -1.5986912      18153.361    
    252000   0.92479212     0.0023323615  -0.00025534424  20.117854      18.744538      1.3733163     -1.7247402      18261.963    
    253000   1.0823015      0.0023323615  -0.0029902587   20.200594      18.593376      1.6072177     -1.9492451      18161.5      
    254000   1.0712226      0.0023323615  -0.00020144407  20.491537      18.900771      1.5907656     -1.6492445      18248.574    
    255000   1.0062617      0.0023323615   0.0010444596   20.337327      18.843028      1.4942986     -1.6729681      18301.881    
    256000   1.0667736      0.0023323615   0.0041737627   20.382763      18.798605      1.5841588     -1.7285034      18251.458    
    257000   1.0081794      0.0023323615  -0.0016586387   20.276928      18.779781      1.4971464     -1.6355379      18335.586    
    258000   1.0715206      0.0023323615   0.0018798898   20.587461      18.996252      1.5912081     -1.4043201      18554.725    
    259000   0.9800763      0.0023323615  -0.0024266659   20.346151      18.890738      1.4554133     -1.5221285      18482.928    
    260000   1.0454981      0.0023323615   0.0020821896   20.432741      18.880176      1.5525647     -1.6436697      18258.209    
    261000   0.99810726     0.0023323615   0.0029638878   20.201012      18.718823      1.4821893     -1.8004658      18329.097    
    262000   1.0023073      0.0023323615  -0.0050445527   20.41016       18.921734      1.4884264     -1.7185135      18198.069    
    263000   0.96460816     0.0023323615  -0.0020551978   20.346733      18.91429       1.4324431     -1.5980819      18339.059    
    264000   0.95432826     0.0023323615  -0.0035466386   20.605803      19.188626      1.4171775     -1.474313       18431.466    
    265000   0.9353458      0.0023323615  -0.0022679117   20.2981        18.909112      1.3889885     -1.5448976      18518.255    
    266000   0.96225145     0.0023323615  -0.00046010576  20.355989      18.927046      1.4289434     -1.4430277      18232.041    
    267000   1.0011484      0.0023323615  -0.00015356764  20.490271      19.003566      1.4867053     -1.5212934      18337.455    
    268000   1.0096009      0.0023323615  -0.0036089759   20.298902      18.799645      1.4992574     -1.6572991      18360.781    
    269000   1.0333839      0.0023323615  -0.0014492868   20.724128      19.189553      1.534575      -1.3452366      18338.533    
    270000   0.96358415     0.0023323615  -0.00029950469  20.342788      18.911866      1.4309225     -1.5106292      18240.068    
    271000   0.8127324      0.0023323615   0.00023586723  20.181017      18.974109      1.2069076     -1.4741524      18333.824    
    272000   0.91145866     0.0023323615  -0.0048351372   20.305871      18.952355      1.3535161     -1.552669       18211.53     
    273000   1.0572         0.0023323615  -0.00032321658  20.604711      19.034769      1.569942      -1.6544821      18125.805    
    274000   1.0246466      0.0023323615  -0.00071788633  20.225964      18.704363      1.5216001     -1.902688       18188.502    
    275000   1.0306614      0.0023323615  -0.00060695917  20.382993      18.852461      1.5305321     -1.6983042      18386.086    
    276000   0.90815953     0.0023323615   0.0021575359   20.162737      18.81412       1.3486169     -1.7183486      18225.127    
    277000   1.1980303      0.0023323615  -0.0017699299   20.516384      18.737309      1.779075      -1.8512191      18291.531    
    278000   0.92570948     0.0023323615   0.0037987184   20.137912      18.763233      1.3746786     -1.7223654      18277.553    
    279000   1.1080217      0.0023323615   0.0040348869   20.382701      18.737289      1.6454122     -1.7571662      18177.515    
    280000   0.99066511     0.0023323615   0.0016663066   20.537047      19.065909      1.4711377     -1.4627967      18329.548    
    281000   0.97276166     0.0023323615   0.0010698572   20.26734       18.822789      1.4445511     -1.6596789      18430.718    
    282000   1.0260583      0.0023323615   0.0047115783   20.336751      18.813054      1.5236965     -1.7197956      18293.499    
    283000   1.0462927      0.0023323615   0.0029614606   20.568224      19.01448       1.5537447     -1.5178446      18451.641    
    284000   0.95261633     0.0023323615  -0.00091383649  20.526526      19.111891      1.4146352     -1.3665677      18372.647    
    285000   1.1193248      0.0023323615   0.00095878834  20.82935       19.167153      1.6621973     -1.4344741      18246.596    
    286000   0.88062481     0.0023323615   0.00068326092  20.631106      19.323378      1.3077278     -1.2050733      18463.242    
    287000   0.95924903     0.0023323615   0.0014028223   20.534943      19.110458      1.4244848     -1.3556251      18592.442    
    288000   0.95956415     0.0023323615  -0.00033736391  20.540631      19.115678      1.4249528     -1.4109213      18329.38     
    289000   1.0432068      0.0023323615  -0.0019723002   20.481852      18.93269       1.5491621     -1.5352574      18291.792    
    290000   1.1012739      0.0023323615   0.0012812135   20.463194      18.827803      1.6353917     -1.7386121      18233.47     
    291000   0.89511156     0.0023323615   0.0026153803   20.287313      18.958072      1.3292407     -1.5080917      18193.23     
    292000   0.90044444     0.0023323615  -0.00018358021  20.34595       19.00879       1.33716       -1.4634653      18300.76     
    293000   0.89808794     0.0023323615   0.0053700233   20.378515      19.044854      1.3336606     -1.4504626      18440.695    
    294000   1.2813677      0.0023323615  -0.0013894817   20.660688      18.757857      1.902831      -1.7537941      18378.716    
    295000   0.86643895     0.0023323615  -0.00021709941  19.727146      18.440484      1.2866618     -1.8948001      18125.416    
    296000   0.91050638     0.0023323615   0.0027304254   20.396166      19.044064      1.352102      -1.5221471      18160.68     
    297000   1.0956686      0.0023323615   0.0020569577   20.550176      18.923108      1.6270679     -1.6719949      18272.598    
    298000   1.0193222      0.0023323615   0.0030008646   20.345564      18.831871      1.5136935     -1.7506302      18210.44     
    299000   1.030661       0.0023323615  -0.0012733561   20.61013       19.079599      1.5305316     -1.514042       18192.212    
    300000   1.0683254      0.0023323615   0.008744431    20.324153      18.73769       1.5864631     -1.7118064      18275.826    
    301000   1.1938024      0.0023323615   0.002102408    20.642519      18.869722      1.7727965     -1.6602912      18343.12     
    302000   0.87904596     0.0023323615  -0.0037883813   20.26654       18.961156      1.3053832     -1.5232572      18387.339    
    303000   0.95442721     0.0023323615  -0.0033346399   20.370661      18.953337      1.4173244     -1.6560693      18197.283    
    304000   1.1160695      0.0023323615   0.00073779931  20.596788      18.939425      1.6573633     -1.7160655      18246.81     
    305000   0.9633466      0.0023323615  -0.0020235759   20.387742      18.957172      1.4305697     -1.5737635      18309.063    
    306000   1.1617918      0.0023323615  -0.0019352411   20.580262      18.855001      1.7252608     -1.632039       18259.644    
    307000   0.98332026     0.0023323615   0.0040268446   20.172961      18.71273       1.4602306     -1.7913378      18076.656    
    308000   0.96856998     0.0023323615   0.0011898635   20.520409      19.082083      1.4383264     -1.3649947      18306.513    
    309000   1.0199702      0.0023323615   0.0027439058   20.37265       18.857994      1.5146558     -1.6937227      18316.31     
    310000   0.88121774     0.0023323615  -0.00052156935  20.569853      19.261245      1.3086083     -1.3172629      18409.882    
    311000   0.94218176     0.0023323615  -0.0016165502   20.173891      18.774751      1.3991399     -1.6557419      18232.804    
    312000   0.97724187     0.0023323615  -0.00071534343  20.182524      18.73132       1.4512042     -1.8155379      18221.507    
    313000   1.0548054      0.0023323615  -0.00091583879  20.32326       18.756874      1.566386      -1.6929423      18324.178    
    314000   1.021504       0.0023323615   0.0017274838   20.043534      18.5266        1.5169334     -1.9908999      18338.041    
    315000   1.0804065      0.0023323615  -0.00068205175  20.556153      18.951749      1.6044036     -1.56273        18155.475    
    316000   1.0997699      0.0023323615   0.0012840283   20.891321      19.258162      1.6331583     -1.412515       18328.801    
    317000   1.0625838      0.0023323615  -0.00046525955  20.469509      18.891572      1.5779369     -1.626192       18276.445    
    318000   0.96251224     0.0023323615  -0.0014004093   20.126605      18.697275      1.4293307     -1.8027046      18424.352    
    319000   1.0822319      0.0023323615   1.5297553e-05  20.730213      19.123098      1.6071144     -1.4785287      18433.839    
    320000   0.99356927     0.0023323615  -0.0027641112   20.470827      18.995376      1.4754504     -1.7730914      18322.866    
    321000   1.0334061      0.0023323615   0.0017946128   20.351434      18.816826      1.5346081     -1.7610344      18596.433    
    322000   1.0147014      0.0023323615  -0.0020250224   20.425979      18.919147      1.5068316     -1.6474282      18636.231    
    323000   0.94728314     0.0023323615  -0.0016399761   20.516975      19.11026       1.4067155     -1.3837208      18555.866    
    324000   0.91936292     0.0023323615   0.0013152046   20.087974      18.72272       1.3652539     -1.6780874      18328.73     
    325000   0.97052439     0.0023323615   0.0045607045   20.165723      18.724494      1.4412287     -1.6551675      18187.216    
    326000   1.163475       0.0023323615   0.001895724    20.690116      18.962355      1.7277603     -1.3596038      18282.029    
    327000   1.0734371      0.0023323615   0.00095884847  20.259328      18.665274      1.5940541     -1.8831791      18176.998    
    328000   1.0100349      0.0023323615   0.0037410768   20.437509      18.937607      1.4999018     -1.5369747      18473.312    
    329000   0.88551636     0.0023323615  -0.00031725675  19.827667      18.512675      1.3149918     -1.8896802      18581.177    
    330000   1.0891041      0.0023323615   0.0034390354   20.5142        18.896881      1.6173196     -1.5282306      18622        
    331000   1.0644848      0.0023323615  -0.001628574    20.395038      18.814278      1.5807599     -1.7581759      18656.724    
    332000   1.0198704      0.0023323615  -0.0017155165   20.158977      18.64447       1.5145076     -1.8790496      18447.685    
    333000   1.1376471      0.0023323615  -0.0022608554   20.423456      18.73405       1.689406      -1.8198187      18420.884    
    334000   0.87172711     0.0023323615  -0.0027701322   20.125192      18.830677      1.2945148     -1.6660383      18303.435    
    335000   1.0327889      0.0023323615   0.0014529685   20.46311       18.929418      1.5336916     -1.5116789      18341.674    
    336000   1.0600401      0.0023323615  -0.00044299245  20.439813      18.865654      1.5741596     -1.6981037      18351.315    
    337000   0.99275326     0.0023323615   0.00014173306  19.942136      18.467898      1.4742386     -2.1019239      18146.235    
    338000   0.85337897     0.0023323615  -0.002981307    20.124014      18.856746      1.2672678     -1.7249593      18142.832    
    339000   1.0769718      0.0023323615   8.9003075e-05  20.290362      18.691059      1.5993031     -1.7173397      18246.763    
    340000   1.0427516      0.0023323615   0.001821332    20.199797      18.651311      1.5484861     -1.796748       18218.664    
    341000   0.96764023     0.0023323615   0.0010700109   20.505124      19.068178      1.4369457     -1.6117212      18051.088    
    342000   1.0469216      0.0023323615   0.00098020756  20.393266      18.838587      1.5546785     -1.7368618      18353.607    
    343000   0.87084358     0.0023323615  -0.00062107927  20.203469      18.910266      1.2932027     -1.6479953      18492.229    
    344000   0.99369928     0.0023323615  -0.0010640912   20.60119       19.125546      1.4756434     -1.4182854      18400.949    
    345000   1.0847739      0.0023323615   0.0011978499   20.482032      18.871143      1.6108893     -1.6695062      18347.514    
    346000   0.99163143     0.0023323615  -0.0047115953   20.466167      18.993594      1.4725727     -1.5812709      18314.162    
    347000   0.94764294     0.0023323615   0.00057897554  20.371638      18.964389      1.4072498     -1.5017322      18187.534    
    348000   0.9172846      0.0023323615  -0.0025161378   20.372943      19.010775      1.3621676     -1.4858546      18322.775    
    349000   0.98295674     0.0023323615  -0.00039017071  20.148436      18.688745      1.4596908     -1.8025421      18585.141    
    350000   0.99962828     0.0023323615   0.0040699946   20.505603      19.021155      1.484448      -1.4225818      18387.614    
    351000   0.98639875     0.0023323615  -0.0016327489   20.589168      19.124366      1.4648021     -1.3313922      18458.773    
    352000   0.92883158     0.0023323615   0.00091919678  20.119886      18.740572      1.3793149     -1.6720341      18343.754    
    353000   1.0515696      0.0023323615   0.0012557859   20.501986      18.940405      1.5615809     -1.5089228      18412.86     
    354000   0.97013826     0.0023323615  -0.0022641227   20.543049      19.102394      1.4406553     -1.4213303      18532.339    
    355000   0.9994257      0.0023323615   0.001430679    20.439854      18.955707      1.4841472     -1.4591331      18478.292    
    356000   0.99508314     0.0023323615   0.00029691918  20.574722      19.097024      1.4776985     -1.3503871      18243.888    
    357000   1.1089869      0.0023323615   0.0047427951   20.625466      18.978621      1.6468455     -1.5935894      18220.589    
    358000   0.93915121     0.0023323615  -0.0014697057   20.603901      19.209262      1.3946395     -1.288046       18344.641    
    359000   0.92129743     0.0023323615   0.0016952852   20.637981      19.269854      1.3681267     -1.3642119      18300.599    
    360000   1.0948447      0.0023323615   0.0024049017   20.609865      18.98402       1.6258444     -1.6072714      18155.365    
    361000   1.0784404      0.0023323615  -0.00066833869  20.409445      18.807961      1.6014841     -1.6256969      18322.361    
    362000   1.0538133      0.0023323615  -0.00084084513  20.204607      18.639694      1.5649128     -1.7712595      18275.699    
    363000   1.0971531      0.0023323615  -0.0016545229   20.564626      18.935353      1.6292724     -1.5828379      18162.445    
    364000   1.0589905      0.0023323615   0.00027887766  20.543492      18.970892      1.5726008     -1.5647791      18284.317    
    365000   1.1664462      0.0023323615   0.0011226433   20.503605      18.771432      1.7321726     -1.7247911      18291.833    
    366000   0.92571335     0.0023323615   0.0007709057   19.988314      18.613629      1.3746843     -1.913543       18289.459    
    367000   1.1638185      0.0023323615  -0.0039357005   20.270527      18.542257      1.7282705     -1.9467854      18360.508    
    368000   1.0107196      0.0023323615  -0.0011126926   20.04205       18.541132      1.5009187     -1.9675658      18183.326    
    369000   1.0851519      0.0023323615   0.00063602508  20.489436      18.877985      1.6114506     -1.7340912      18232.701    
    370000   0.90033492     0.0023323615   0.001448746    19.995934      18.658937      1.3369974     -1.6725123      18244.475    
    371000   1.0756496      0.0023323615   0.0022912239   20.577715      18.980376      1.5973396     -1.5499653      18234.589    
    372000   0.87743149     0.0023323615   3.1102302e-05  20.049732      18.746747      1.3029858     -1.7844503      18216.435    
    373000   0.99611399     0.0023323615  -0.0018848158   20.327364      18.848135      1.4792293     -1.7284673      18206.016    
    374000   1.0846561      0.0023323615  -0.00094213168  20.403785      18.793071      1.6107143     -1.7017205      18085.733    
    375000   0.92398055     0.0023323615  -0.00050247465  20.305343      18.933232      1.3721111     -1.5524549      18360.875    
    376000   1.0101582      0.0023323615   0.00072731762  20.391484      18.891399      1.500085      -1.573122       18334.107    
    377000   0.86960686     0.0023323615   0.00027727867  20.309689      19.018322      1.2913662     -1.6512268      18176.545    
    378000   0.95967784     0.0023323615   0.00056558979  20.446848      19.021726      1.4251216     -1.5988719      18609.078    
    379000   1.0426625      0.0023323615   0.0020009003   20.588704      19.04035       1.5483538     -1.6760275      18365.585    
    380000   1.206688       0.0023323615  -0.00078764264  20.735598      18.943667      1.7919316     -1.5997268      18342.018    
    381000   1.0413484      0.0023323615  -0.0015009392   20.325329      18.778926      1.5464024     -1.5625583      18300.532    
    382000   0.8757061      0.0023323615   0.0014444249   20.40907       19.108647      1.3004236     -1.4330999      18297.963    
    383000   0.94541424     0.0023323615  -0.0026081482   20.151334      18.747393      1.4039401     -1.7949175      18206.713    
    384000   1.0273651      0.0023323615  -0.0037007846   20.229177      18.70354       1.5256372     -1.8449889      18269.979    
    385000   0.96143807     0.0023323615  -0.0024809789   20.391463      18.963727      1.4277355     -1.5446366      18232.258    
    386000   0.98360754     0.0023323615  -0.0051146463   20.243123      18.782466      1.4606572     -1.6662891      18254.275    
    387000   1.0034729      0.0023323615   0.0013897549   20.201762      18.711605      1.4901572     -1.6965141      18099.828    
    388000   1.0466653      0.0023323615  -0.0029763516   20.250853      18.696555      1.554298      -1.9432255      18206.331    
    389000   0.94596326     0.0023323615  -0.0019425835   19.894602      18.489846      1.4047554     -1.995889       17970.337    
    390000   0.94695873     0.0023323615   0.0021537534   20.226201      18.819967      1.4062337     -1.8284699      18309.583    
    391000   0.99797779     0.0023323615   0.00067921527  20.237185      18.755188      1.481997      -1.7938668      18296.802    
    392000   0.98258057     0.0023323615   0.0010393381   20.202053      18.742921      1.4591321     -1.7762185      18288.313    
    393000   0.90785532     0.0023323615   0.00025256485  20.219069      18.870904      1.3481652     -1.6032183      18316.975    
    394000   0.96868365     0.0023323615   2.473904e-06   20.246413      18.807918      1.4384952     -1.7629328      18263.53     
    395000   0.93747503     0.0023323615  -0.00023549097  20.083559      18.691409      1.3921504     -1.8532671      18254.883    
    396000   0.97446683     0.0023323615   0.0022161465   20.148324      18.701241      1.4470832     -1.8860102      17403.596    
    397000   0.87360728     0.0023323615  -0.0010877773   20.209792      18.912485      1.2973068     -1.6154691      18273.819    
    398000   0.96786902     0.0023323615  -0.00035522635  20.424801      18.987516      1.4372855     -1.5495842      18471.887    
    399000   0.91246888     0.0023323615   0.0012335886   20.445505      19.090489      1.3550163     -1.3654945      18375.607    
    400000   0.97755096     0.0023323615  -0.0017272652   20.314568      18.862905      1.4516632     -1.6763158      18299.656    
    401000   0.90606802     0.0023323615  -0.00042430147  20.153076      18.807565      1.345511      -1.7329313      18231.722    
    402000   1.1019286      0.0023323615  -0.0012810095   20.4801        18.843736      1.6363639     -1.5258324      18171.3      
    403000   1.0230549      0.0023323615   0.0046473217   20.358899      18.839662      1.5192366     -1.7404798      18148.093    
    404000   0.94716491     0.0023323615  -0.0008900178   20.283937      18.877397      1.4065399     -1.6578644      18180.306    
    405000   0.94277608     0.0023323615   0.0017602917   20.483126      19.083104      1.4000225     -1.4180152      18580.896    
    406000   1.0233855      0.0023323615  -0.0028667405   20.631845      19.112118      1.5197275     -1.3869055      18537.808    
    407000   1.0844296      0.0023323615  -0.0020368639   20.380661      18.770283      1.610378      -1.6176963      18353.613    
    408000   0.89965897     0.0023323615  -0.0018823799   20.242958      18.906964      1.3359936     -1.6022736      18292.315    
    409000   1.1921042      0.0023323615   0.0018515732   20.614594      18.844319      1.7702748     -1.7259116      18332.551    
    410000   0.92713947     0.0023323615  -0.0021308811   20.409585      19.032783      1.3768021     -1.4540182      18426.954    
    411000   1.0502974      0.0023323615  -0.00027282498  20.23609       18.676399      1.5596917     -1.8104037      18282.14     
    412000   1.0538721      0.0023323615   0.0056563956   20.763749      19.198749      1.5650001     -1.5166695      18133.638    
    413000   1.0951901      0.0023323615  -0.0025559701   20.568504      18.942147      1.6263572     -1.6484913      18044.832    
    414000   1.0193534      0.0023323615   0.0022007329   20.420077      18.906337      1.5137398     -1.7671155      18183.154    
    415000   0.98494152     0.0023323615  -0.0053236475   20.60728       19.144642      1.4626382     -1.4792428      18239.908    
    416000   1.0164199      0.0023323615  -0.0030542467   20.152247      18.642863      1.5093835     -1.7668265      18235.339    
    417000   0.99798644     0.0023323615  -9.2752717e-05  20.377726      18.895716      1.4820099     -1.6335828      18289.399    
    418000   1.0427945      0.0023323615  -0.0019658371   20.480641      18.932091      1.5485498     -1.6336087      18234.992    
    419000   1.046227       0.0023323615  -0.00027875386  20.310912      18.757264      1.5536471     -1.9014576      18129.604    
    420000   1.0352379      0.0023323615   0.0060072826   20.542298      19.004969      1.5373283     -1.4973202      18100.793    
    421000   0.80433284     0.0023323615  -0.0022810613   20.320842      19.126408      1.1944343     -1.5033003      18247.661    
    422000   1.0140553      0.0023323615  -0.0053596694   20.61885       19.112978      1.5058721     -1.5574494      18403.935    
    423000   1.0671201      0.0023323615  -0.0029863633   20.739289      19.154616      1.5846733     -1.4628315      18236.518    
    424000   1.087082       0.0023323615   0.00067900997  20.6461        19.031784      1.6143167     -1.5805026      18303.372    
    425000   0.93807859     0.0023323615   0.0029186019   20.200905      18.807859      1.3930467     -1.6278169      18308.924    
    426000   0.90028264     0.0023323615  -4.6656358e-05  19.998194      18.661275      1.3369197     -1.8519052      18246.713    
    427000   0.96599513     0.0023323615  -0.0022518609   20.333406      18.898903      1.4345028     -1.5969283      18388.728    
    428000   1.1368389      0.0023323615   0.0025078011   20.434349      18.746143      1.6882058     -1.8457872      18388.671    
    429000   1.0691152      0.0023323615   0.0018834487   20.358888      18.771252      1.587636      -1.6681688      18333.087    
    430000   1.0873689      0.0023323615   0.00015753275  20.293103      18.67836       1.6147428     -1.7898086      18204.458    
    431000   0.9842075      0.0023323615   0.0035404182   20.274783      18.813235      1.4615481     -1.6491059      18404.617    
    432000   0.97533521     0.0023323615   0.0013168706   20.510091      19.061719      1.4483728     -1.4939568      18356.823    
    433000   1.0751643      0.0023323615  -0.0012667217   20.464587      18.867968      1.5966189     -1.6458571      18322.859    
    434000   1.0383161      0.0023323615  -0.0023412296   20.358058      18.816158      1.5418994     -1.7878294      18154.299    
    435000   0.89982762     0.0023323615  -0.0030689647   20.153657      18.817413      1.336244      -1.6119105      18315.835    
    436000   0.86217728     0.0023323615  -0.00056972963  19.937372      18.657039      1.2803333     -1.707951       18291.434    
    437000   0.93770643     0.0023323615  -0.00024918267  20.128921      18.736427      1.392494      -1.7080241      18726.042    
    438000   1.0273581      0.0023323615   0.0013758398   20.448481      18.922855      1.5256267     -1.6471825      18576.881    
    439000   0.87947603     0.0023323615   0.0015846129   20.247601      18.941579      1.3060219     -1.5533323      18534.944    
    440000   0.95846184     0.0023323615   0.0014105775   20.186827      18.763511      1.4233158     -1.7121396      18418.963    
    441000   1.025357       0.0023323615  -0.0036581672   20.556767      19.034112      1.5226551     -1.4236584      18342.261    
    442000   1.0630853      0.0023323615  -0.0048098636   20.606934      19.028252      1.5786817     -1.6471069      18266.335    
    443000   1.0315066      0.0023323615   0.0035189577   20.433583      18.901796      1.5317872     -1.6131419      18541.606    
    444000   1.0677484      0.0023323615  -0.00025388805  20.384447      18.79884       1.5856064     -1.6543687      18398.65     
    445000   1.1547461      0.0023323615   0.0055627526   20.631516      18.916718      1.714798      -1.717506       18342.281    
    446000   1.0252167      0.0023323615   0.00078924691  20.518766      18.996319      1.5224469     -1.578454       18372.64     
    447000   0.95099439     0.0023323615  -0.00065071128  20.566037      19.15381       1.4122267     -1.3896733      18435.344    
    448000   1.1103597      0.0023323615  -0.00096731792  20.449588      18.800704      1.6488841     -1.7364558      18589.735    
    449000   1.0591203      0.0023323615   0.0011628069   20.375491      18.802697      1.5727936     -1.7038301      18610.281    
    450000   1.0929216      0.0023323615  -4.4400365e-05  20.371903      18.748915      1.6229885     -1.8907567      18503.308    
    451000   1.158508       0.0023323615  -0.0031253352   20.405722      18.685337      1.7203844     -1.7764994      18574.033    
    452000   1.1268026      0.0023323615   0.00064741305  20.606286      18.932984      1.6733018     -1.6000344      18511.96     
    453000   0.99879777     0.0023323615  -0.0032024793   20.379266      18.896052      1.4832147     -1.6148661      18525.201    
    454000   0.96498805     0.0023323615   0.0019857392   20.734499      19.301492      1.4330073     -1.362862       18632.328    
    455000   0.89563301     0.0023323615  -0.00095184535  20.211161      18.881146      1.330015      -1.6348809      18621.201    
    456000   0.89420909     0.0023323615   0.0028409339   20.11506       18.78716       1.3279005     -1.6940078      18634.008    
    457000   1.0454892      0.0023323615   9.0826534e-05  20.420454      18.867903      1.5525514     -1.6449757      18650.317    
    458000   0.99055844     0.0023323615   0.0068179555   20.422159      18.95118       1.4709793     -1.6340451      18592.831    
    459000   0.88070188     0.0023323615  -0.0036655323   20.272861      18.965019      1.3078423     -1.5952748      18630.738    
    460000   0.95117202     0.0023323615  -0.002812823    20.553656      19.141166      1.4124905     -1.5168023      18431.187    
    461000   1.0181136      0.0023323615   0.0011342412   20.708446      19.196547      1.5118987     -1.2725434      18468.886    
    462000   0.97497135     0.0023323615  -0.0013383825   20.350349      18.902516      1.4478325     -1.6222692      18470.461    
    463000   0.96208505     0.0023323615  -0.0011885702   20.319568      18.890872      1.4286963     -1.5517936      18461.661    
    464000   0.89576256     0.0023323615  -0.0022026797   20.050542      18.720335      1.3302074     -1.7729025      18445.585    
    465000   1.0447063      0.0023323615  -0.0017687365   20.348864      18.797476      1.5513888     -1.7031588      18315.973    
    466000   0.98366922     0.0023323615   0.0028287046   20.326399      18.86565       1.4607488     -1.752723       18258.719    
    467000   0.85566128     0.0023323615   0.00039015533  20.046165      18.775508      1.270657      -1.7262613      18317.143    
    468000   0.99820517     0.0023323615  -0.0028399246   20.461046      18.978711      1.4823347     -1.618916       18402.548    
    469000   0.97343707     0.0023323615  -0.00033532387  20.624792      19.179238      1.4455541     -1.4285094      18488.228    
    470000   1.0494491      0.0023323615   0.0023064202   20.381863      18.823431      1.5584319     -1.6699353      18522.833    
    471000   1.0276618      0.0023323615   0.0026126844   20.620748      19.09467       1.5260778     -1.4307891      18418.977    
    472000   0.92754035     0.0023323615   0.0010144251   20.236576      18.859179      1.3773974     -1.6891832      18359.771    
    473000   1.137911       0.0023323615  -0.0002485497   20.695532      19.005735      1.6897978     -1.542489       18304.764    
    474000   0.94099326     0.0023323615  -0.00048236973  20.176827      18.779452      1.397375      -1.8447579      18357.779    
    475000   1.0195532      0.0023323615   0.00084832028  20.268645      18.754609      1.5140365     -1.816343       18273.705    
    476000   0.84703266     0.0023323615   0.00097332721  20.308365      19.050522      1.2578435     -1.6223569      18287.228    
    477000   0.99469049     0.0023323615   0.0026848747   20.53496       19.057844      1.4771154     -1.4631919      18501.34     
    478000   1.0582194      0.0023323615   0.00017236854  20.408126      18.836671      1.5714558     -1.6380589      18579.537    
    479000   0.94261893     0.0023323615   0.0019867603   20.360218      18.960429      1.3997891     -1.4873395      18296.946    
    480000   0.93007009     0.0023323615  -0.0039769686   20.350504      18.96935       1.3811541     -1.5966915      18347.983    
    481000   1.0663298      0.0023323615  -0.0013110111   20.284578      18.701079      1.5834997     -1.7822887      18414.148    
    482000   1.0793399      0.0023323615   0.003333641    20.506497      18.903678      1.6028198     -1.6069429      18306.023    
    483000   1.0828522      0.0023323615   0.00055945854  20.295577      18.687541      1.6080355     -1.7875718      18253.724    
    484000   0.95151721     0.0023323615   0.0014341503   19.960171      18.547168      1.4130031     -1.9062796      18214.637    
    485000   0.99143648     0.0023323615  -0.0012403551   20.1982        18.725917      1.4722832     -1.6919176      18364.024    
    486000   1.0518088      0.0023323615   0.0014375239   20.158228      18.596292      1.561936      -1.8743519      18287.573    
    487000   0.94600682     0.0023323615   0.00066694215  20.415476      19.010655      1.4048201     -1.5295517      18299.043    
    488000   1.0019234      0.0023323615  -0.00030269576  20.409958      18.922102      1.4878562     -1.7294886      18401.292    
    489000   0.87072393     0.0023323615   0.00013069838  19.79465       18.501625      1.293025      -1.9556349      18631.949    
    490000   1.0885402      0.0023323615  -0.0002461214   20.475408      18.858926      1.6164823     -1.6147409      18656.201    
    491000   0.95138423     0.0023323615   0.0009608395   19.986825      18.57402       1.4128056     -1.853285       18705.74     
    492000   1.1209394      0.0023323615   0.00074737885  20.570742      18.906147      1.664595      -1.6751197      18863.651    
    493000   1.056062       0.0023323615  -0.0011551678   20.06503       18.496778      1.568252      -2.0018966      18682.807    
    494000   0.99394501     0.0023323615  -0.0039486207   20.348025      18.872017      1.4760083     -1.6876074      18522.936    
    495000   1.0108815      0.0023323615   0.00011684417  20.237298      18.736139      1.5011591     -1.7435119      18545.744    
    496000   0.84200944     0.0023323615   0.0015087641   20.313612      19.063228      1.250384      -1.5532124      18528.633    
    497000   0.96747107     0.0023323615   0.0014721582   20.566969      19.130274      1.4366945     -1.4489928      18489.009    
    498000   0.99727668     0.0023323615   0.0028450511   20.481104      19.000148      1.4809559     -1.5437905      18389.162    
    499000   1.1315553      0.0023323615  -0.00065997116  20.582762      18.902403      1.6803596     -1.5787628      18253.013    
    500000   1.092382       0.0023323615   0.00066125905  20.489237      18.867049      1.6221872     -1.7730188      18362.027    
    501000   0.91850138     0.0023323615   0.00068412794  20.294363      18.930389      1.3639746     -1.5472164      18390.619    
    502000   1.0239209      0.0023323615  -0.0040297788   20.460433      18.939911      1.5205226     -1.6800092      18434.03     
    503000   0.80136124     0.0023323615  -0.00049849607  20.231391      19.041369      1.1900214     -1.4555786      18345.015    
    504000   1.0561033      0.0023323615   0.00088103098  20.521795      18.953482      1.5683135     -1.6170454      18370.693    
    505000   1.0091013      0.0023323615  -0.0022552655   20.641461      19.142945      1.4985154     -1.5430931      18345.23     
    506000   1.0854889      0.0023323615  -0.0013380749   20.535331      18.92338       1.611951      -1.6039956      18582.335    
    507000   1.0293323      0.0023323615  -0.0025070371   20.583026      19.054467      1.5285585     -1.4327884      18472.601    
    508000   1.1639046      0.0023323615   0.0021638871   20.632649      18.904251      1.7283983     -1.6194223      18297.966    
    509000   0.95996847     0.0023323615  -0.0010595378   20.040877      18.615324      1.4255532     -1.8731847      18320.633    
    510000   1.0120837      0.0023323615  -0.00039599873  20.329179      18.826234      1.5029443     -1.7025806      18414.559    
    511000   0.92208472     0.0023323615  -0.0017231809   20.455525      19.08623       1.3692958     -1.3577233      18459.322    
    512000   1.0007781      0.0023323615  -4.9745231e-06  20.2348        18.748644      1.4861555     -1.7396993      18326.822    
    513000   0.91915156     0.0023323615   3.2284188e-05  20.364614      18.999674      1.3649401     -1.4277784      18386.574    
    514000   0.96337489     0.0023323615   0.00087597693  20.477709      19.047097      1.4306117     -1.5044196      18428.033    
    515000   0.98229566     0.0023323615   0.0020908748   20.413533      18.954824      1.4587091     -1.6534092      18265.181    
    516000   1.1511392      0.0023323615  -0.0027148671   20.66968       18.960238      1.7094418     -1.5255188      18449.584    
    517000   1.1113015      0.0023323615  -0.0020742119   20.592084      18.941801      1.6502828     -1.6135334      18437.816    
    518000   0.95169378     0.0023323615   0.0033347313   20.378545      18.96528       1.4132653     -1.5724573      18387.536    
    519000   1.0325935      0.0023323615   0.002450099    20.628911      19.095509      1.5334014     -1.4698537      18324.874    
    520000   0.93232298     0.0023323615   0.0025633685   20.036826      18.652327      1.3844996     -1.8401259      18213.75     
    521000   1.1284314      0.0023323615   0.0016055241   20.311189      18.635468      1.6757206     -1.8982093      18476.821    
    522000   1.0006196      0.0023323615   0.0023470676   20.305183      18.819263      1.4859202     -1.7528644      18503.068    
    523000   0.93426957     0.0023323615   0.0044709596   20.204595      18.817204      1.3873903     -1.6441943      18517.761    
    524000   1.0070464      0.0023323615   0.0055704652   20.401184      18.90572       1.4954639     -1.5367151      18614.37     
    525000   0.85556502     0.0023323615   0.0021375249   20.095073      18.824559      1.2705141     -1.7517141      18496.492    
    526000   0.96678744     0.0023323615   0.0040619215   20.334107      18.898428      1.4356794     -1.6001404      18224.451    
    527000   1.0321879      0.0023323615   0.00089288542  20.239974      18.707175      1.532799      -1.7607963      18239.241    
    528000   0.92719881     0.0023323615   0.0030895447   20.150052      18.773162      1.3768902     -1.7234486      18267.933    
    529000   0.97552791     0.0023323615   0.0031447587   20.146005      18.697346      1.4486589     -1.7173451      18086.437    
    530000   1.0139224      0.0023323615   0.0009585193   20.6342        19.128525      1.5056747     -1.457003       18192.125    
    531000   0.97759831     0.0023323615   0.00075185086  20.332472      18.880738      1.4517335     -1.6431715      18507.981    
    532000   1.0264603      0.0023323615   0.00074785304  20.209018      18.684725      1.5242935     -1.8205905      18434.53     
    533000   1.000723       0.0023323615  -0.001120749    20.841196      19.355122      1.4860737     -1.4161455      18193.405    
    534000   0.88407776     0.0023323615  -0.001810033    20.392465      19.079609      1.3128555     -1.4144173      18227.723    
    535000   0.86613756     0.0023323615   0.0026117303   20.283568      18.997354      1.2862143     -1.4215773      18517.688    
    536000   0.84537537     0.0023323615  -0.0024030912   20.039305      18.783923      1.2553824     -1.7356411      18565.869    
    537000   1.0811818      0.0023323615  -0.00094794383  20.38503       18.779475      1.6055549     -1.6537859      18467.536    
    538000   1.129319       0.0023323615   0.0024080282   20.276576      18.599538      1.6770387     -1.8568898      18455.605    
    539000   0.84001951     0.0023323615   0.0041865652   19.842877      18.595448      1.247429      -1.9534252      18359.248    
    540000   0.96015903     0.0023323615   0.0019682391   20.144519      18.718683      1.4258362     -1.750224       18318.141    
    541000   1.1169348      0.0023323615   0.0021730423   20.590299      18.931651      1.6586482     -1.5586402      18308.014    
    542000   1.0183814      0.0023323615  -0.0011686866   20.330154      18.817858      1.5122965     -1.6867509      18259.638    
    543000   1.0103578      0.0023323615  -0.004011833    20.202907      18.702526      1.5003813     -1.732758       18276.68     
    544000   1.0057601      0.0023323615  -0.0011059114   20.476099      18.982546      1.4935537     -1.6121617      18326.045    
    545000   1.0290783      0.0023323615  -0.0021086522   20.227751      18.69957       1.5281813     -1.8429309      18534.641    
    546000   0.93586086     0.0023323615  -0.0020592759   20.283436      18.893683      1.3897534     -1.5770929      18296.114    
    547000   0.98140692     0.0023323615   0.0039369435   20.314253      18.856864      1.4573893     -1.6529247      18261.251    
    548000   0.95219368     0.0023323615  -0.0019913743   20.380296      18.966289      1.4140076     -1.637533       18614.835    
    549000   0.97710126     0.0023323615  -0.0017895998   20.205986      18.754991      1.4509954     -1.7437782      18567.489    
    550000   1.0627088      0.0023323615   0.00094219696  20.382777      18.804655      1.5781226     -1.6735314      18583.906    
    551000   1.0977222      0.0023323615  -0.0023098589   20.845928      19.21581       1.6301174     -1.3701488      18373.178    
    552000   0.9769485      0.0023323615  -0.002568923    20.761444      19.310675      1.4507685     -1.3156209      18460.039    
    553000   0.95197884     0.0023323615   0.0033901618   20.357097      18.943409      1.4136886     -1.5835739      18319.392    
    554000   0.8242944      0.0023323615   0.00028812429  20.145771      18.921694      1.2240772     -1.6106243      18404.475    
    555000   0.89705641     0.0023323615  -0.0055260903   20.75449       19.422361      1.3321288     -1.1725792      18387.915    
    556000   1.0238445      0.0023323615  -0.0028152653   20.458348      18.937939      1.520409      -1.616768       18333.265    
    557000   1.0419576      0.0023323615  -0.0037636075   20.636888      19.089581      1.5473071     -1.4406449      18326.93     
    558000   1.0287378      0.0023323615   0.0011112682   20.485051      18.957376      1.5276757     -1.5422477      18366.413    
    559000   0.98739598     0.0023323615  -0.0024235451   20.274857      18.808574      1.466283      -1.6446691      18321.696    
    560000   1.012695       0.0023323615   0.0013188811   20.105281      18.601429      1.5038521     -1.7767105      18381.41     
    561000   0.94747625     0.0023323615   0.0021634123   20.366664      18.959662      1.4070022     -1.5483221      18260.249    
    562000   1.0113288      0.0023323615   0.0014594434   20.432717      18.930894      1.5018232     -1.5520583      18422.336    
    563000   1.1872181      0.0023323615   0.0028939934   20.638662      18.875643      1.7630188     -1.6532864      18324.578    
    564000   0.8930405      0.0023323615  -0.00045402595  20.018705      18.69254       1.3261651     -1.8048095      18293.415    
    565000   1.0694667      0.0023323615  -0.0034931194   20.597882      19.009723      1.5881581     -1.4931258      18476.127    
    566000   1.1460558      0.0023323615   0.0002645531   20.7115        19.009607      1.7018928     -1.4941212      18577.483    
    567000   1.0145208      0.0023323615  -0.00020410042  20.457121      18.950558      1.5065634     -1.6026976      18574.703    
    568000   0.98517149     0.0023323615   0.0006844084   20.123032      18.660053      1.4629797     -1.7871574      18529.008    
    569000   1.018928       0.0023323615  -0.0024200659   20.337832      18.824724      1.5131081     -1.6191573      18410.123    
    570000   1.0206591      0.0023323615   0.0018628736   20.520278      19.0046        1.5156788     -1.5017334      18458.585    
    571000   0.97908508     0.0023323615  -0.0017233901   20.690352      19.236411      1.4539413     -1.2435118      18651.582    
    572000   1.0089212      0.0023323615  -0.0023170378   20.324599      18.826351      1.498248      -1.713925       18433.195    
    573000   0.90565799     0.0023323615  -0.0025755802   20.404486      19.059584      1.3449021     -1.3967192      18513.34     
    574000   0.94382695     0.0023323615   0.00095639441  20.164954      18.763371      1.401583      -1.7600109      18477.409    
    575000   1.2175068      0.0023323615   0.0032028553   20.562676      18.754678      1.8079976     -1.6784464      18419.272    
    576000   1.0014051      0.0023323615   0.00048073954  19.914645      18.427558      1.4870865     -1.9597553      18672.633    
    577000   0.97055618     0.0023323615   0.0037393396   19.983687      18.542411      1.4412759     -1.8246068      18763.135    
    578000   1.0678507      0.0023323615  -1.4728775e-06  20.272382      18.686624      1.5857582     -1.8351914      18736.637    
    579000   1.0583665      0.0023323615   0.0024567583   20.334822      18.763147      1.5716742     -1.8025558      18764.274    
    580000   1.01989        0.0023323615  -0.0022399061   20.701354      19.186817      1.5145367     -1.4595567      18716.618    
    581000   0.84898671     0.0023323615   0.0022275388   20.006732      18.745986      1.2607453     -1.7189516      18465.063    
    582000   1.014172       0.0023323615   0.0025266426   20.474431      18.968386      1.5060454     -1.4460844      18337.546    
    583000   1.0362621      0.0023323615  -0.00083244406  20.713554      19.174705      1.5388492     -1.4278314      18305.288    
    584000   1.1311062      0.0023323615  -0.0032728054   20.682085      19.002393      1.6796928     -1.5244125      18328.051    
    585000   1.0451608      0.0023323615  -0.00037038949  20.368396      18.816332      1.5520638     -1.7010834      18265.873    
    586000   1.15071        0.0023323615   0.0017620342   20.615022      18.906218      1.7088043     -1.5786251      18376.523    
    587000   1.0299509      0.0023323615   0.0010195826   20.445336      18.915859      1.5294771     -1.5627835      18249.379    
    588000   1.0622325      0.0023323615  -0.004010064    20.46505       18.887635      1.5774152     -1.6247102      18330.646    
    589000   1.1206528      0.0023323615  -0.0022355571   20.435905      18.771735      1.6641695     -1.7768169      18314.683    
    590000   1.0879516      0.0023323615   0.00036839965  20.383009      18.767401      1.6156081     -1.7416598      18216.605    
    591000   1.0125268      0.0023323615   0.0014929905   20.453343      18.94974       1.5036024     -1.6091444      18192.417    
    592000   1.0523277      0.0023323615   0.0046652688   20.1789        18.616194      1.5627067     -1.867107       18165.783    
    593000   1.0434534      0.0023323615  -0.00085039883  20.406007      18.856479      1.5495283     -1.8383269      18172.669    
    594000   0.79041479     0.0023323615  -0.00084256328  20.248123      19.074357      1.173766      -1.4780983      18277.851    
    595000   0.83070792     0.0023323615   0.00055805947  20.306482      19.072881      1.2336013     -1.491258       18786.509    
    596000   1.0270282      0.0023323615   0.0029417448   20.396554      18.871417      1.5251369     -1.6070163      18696.123    
    597000   1.0207073      0.0023323615   0.0010156979   20.550031      19.034281      1.5157504     -1.4333855      18619.686    
    598000   1.0985578      0.0023323615   0.0023709636   20.631776      19.000417      1.6313584     -1.5290557      18479.873    
    599000   1.0569093      0.0023323615   0.0027217055   20.457339      18.887829      1.5695103     -1.5834253      18581.626    
    600000   1.0919847      0.0023323615  -0.0010032282   20.742197      19.1206        1.6215972     -1.5345376      18531.637    
    601000   0.97089684     0.0023323615   0.0041892057   20.584285      19.142503      1.4417818     -1.4293149      18573.096    
    602000   0.97653923     0.0023323615  -0.0031447594   20.416857      18.966696      1.4501608     -1.5396513      18494.799    
    603000   0.99853692     0.0023323615   0.0043498831   20.27427       18.791442      1.4828273     -1.7395661      18739.525    
    604000   1.1948738      0.0023323615   0.0050436092   20.720556      18.946168      1.7743876     -1.6117895      18773.203    
    605000   0.96769425     0.0023323615   0.002091208    20.393286      18.95626       1.437026      -1.5190376      18578.562    
    606000   1.0775595      0.0023323615  -0.003243443    20.680466      19.08029       1.6001759     -1.4562975      18408.229    
    607000   0.9095144      0.0023323615  -0.0012114481   20.330059      18.97943       1.3506289     -1.4562094      18418.416    
    608000   0.88396517     0.0023323615  -0.00031132607  20.459041      19.146353      1.3126883     -1.476552       18635.556    
    609000   0.9607092      0.0023323615  -0.0030822535   20.652761      19.226108      1.4266532     -1.3246355      18343.619    
    610000   1.1289623      0.0023323615  -0.0019826697   20.809685      19.133176      1.6765091     -1.485564       18282.629    
    611000   0.97896058     0.0023323615   0.00021735727  20.21959       18.765834      1.4537565     -1.6353999      18323.969    
    612000   0.88845281     0.0023323615  -0.0006822599   20.019507      18.700154      1.3193524     -1.7903593      18287.214    
    613000   1.04735        0.0023323615   0.005059969    20.316419      18.761104      1.5553147     -1.6503442      18235.912    
    614000   0.98389672     0.0023323615   0.00074349079  20.496015      19.034929      1.4610866     -1.5078712      18221.83     
    615000   1.0671271      0.0023323615  -0.0034094831   20.479356      18.894673      1.5846838     -1.6332161      18270.19     
    616000   0.93446903     0.0023323615  -0.00022385893  20.445666      19.05798       1.3876865     -1.4935127      18407.611    
    617000   0.91277771     0.0023323615  -0.0013195015   20.058411      18.702936      1.3554749     -1.9670238      18366.798    
    618000   0.99716046     0.0023323615   0.00093055002  20.340107      18.859324      1.4807833     -1.6257151      18277.48     
    619000   0.86985088     0.0023323615   0.0019732596   20.121737      18.830008      1.2917286     -1.7103117      18302.495    
    620000   0.99334184     0.0023323615  -0.00050035393  20.256855      18.781743      1.4751126     -1.6154845      18294.73     
    621000   1.0170584      0.0023323615  -0.005358659    20.105416      18.595084      1.5103317     -1.9033696      18290.438    
    622000   0.99588618     0.0023323615   0.0033401274   20.311226      18.832335      1.478891      -1.75848        18252.082    
    623000   0.9723332      0.0023323615   0.0055836821   20.225285      18.78137       1.4439148     -1.7970123      18286.32     
    624000   1.0552545      0.0023323615   0.002176073    20.174069      18.607016      1.5670529     -1.8957709      18436.151    
    625000   1.1483955      0.0023323615  -0.000901143    20.414358      18.70899       1.7053674     -1.8777589      18674.959    
    626000   1.0013017      0.0023323615   0.00033161209  20.05513       18.568197      1.486933      -1.9581036      18644.69     
    627000   1.097239       0.0023323615   0.0049463157   20.380135      18.750735      1.6293999     -1.7351584      18697.433    
    628000   1.0421479      0.0023323615   0.00020604505  20.183639      18.636049      1.5475897     -1.8568592      18375.59     
    629000   1.0562802      0.0023323615  -0.00065214456  20.307433      18.738857      1.5685761     -1.7316241      18345.214    
    630000   0.94626378     0.0023323615   0.0026259053   20.173514      18.768312      1.4052017     -1.7654124      18364.47     
    631000   1.0179314      0.0023323615   0.00012089989  20.354395      18.842767      1.5116282     -1.8159382      18490.502    
    632000   0.97332927     0.0023323615   0.00050317271  20.171233      18.725839      1.445394      -1.7354727      18309.304    
    633000   0.8113055      0.0023323615  -0.0011998643   20.043584      18.838796      1.2047887     -1.7093883      18347.905    
    634000   0.89189398     0.0023323615   0.0018262222   20.068815      18.744352      1.3244626     -1.7871552      18437.005    
    635000   0.9367774      0.0023323615  -6.8526723e-05  20.100733      18.709618      1.3911144     -1.7192739      18421.941    
    636000   0.95467954     0.0023323615   0.0026236897   20.110847      18.693148      1.4176991     -1.7927607      18463.621    
    637000   1.044593       0.0023323615   0.00064491025  20.395623      18.844402      1.5512206     -1.828605       18348.266    
    638000   0.89495945     0.0023323615  -0.0023753816   19.961894      18.63288       1.3290148     -1.9643271      18301.214    
    639000   1.0353021      0.0023323615   0.0028247008   20.560404      19.02298       1.5374236     -1.6581849      18378.094    
    640000   0.94884144     0.0023323615   0.0030470102   20.456841      19.047812      1.4090295     -1.4765113      18290.787    
    641000   0.97769113     0.0023323615  -0.00064158329  20.207852      18.755981      1.4518713     -1.8297574      18316.914    
    642000   1.0315061      0.0023323615   0.0021784255   20.304782      18.772995      1.5317865     -1.6557313      18375.299    
    643000   0.84277116     0.0023323615  -0.0036111131   20.060698      18.809183      1.2515152     -1.623197       18377.241    
    644000   1.1131207      0.0023323615  -0.0014657929   20.557537      18.904552      1.6529842     -1.5956735      18392.659    
    645000   1.0359755      0.0023323615  -0.001712733    20.310533      18.772109      1.5384237     -1.752549       18351.248    
    646000   1.0059632      0.0023323615  -0.00080011334  20.39513       18.901275      1.4938554     -1.594987       18215.242    
    647000   0.98658409     0.0023323615   0.00088016107  20.415757      18.95068       1.4650774     -1.5636608      18636.586    
    648000   0.87161685     0.0023323615  -0.0017555295   20.334398      19.040047      1.294351      -1.5830502      18539.454    
    649000   0.89724464     0.0023323615   0.0012968673   19.93987       18.607462      1.3324083     -1.9573929      18525.961    
    650000   0.97429224     0.0023323615  -0.0015212505   19.996537      18.549713      1.446824      -1.8708315      18616.946    
    651000   0.97899997     0.0023323615  -0.00050986053  20.284678      18.830863      1.453815      -1.6545879      18503.559    
    652000   0.99059359     0.0023323615  -0.0018961648   20.219055      18.748023      1.4710315     -1.710876       18597.431    
    653000   0.89153804     0.0023323615  -0.00083306525  20.102643      18.778709      1.323934      -1.6985213      18596.443    
    654000   1.0848068      0.0023323615  -0.0012700684   20.499678      18.88874       1.6109381     -1.6247822      18585.117    
    655000   1.010635       0.0023323615   0.0032683213   20.41234       18.911546      1.500793      -1.5089857      18332.43     
    656000   1.0967787      0.0023323615   0.002831222    20.581566      18.95285       1.6287163     -1.5359519      18336.872    
    657000   0.98436153     0.0023323615  -0.0036377367   20.536074      19.074297      1.4617769     -1.5984944      18255.951    
    658000   0.92800474     0.0023323615  -0.004134783    20.598948      19.220861      1.378087      -1.4478757      18263.921    
    659000   0.94306142     0.0023323615  -0.0019782647   20.427821      19.027375      1.4004462     -1.4591329      18318.736    
    660000   0.93584939     0.0023323615  -0.00026348664  20.611045      19.221309      1.3897363     -1.4207612      18340.589    
    661000   1.1730323      0.0023323615  -0.00011112036  20.613127      18.871174      1.7419529     -1.6077257      18301.14     
    662000   0.89729876     0.0023323615   0.0012411595   20.203659      18.87117       1.3324887     -1.698308       18491.592    
    663000   1.0768977      0.0023323615   0.0025971156   20.599656      19.000463      1.5991931     -1.64721        18493.527    
    664000   1.0762926      0.0023323615   0.0025904739   20.66372       19.065426      1.5982945     -1.4587825      18588.184    
    665000   0.92434245     0.0023323615   0.00033166535  20.32926       18.956612      1.3726485     -1.4717463      18708.77     
    666000   1.0486868      0.0023323615  -0.001597761    20.145928      18.588628      1.5572998     -1.7912173      18646.477    
    667000   1.0951428      0.0023323615  -0.0005322613   20.250366      18.624079      1.6262871     -1.7910701      18572.471    
    668000   1.1362229      0.0023323615   0.0035608907   20.641649      18.954358      1.6872911     -1.5275749      18555.56     
    669000   1.0155961      0.0023323615   0.0009177208   20.261888      18.753728      1.5081602     -1.7830514      18495.172    
    670000   0.94665884     0.0023323615   5.1302299e-05  20.187171      18.781383      1.4057884     -1.7231831      18245.479    
    671000   1.0310954      0.0023323615   0.00096450664  20.150635      18.619458      1.5311766     -1.8932977      18254.388    
    672000   1.0116694      0.0023323615  -0.00489532     20.270036      18.767707      1.502329      -1.8033865      18213.042    
    673000   1.0929476      0.0023323615  -0.0011796717   20.610955      18.987928      1.6230272     -1.5789893      18438.003    
    674000   1.1036079      0.0023323615  -0.00082022439  20.566656      18.927799      1.6388578     -1.6511728      18275.816    
    675000   1.0252586      0.0023323615   0.0021945302   20.431966      18.909457      1.522509      -1.5934655      18329.465    
    676000   0.97828803     0.0023323615   0.0020090654   20.436416      18.983658      1.4527577     -1.5447154      18302.824    
    677000   0.96884707     0.0023323615   0.00034711879  20.496027      19.057289      1.4387379     -1.4998312      18405.717    
    678000   1.0511052      0.0023323615  -0.001904905    20.407916      18.847024      1.5608912     -1.6369915      18315.005    
    679000   0.90062242     0.0023323615   0.006764954    20.345102      19.007677      1.3374243     -1.605092       18226.861    
    680000   1.0366591      0.0023323615  -0.0029918001   20.274327      18.734889      1.5394387     -1.7653883      18157.439    
    681000   1.0083909      0.0023323615  -0.0036747738   20.15742       18.65996       1.4974605     -1.8228458      18289.312    
    682000   0.93633622     0.0023323615   0.0013500881   20.110953      18.720493      1.3904593     -1.8005095      18265.606    
    683000   0.92097152     0.0023323615  -0.00074237245  20.286862      18.919219      1.3676427     -1.7069177      18443.434    
    684000   1.0287743      0.0023323615   0.0034452723   20.237962      18.710232      1.5277299     -1.7562631      18298.13     
    685000   0.9949745      0.0023323615   0.0048769887   20.200593      18.723056      1.4775371     -1.7462364      18251.321    
    686000   0.81444519     0.0023323615   0.0027626282   19.996088      18.786637      1.2094511     -1.6639377      18317.301    
    687000   0.95725943     0.0023323615  -0.0005561377   20.321443      18.899913      1.4215303     -1.7174153      18307.031    
    688000   1.0396442      0.0023323615  -0.0018446882   20.44984       18.905969      1.5438716     -1.614698       18262.384    
    689000   0.93174007     0.0023323615  -0.0034589807   20.132313      18.748679      1.383634      -1.7833233      18242.294    
    690000   1.0985751      0.0023323615  -8.7220239e-05  20.305783      18.674399      1.631384      -1.7774216      18352.999    
    691000   0.98291709     0.0023323615   0.00084477589  20.184109      18.724477      1.4596319     -1.7734412      18303.945    
    692000   1.0878495      0.0023323615  -0.0010027928   20.448014      18.832558      1.6154565     -1.8101338      18241.194    
    693000   0.98917316     0.0023323615  -0.0044232689   19.905874      18.436952      1.4689221     -2.047067       18245.639    
    694000   1.1033833      0.0023323615   0.0058468921   20.284918      18.646393      1.6385241     -1.8358286      18088.174    
    695000   1.0117932      0.0023323615  -0.00090153291  20.416005      18.913492      1.5025128     -1.490525       18234.429    
    696000   1.0131518      0.0023323615  -0.0009777125   20.590044      19.085513      1.5045304     -1.6118774      18316.975    
    697000   1.0062293      0.0023323615  -0.00043391163  20.221559      18.727309      1.4942506     -1.8433988      18239.844    
    698000   1.0745143      0.0023323615   0.0026184384   20.552598      18.956944      1.5956537     -1.5778149      18154.734    
    699000   1.0166066      0.0023323615   0.00058084515  20.247939      18.738278      1.5096608     -1.7638605      18173.394    
    700000   0.94720422     0.0023323615  -0.00052737887  20.050886      18.644288      1.4065983     -1.7284345      18270.43     
    701000   1.0793791      0.0023323615   0.0015967466   20.715845      19.112967      1.602878      -1.5572352      18354.336    
    702000   1.056382       0.0023323615  -0.0020887684   20.467999      18.899272      1.5687273     -1.6530026      18441.315    
    703000   1.0957451      0.0023323615  -0.0021925428   20.473571      18.846389      1.6271815     -1.7046789      18340.417    
    704000   0.99299708     0.0023323615  -0.0044762609   20.277617      18.803016      1.4746007     -1.7505828      18197.561    
    705000   0.90707228     0.0023323615   0.0044745919   19.982142      18.63514       1.3470023     -1.7972328      18566.998    
    706000   0.98198274     0.0023323615   0.00021987152  20.481494      19.023249      1.4582444     -1.546241       18659.573    
    707000   0.88548065     0.0023323615  -0.0019169151   20.317554      19.002615      1.3149388     -1.6325383      18568.525    
    708000   1.1910612      0.0023323615  -6.1115783e-05  20.668462      18.899736      1.7687259     -1.6639921      18593.863    
    709000   1.0470192      0.0023323615   0.0042796832   20.40466       18.849837      1.5548234     -1.6782965      18521.585    
    710000   1.0305501      0.0023323615   0.0027351765   20.275983      18.745616      1.5303669     -1.7588999      18601.077    
    711000   1.0473955      0.0023323615   0.0012362979   20.373019      18.817637      1.5553824     -1.6360891      18333.363    
    712000   0.93066094     0.0023323615   0.0041120468   20.363054      18.981023      1.3820315     -1.6078234      18356.449    
    713000   1.060426       0.0023323615   0.000232438    20.653975      19.079242      1.5747326     -1.4775158      18566.926    
    714000   1.0145945      0.0023323615  -0.0026305382   20.364696      18.858023      1.5066729     -1.7212987      18598.228    
    715000   1.0352777      0.0023323615   0.0013790421   20.544519      19.007132      1.5373873     -1.4538935      18693.346    
    716000   1.1497319      0.0023323615   0.0040033917   20.728974      19.021623      1.7073518     -1.3835923      18565.482    
    717000   1.1128328      0.0023323615  -0.0011191537   20.962694      19.310137      1.6525567     -1.2495654      18698.91     
    718000   1.0857528      0.0023323615   0.00090790123  20.640268      19.027925      1.6123429     -1.4481796      18714.323    
    719000   0.96041943     0.0023323615  -0.0055033468   20.386441      18.960219      1.4262229     -1.7054731      18535.009    
    720000   1.0493369      0.0023323615   0.0025348011   20.259823      18.701558      1.5582653     -1.711624       18214.192    
    721000   0.86599549     0.0023323615   0.00021465257  20.216144      18.930141      1.2860033     -1.5217935      18168.776    
    722000   1.1063855      0.0023323615   0.003560045    20.865495      19.222512      1.6429825     -1.254994       18376.656    
    723000   1.0371852      0.0023323615   0.00054596539  20.654737      19.114517      1.5402201     -1.3733663      18812.226    
    724000   1.076461       0.0023323615   0.0023624316   20.74691       19.148365      1.5985446     -1.3854608      18711.867    
    725000   1.01841        0.0023323615  -0.0028590707   20.456773      18.944434      1.5123389     -1.5671487      18335.663    
    726000   1.030639       0.0023323615   5.914497e-05   20.446895      18.916396      1.5304989     -1.5937668      18281.711    
    727000   1.1371002      0.0023323615   0.0022507657   20.732882      19.044289      1.6885937     -1.4676922      18218.008    
    728000   1.1083984      0.0023323615  -0.0025718294   20.35465       18.708679      1.6459716     -1.6642858      18050.524    
    729000   1.0231892      0.0023323615   0.0002993246   20.628206      19.10877       1.519436      -1.4412504      18097.147    
    730000   0.90129889     0.0023323615   0.0012811463   20.31974       18.981312      1.3384289     -1.5412039      18130.22     
    731000   1.0026487      0.0023323615  -0.00069932885  20.241131      18.752198      1.4889333     -1.8325111      18042.608    
    732000   0.90189154     0.0023323615  -0.0040083665   20.276361      18.937052      1.3393089     -1.6880721      18075.078    
    733000   0.97049184     0.0023323615   0.0020810142   20.390716      18.949536      1.4411804     -1.6512921      17999.997    
    734000   0.96505355     0.0023323615  -0.00013775982  20.41976       18.986655      1.4331045     -1.5373511      18099.142    
    735000   1.0034343      0.0023323615   0.00088716088  20.414262      18.924162      1.4900999     -1.4971699      17997.721    
    736000   1.19724        0.0023323615   0.00028510848  20.780545      19.002644      1.7779013     -1.5044297      17977.513    
    737000   0.8684225      0.0023323615   0.00086287805  20.21512       18.925512      1.2896074     -1.501955       18005.331    
    738000   0.91814865     0.0023323615  -0.0011281234   20.199487      18.836036      1.3634507     -1.6881244      18055.673    
    739000   1.0280095      0.0023323615  -7.2248572e-05  20.4562        18.929606      1.5265941     -1.6028113      18212.474    
    740000   1.0829943      0.0023323615   0.0022211966   20.420759      18.812512      1.6082466     -1.7777576      18140.751    
    741000   0.96698863     0.0023323615  -0.0024792112   20.220267      18.784289      1.4359781     -1.6508659      18066.978    
    742000   0.91081668     0.0023323615  -0.0048984667   20.573745      19.221182      1.3525628     -1.532123       18399.84     
    743000   1.0344918      0.0023323615  -0.00012777466  20.505147      18.968926      1.5362203     -1.6388051      18338.395    
    744000   0.98799999     0.0023323615   0.0028343328   20.498759      19.031579      1.46718       -1.5812724      18475.778    
    745000   0.93751655     0.0023323615  -0.0014465735   19.999841      18.607629      1.3922121     -1.730271       18426.332    
    746000   1.0441739      0.0023323615   0.003357128    20.371041      18.820443      1.5505983     -1.6702637      18205.361    
    747000   0.90829696     0.0023323615  -0.00079977056  20.195828      18.847007      1.348821      -1.67524        18244.289    
    748000   0.86302594     0.0023323615  -0.00017301204  20.16284       18.881246      1.2815935     -1.5553208      18279.532    
    749000   0.96693885     0.0023323615   0.0026252764   20.31606       18.880156      1.4359042     -1.6744378      18356.962    
    750000   1.1661788      0.0023323615   0.00038115626  20.65707       18.925295      1.7317755     -1.5906272      18275.485    
    751000   1.0483677      0.0023323615  -0.0035908841   20.350682      18.793856      1.5568261     -1.7164705      18373.117    
    752000   0.95795784     0.0023323615  -0.0048678339   20.419168      18.9966        1.4225674     -1.4682612      18138.43     
    753000   1.0505406      0.0023323615  -0.0025305862   20.748679      19.188626      1.5600529     -1.3378993      18306.876    
    754000   1.1054294      0.0023323615  -0.00063703782  20.642593      19.001031      1.6415627     -1.497791       18436.369    
    755000   0.99356682     0.0023323615   0.0032694246   20.438824      18.963378      1.4754467     -1.5601223      18473.907    
    756000   1.0721317      0.0023323615  -0.0028982581   20.3588        18.766684      1.5921156     -1.6679565      18508.74     
    757000   0.9458881      0.0023323615   0.002791587    20.376516      18.971872      1.4046438     -1.6293972      18448.07     
    758000   1.0164527      0.0023323615   0.0055271023   20.488411      18.978979      1.5094323     -1.6130715      18539.984    
    759000   0.91685225     0.0023323615   7.547879e-06   20.330897      18.969371      1.3615256     -1.5841821      18625.009    
    760000   1.1625312      0.0023323615   0.0012108176   20.408401      18.682043      1.7263589     -1.8121647      18574.727    
    761000   0.86399803     0.0023323615   0.0038932844   20.069189      18.786152      1.2830371     -1.7173717      18544.417    
    762000   0.9612865      0.0023323615  -0.0025233622   20.337194      18.909683      1.4275105     -1.6574844      18548.173    
    763000   0.97444233     0.0023323615   0.0010433436   20.205334      18.758288      1.4470469     -1.768123       18503.243    
    764000   0.91181104     0.0023323615   0.00026647096  20.054489      18.700449      1.3540394     -1.7285155      18507.871    
    765000   0.98383121     0.0023323615  -0.0062974585   20.180222      18.719233      1.4609893     -1.8181263      18570.484    
    766000   0.89752286     0.0023323615  -0.002547623    20.106243      18.773422      1.3328214     -1.6230633      18547.267    
    767000   1.0363182      0.0023323615   0.0019601525   20.169737      18.630805      1.5389326     -1.893005       18531.681    
    768000   0.89398664     0.0023323615   0.0030257872   20.268838      18.941268      1.3275702     -1.633283       18537.505    
    769000   0.96622599     0.0023323615   0.00031952755  20.314404      18.879558      1.4348456     -1.6237372      18312.589    
    770000   1.0085793      0.0023323615  -0.0016187316   20.644397      19.146657      1.4977403     -1.4846297      18400.603    
    771000   0.98795869     0.0023323615   0.0042814472   20.19326       18.726141      1.4671187     -1.8466313      18083.969    
    772000   0.98415615     0.0023323615   0.00019438651  20.225372      18.7639        1.4614719     -1.7751619      18559.569    
    773000   0.95777141     0.0023323615   4.8485109e-05  20.517992      19.095702      1.4222905     -1.4599738      18284.273    
    774000   0.93307744     0.0023323615   0.0042206611   19.933593      18.547973      1.38562       -1.9491927      18278.745    
    775000   1.0516174      0.0023323615  -0.0017913588   20.472072      18.91042       1.5616518     -1.5646656      18341.266    
    776000   1.071749       0.0023323615  -0.0017900622   20.379629      18.788081      1.5915472     -1.7620919      18310.638    
    777000   0.95381985     0.0023323615  -0.00022189159  20.58274       19.166317      1.4164225     -1.4614507      18232.718    
    778000   1.0636439      0.0023323615  -0.00061809076  20.28866       18.709148      1.5795113     -1.7246084      18202.689    
    779000   1.0723738      0.0023323615  -0.0018170061   20.560271      18.967796      1.5924751     -1.4497329      18187.627    
    780000   0.92177362     0.0023323615  -0.00053319064  20.106221      18.737387      1.3688338     -1.8723926      18241.511    
    781000   0.87510364     0.0023323615   0.0060283507   20.130133      18.830604      1.2995289     -1.75552        18150.427    
    782000   1.0161877      0.0023323615  -0.00032067294  20.18504       18.676001      1.5090388     -1.8271279      18245.719    
    783000   0.98995335     0.0023323615   0.0018270536   20.352184      18.882103      1.4700807     -1.6071914      18268.314    
    784000   1.0450572      0.0023323615  -0.00024758603  20.634227      19.082317      1.55191       -1.4722809      18421.336    
    785000   1.0591881      0.0023323615   0.0020696005   20.577684      19.00479       1.5728944     -1.6302153      18326.271    
    786000   0.99441625     0.0023323615   0.0041379436   20.374246      18.897538      1.4767081     -1.6266104      18246.95     
    787000   1.0401536      0.0023323615  -0.00028202474  20.325945      18.781317      1.5446282     -1.672378       18330.421    
    788000   1.0219054      0.0023323615  -0.00014856741  20.420849      18.903319      1.5175296     -1.5753319      18264.727    
    789000   0.95306157     0.0023323615  -0.0035012103   20.35529       18.939993      1.4152964     -1.6558332      18439.39     
    790000   0.97571794     0.0023323615  -0.002848555    20.208739      18.759798      1.4489411     -1.7820224      18342.106    
    791000   0.92772032     0.0023323615  -0.0049217005   20.218988      18.841324      1.3776647     -1.6937976      18281.859    
    792000   1.1594007      0.0023323615   0.00032924912  20.780199      19.058489      1.7217101     -1.4542735      18390.632    
    793000   0.98019921     0.0023323615  -0.0044783538   20.429979      18.974383      1.4555958     -1.4351496      18346.677    
    794000   1.1428699      0.0023323615  -0.0009875301   20.691786      18.994624      1.6971617     -1.4603921      18671.508    
    795000   1.0984682      0.0023323615   0.0016675505   20.553648      18.922422      1.6312253     -1.5213783      18731.577    
    796000   1.053758       0.0023323615  -0.0012616397   20.575219      19.010388      1.5648307     -1.5926397      18386.286    
    797000   0.90658963     0.0023323615  -0.0022786654   20.332494      18.986209      1.3462856     -1.5937292      18436.338    
    798000   1.0811118      0.0023323615   0.0028534866   20.186918      18.581467      1.605451      -1.8873252      18236.775    
    799000   0.95104273     0.0023323615  -0.0020754197   20.281075      18.868776      1.4122985     -1.5619133      18471.928    
    800000   1.021608       0.0023323615   0.00053439382  20.678247      19.161159      1.5170879     -1.3810462      18399.83     
    801000   0.94725999     0.0023323615   0.0032196529   20.425879      19.019198      1.4066811     -1.4733874      18459.343    
    802000   1.0384376      0.0023323615   0.0010529071   20.294124      18.752044      1.5420798     -1.6557663      18390.165    
    803000   0.96927054     0.0023323615   0.0025761487   20.313958      18.874592      1.4393668     -1.6116962      18292.691    
    804000   1.0752079      0.0023323615   0.0020990278   20.372038      18.775354      1.5966837     -1.7087003      18478.24     
    805000   0.97512152     0.0023323615  -0.00072403826  20.323003      18.874948      1.4480555     -1.6857924      18274.843    
    806000   1.1035027      0.0023323615  -0.0039821368   20.494685      18.855984      1.6387015     -1.6599121      18294.457    
    807000   0.98521907     0.0023323615   0.00071808348  20.122809      18.659759      1.4630503     -1.7931496      18233.614    
    808000   0.98240295     0.0023323615  -0.0017427373   20.329172      18.870304      1.4588684     -1.6225004      18187.557    
    809000   1.0762839      0.0023323615   0.0018083855   20.395471      18.797189      1.5982815     -1.6670361      18318.78     
    810000   0.97416861     0.0023323615  -0.0011421398   20.394216      18.947576      1.4466404     -1.5493045      18307.017    
    811000   1.0011507      0.0023323615  -0.00024237994  20.637726      19.151018      1.4867088     -1.5305834      18485.564    
    812000   0.94701087     0.0023323615   0.0059438477   20.236808      18.830497      1.4063111     -1.5628888      18396.981    
    813000   1.0412678      0.0023323615   7.9936253e-05  20.572158      19.025875      1.5462827     -1.4559803      18319.735    
    814000   0.94543718     0.0023323615   0.0038726378   20.31245       18.908476      1.4039742     -1.5898937      18456.673    
    815000   0.99489991     0.0023323615  -0.00095936555  20.256143      18.778717      1.4774264     -1.8371919      18335.35     
    816000   0.92960962     0.0023323615  -0.0011956806   20.351654      18.971183      1.3804703     -1.6403616      18275.147    
    817000   0.96520367     0.0023323615   0.00044954583  20.34297       18.909642      1.4333274     -1.6493734      18321.706    
    818000   0.97725257     0.0023323615   0.0019367471   20.446683      18.995463      1.4512201     -1.6103408      18201.238    
    819000   1.0107236      0.0023323615  -0.00093349997  20.743038      19.242114      1.5009245     -1.3269066      18337.597    
    820000   1.0082452      0.0023323615   0.0036148595   20.23212       18.734876      1.4972441     -1.6694385      18323.764    
    821000   1.1891491      0.0023323615  -0.001278094    20.693568      18.927681      1.7658865     -1.5953826      18351.005    
    822000   0.91585601     0.0023323615   0.0012042687   20.215817      18.855771      1.3600462     -1.6081951      18249.132    
    823000   0.97791737     0.0023323615  -0.0020749454   20.059676      18.607469      1.4522073     -1.8948474      18162.233    
    824000   1.0175048      0.0023323615   0.00091220347  20.125034      18.614039      1.5109946     -1.7964705      18158.734    
    825000   0.97935048     0.0023323615   0.002297519    19.972046      18.517711      1.4543355     -1.957705       18334.434    
    826000   1.0572975      0.0023323615   0.00057914322  20.320964      18.750877      1.5700868     -1.8240809      18277.423    
    827000   1.0871452      0.0023323615  -0.0011299494   20.526791      18.91238       1.6144106     -1.8111151      18275.469    
    828000   0.99855444     0.0023323615  -0.0013053282   20.537022      19.054169      1.4828534     -1.5292501      18360.514    
    829000   1.1910271      0.0023323615  -0.00022969852  21.030742      19.262067      1.7686752     -1.2560373      18456.847    
    830000   0.93867727     0.0023323615  -0.0052798349   20.316267      18.922331      1.3939357     -1.5479364      18460.818    
    831000   1.0219545      0.0023323615   0.0025068789   20.20453       18.686928      1.5176024     -1.7446932      18272.257    
    832000   0.92972734     0.0023323615   0.0025821094   20.182121      18.801476      1.3806451     -1.7866552      18266.826    
    833000   1.0579887      0.0023323615   0.0036166306   20.423134      18.852021      1.5711132     -1.7768085      18105.646    
    834000   0.90966505     0.0023323615  -0.0020621114   20.346182      18.995329      1.3508526     -1.5602952      18183.69     
    835000   1.0364665      0.0023323615  -0.00019534709  20.165985      18.626832      1.5391527     -1.8181449      18276.155    
    836000   0.94605733     0.0023323615  -3.9503273e-05  20.005503      18.600608      1.4048951     -1.9625298      18400.057    
    837000   1.1447955      0.0023323615   0.0005289315   20.089167      18.389146      1.7000213     -2.0311459      18413.971    
    838000   1.1386045      0.0023323615  -0.00053196999  20.49742       18.806592      1.6908276     -1.6879581      18688.414    
    839000   1.0358612      0.0023323615  -0.0011413597   20.396094      18.857841      1.5382538     -1.7136496      18580.239    
    840000   1.0064982      0.0023323615   0.00015349976  20.390519      18.895869      1.4946498     -1.6563187      18451.982    
    841000   0.98415597     0.0023323615   0.00032072394  20.363911      18.90244       1.4614716     -1.5774447      18599.992    
    842000   1.1037803      0.0023323615  -0.00020407499  20.408864      18.76975       1.6391137     -1.7551921      18433.621    
    843000   1.0205869      0.0023323615   0.0011286352   20.37215       18.856579      1.5155716     -1.758887       18506.338    
    844000   0.98908377     0.0023323615  -0.00037554676  20.291394      18.822605      1.4687894     -1.6602809      18605.928    
    845000   1.0498522      0.0023323615  -0.00032451019  20.501136      18.942106      1.5590305     -1.5368044      18354.005    
    846000   0.88556571     0.0023323615   0.00033223023  20.13796       18.822894      1.3150651     -1.6426946      18429.159    
    847000   1.013027       0.0023323615   0.00059585856  20.433398      18.929053      1.5043452     -1.3934032      18291.269    
    848000   1.0776415      0.0023323615   0.005198403    20.194814      18.594516      1.6002976     -1.9118265      18350.816    
    849000   1.1831361      0.0023323615  -0.0014458126   20.358208      18.601251      1.7569571     -1.8344944      18248.425    
    850000   1.0657848      0.0023323615  -0.0044444518   20.568186      18.985496      1.5826904     -1.5487031      18292.352    
    851000   1.1831682      0.0023323615   7.7162964e-05  20.406919      18.649914      1.7570047     -1.8977104      18269.558    
    852000   0.98076366     0.0023323615  -0.0026050074   20.839816      19.383382      1.456434      -1.2807903      18459.172    
    853000   1.055551       0.0023323615   0.0010181072   20.255504      18.688011      1.5674932     -1.8765451      18371.744    
    854000   1.0684869      0.0023323615  -0.0010050346   20.284447      18.697744      1.586703      -1.7803268      18214.016    
    855000   1.1144301      0.0023323615  -0.0039771791   20.488468      18.833539      1.6549287     -1.6514694      18277.761    
    856000   0.97729472     0.0023323615   0.0020564164   20.411055      18.959772      1.4512827     -1.5205823      18338.476    
    857000   1.0328856      0.0023323615  -0.0015740981   20.339044      18.805209      1.5338351     -1.7459763      18359.025    
    858000   1.0762305      0.0023323615   0.0021800826   20.373695      18.775493      1.5982022     -1.7448355      18259.698    
    859000   1.1659435      0.0023323615  -0.0018137164   20.428662      18.697236      1.731426      -1.8210885      18294.257    
    860000   0.97506128     0.0023323615   0.0028371024   20.50112       19.053154      1.447966      -1.5523207      18392.893    
    861000   1.1731689      0.0023323615   0.00085512534  20.640135      18.897979      1.7421558     -1.5738216      18506.78     
    862000   1.0026524      0.0023323615   0.0002018871   20.206761      18.717822      1.4889388     -1.7101609      18345.039    
    863000   1.0723612      0.0023323615   0.0047038589   20.268608      18.676151      1.5924564     -1.8261627      18383.641    
    864000   0.96012434     0.0023323615  -0.00066919703  20.52506       19.099276      1.4257847     -1.4473868      18443.553    
    865000   0.88183431     0.0023323615  -4.5914945e-05  20.17169       18.862166      1.309524      -1.7174408      18427.679    
    866000   0.93233932     0.0023323615   0.0015833382   20.342451      18.957927      1.3845239     -1.6680739      18345.149    
    867000   1.1047677      0.0023323615   0.00037895617  20.468313      18.827733      1.6405801     -1.7343686      18318.152    
    868000   0.86988577     0.0023323615   0.0037927158   20.229149      18.937369      1.2917804     -1.5312386      18297.027    
    869000   0.95347954     0.0023323615   0.0034885718   20.352848      18.936931      1.4159171     -1.5982784      18415.786    
    870000   1.0204506      0.0023323615  -0.0039473835   20.29761       18.782241      1.5153692     -1.7049297      18275.006    
    871000   1.0383274      0.0023323615   0.0018276373   20.577788      19.035872      1.5419161     -1.5658761      18408.514    
    872000   0.92221676     0.0023323615  -0.0026204992   20.11641       18.746918      1.3694919     -1.7787948      18394.944    
    873000   1.1058676      0.0023323615  -0.0013564508   20.371794      18.72958       1.6422135     -1.7188277      18363.426    
    874000   0.88280812     0.0023323615   0.0013484072   19.89117       18.5802        1.3109701     -1.8623103      18318.979    
    875000   0.99642206     0.0023323615   0.00061975831  20.462197      18.98251       1.4796868     -1.5880049      18424.168    
    876000   0.84675393     0.0023323615  -0.00036378169  20.017995      18.760566      1.2574296     -1.8424303      18343.049    
    877000   1.0875111      0.0023323615   0.00069975315  20.56813       18.953176      1.6149539     -1.542248       18412.12     
    878000   1.0831953      0.0023323615  -0.0030576237   20.455356      18.846811      1.608545      -1.6222783      18514.511    
    879000   1.0628872      0.0023323615  -0.0018955273   20.679257      19.10087       1.5783874     -1.4476705      18441.655    
    880000   0.96126146     0.0023323615  -0.001438755    20.245434      18.817961      1.4274733     -1.6707956      18383.55     
    881000   0.96564285     0.0023323615   0.0011709504   20.280511      18.846531      1.4339796     -1.7163742      18404.397    
    882000   1.0018182      0.0023323615   0.0039647324   20.565896      19.078196      1.4877001     -1.579002       18466.556    
    883000   1.0181461      0.0023323615   0.0019632829   20.346423      18.834476      1.5119469     -1.6088688      18341.708    
    884000   0.97904606     0.0023323615   0.0024742153   20.216997      18.763114      1.4538834     -1.7359255      18248.888    
    885000   0.93100352     0.0023323615   0.0035228819   20.195207      18.812666      1.3825402     -1.6615261      18359.312    
    886000   1.0129783      0.0023323615   0.00087105828  20.43381       18.929537      1.5042728     -1.7016832      18338.035    
    887000   1.0118167      0.0023323615   0.0019453569   20.225632      18.723084      1.5025479     -1.7397843      18220.333    
    888000   1.0576452      0.0023323615  -0.00012911455  20.563725      18.993122      1.5706032     -1.6956866      18323.862    
    889000   0.93578117     0.0023323615  -0.0024913976   20.023452      18.633817      1.389635      -1.8076747      18237.858    
    890000   1.1027155      0.0023323615   0.0022893155   20.34066       18.703127      1.6375325     -1.854995       18167.814    
    891000   0.96981467     0.0023323615   0.00022426461  20.283642      18.843467      1.4401748     -1.6006393      18183.565    
    892000   0.94162663     0.0023323615  -0.00057946182  20.192171      18.793855      1.3983155     -1.6669685      18049.456    
    893000   0.98092055     0.0023323615   2.4034316e-05  20.332597      18.87593       1.456667      -1.6063989      18256.085    
    894000   1.0666924      0.0023323615   0.0012123535   20.577402      18.993364      1.5840383     -1.4773364      18310.842    
    895000   1.1712589      0.0023323615   5.1728852e-07  20.507158      18.767838      1.7393194     -1.807995       18354.7      
    896000   1.0251657      0.0023323615  -0.00044803827  20.63787       19.115499      1.522371      -1.4175498      18191.038    
    897000   0.90473202     0.0023323615   0.0026582189   20.163297      18.81977       1.343527      -1.6601037      18040.824    
    898000   0.92359269     0.0023323615  -0.0030262066   20.465121      19.093585      1.3715351     -1.4927788      18025.671    
    899000   0.87928924     0.0023323615   0.0038906277   20.263062      18.957318      1.3057445     -1.5404695      18192.095    
    900000   1.048485       0.0023323615  -0.0011954878   20.505236      18.948236      1.5570002     -1.5697584      17978.993    
    901000   1.0298213      0.0023323615   0.00012047236  20.76166       19.232375      1.5292847     -1.2710956      18010.582    
    902000   0.97893147     0.0023323615   0.007755993    20.469397      19.015683      1.4537132     -1.5187762      18138.193    
    903000   0.97420124     0.0023323615   0.002547342    20.327969      18.88128       1.4466888     -1.6067236      18048.18     
    904000   1.0041316      0.0023323615   0.0016752417   20.460133      18.968997      1.4911355     -1.6597963      17993.734    
    905000   1.2005966      0.0023323615   0.00062826366  20.463628      18.680742      1.7828859     -1.7479498      18116.981    
    906000   1.0355293      0.0023323615   0.001285629    20.158367      18.620607      1.537761      -1.8232948      17881.883    
    907000   0.9505511      0.0023323615  -0.00084679431  20.376762      18.965194      1.4115684     -1.5762203      17984.254    
    908000   1.0588492      0.0023323615   0.0001967859   20.708333      19.135942      1.5723911     -1.4803693      18039.35     
    909000   1.0804382      0.0023323615   0.00045739093  20.589794      18.985343      1.6044508     -1.6288533      18275.288    
    910000   1.004594       0.0023323615  -0.0024594516   20.600052      19.10823       1.491822      -1.4834341      18456.694    
    911000   0.96591304     0.0023323615   0.00078177786  20.527319      19.092938      1.4343809     -1.3893095      18322.486    
    912000   1.1006924      0.0023323615  -0.00057689599  20.764429      19.1299        1.6345282     -1.4145184      18296.892    
    913000   0.96950944     0.0023323615   0.0034638733   20.48722       19.047499      1.4397215     -1.4800082      18375.37     
    914000   0.92638896     0.0023323615   0.00027469218  20.368422      18.992735      1.3756876     -1.6783302      18318.481    
    915000   1.1972356      0.0023323615   0.002494531    20.544165      18.76627       1.7778948     -1.8536564      18277.634    
    916000   1.0300831      0.0023323615   0.0032408346   20.451205      18.921531      1.5296734     -1.5423478      18343.12     
    917000   0.95372832     0.0023323615  -0.00078317384  20.137426      18.72114       1.4162866     -1.7313721      18429.908    
    918000   1.0530225      0.0023323615  -0.0015351477   20.531817      18.968078      1.5637383     -1.5573736      18480.54     
    919000   0.94666811     0.0023323615  -0.0018648697   20.411519      19.005717      1.4058021     -1.4894101      18374.149    
    920000   0.91393471     0.0023323615  -0.0026835493   20.211214      18.854021      1.357193      -1.6617506      18446.188    
    921000   1.0628128      0.0023323615  -0.00052558013  20.501227      18.92295       1.578277      -1.5642219      18331.699    
    922000   1.0104373      0.0023323615   0.00083069129  20.304318      18.803819      1.5004993     -1.7415568      18246.049    
    923000   0.99671892     0.0023323615  -0.0023237362   20.185212      18.705084      1.4801276     -1.8055223      18275.984    
    924000   0.99328937     0.0023323615   0.00080721927  20.383051      18.908016      1.4750347     -1.5778672      18335.239    
    925000   1.016516       0.0023323615  -0.003379349    20.396377      18.886851      1.5095263     -1.6831505      18279.816    
    926000   1.0085168      0.0023323615   0.0015549545   20.57846       19.080812      1.4976475     -1.4967471      18454.844    
    927000   1.0506268      0.0023323615   0.003665031    20.399379      18.839198      1.5601808     -1.6254167      18534.008    
    928000   1.0074538      0.0023323615   0.00051823538  20.158214      18.662145      1.4960689     -1.725417       18277.56     
    929000   0.9456637      0.0023323615  -0.0024750356   20.312241      18.90793       1.4043106     -1.6649898      18230.796    
    930000   0.96349591     0.0023323615  -0.00033306352  20.003696      18.572905      1.4307914     -1.9402277      18185.212    
    931000   0.87054481     0.0023323615  -0.00044864241  20.275136      18.982377      1.292759      -1.5951107      18202.934    
    932000   0.93270249     0.0023323615  -0.0035886645   20.407067      19.022004      1.3850632     -1.6029621      18722.537    
    933000   1.040015       0.0023323615   0.00035017824  20.472711      18.928289      1.5444223     -1.6095057      18637.57     
    934000   1.1102884      0.0023323615  -0.00094971253  20.433716      18.784938      1.6487783     -1.7174249      18515.631    
    935000   1.0120968      0.0023323615  -0.0057807953   20.792756      19.289792      1.5029637     -1.2911258      18550.486    
    936000   1.0397648      0.0023323615  -0.0011118      20.33953       18.795479      1.5440507     -1.6785246      18420.659    
    937000   1.0421619      0.0023323615   0.0011133983   20.616314      19.068703      1.5476104     -1.5135188      18475.501    
    938000   0.9584085      0.0023323615   0.0011656869   20.427415      19.004178      1.4232366     -1.5561699      18415.555    
    939000   1.0086322      0.0023323615  -0.0016947676   20.379858      18.882039      1.4978188     -1.6245408      18347.298    
    940000   1.0627282      0.0023323615   4.4846375e-05  20.506358      18.928206      1.5781514     -1.6175791      17991.493    
    941000   0.99466691     0.0023323615   0.0041895967   20.560407      19.083327      1.4770804     -1.501723       18284.661    
    942000   1.0142022      0.0023323615  -0.0012181632   20.522106      19.016016      1.5060903     -1.4298269      18459.339    
    943000   1.0000971      0.0023323615  -0.0023881552   20.952749      19.467605      1.4851441     -1.1550492      18520.839    
    944000   1.0866386      0.0023323615  -0.0034513604   20.822464      19.208806      1.6136583     -1.5072463      18405.364    
    945000   1.0310941      0.0023323615   0.00042734746  20.286244      18.755069      1.5311747     -1.6201312      18353.462    
    946000   0.94094296     0.0023323615  -0.0036073136   19.959615      18.562314      1.3973003     -1.9230857      18327.462    
    947000   1.1261784      0.0023323615  -0.00096308152  20.522657      18.850282      1.6723749     -1.762891       18082.626    
    948000   1.0199459      0.0023323615   0.0012502351   20.1478        18.63318       1.5146196     -1.8741706      18100.051    
    949000   1.0667419      0.0023323615  -0.0054237169   20.476695      18.892583      1.5841117     -1.5752044      18282.733    
    950000   0.90521932     0.0023323615   0.00089665258  20.133643      18.789392      1.3442507     -1.7009762      18432.688    
    951000   0.9448786      0.0023323615   0.00010689872  20.504087      19.100942      1.4031447     -1.4059504      18426.039    
    952000   1.0207128      0.0023323615   0.0017489917   20.394653      18.878895      1.5157585     -1.6024146      18488.639    
    953000   1.0823352      0.0023323615   0.00029666696  20.476509      18.869241      1.6072678     -1.6361834      18293.475    
    954000   1.0300977      0.0023323615   0.0045321367   20.579269      19.049573      1.5296951     -1.5654998      18363.092    
    955000   1.0410062      0.0023323615   0.0012729057   19.987263      18.441369      1.5458943     -2.0576358      18435.997    
    956000   0.95464603     0.0023323615  -0.0044076942   20.023871      18.606222      1.4176494     -1.9064593      18332.084    
    957000   1.140585       0.0023323615  -0.00093186594  20.435769      18.742         1.6937687     -1.8316745      18405.676    
    958000   1.0896303      0.0023323615  -0.0014102243   20.459959      18.841858      1.618101      -1.7203349      18472.024    
    959000   1.1264008      0.0023323615   0.003028112    20.656468      18.983763      1.6727052     -1.5238442      18592.051    
    960000   1.0580554      0.0023323615  -0.0013854159   20.152044      18.580832      1.5712122     -1.8536272      18491.643    
    961000   1.0404724      0.0023323615  -0.00017175396  20.4842        18.939099      1.5451015     -1.4928684      18417.413    
    962000   1.1098144      0.0023323615  -0.0010599118   20.433183      18.785108      1.6480743     -1.7814805      18467.304    
    963000   0.99595581     0.0023323615   0.0011322339   20.161219      18.682225      1.4789944     -1.7817141      18476.462    
    964000   0.97458343     0.0023323615   0.00038211927  20.059297      18.612041      1.4472564     -1.7948065      18187.289    
    965000   0.98153852     0.0023323615   0.00098740888  20.126355      18.66877       1.4575847     -1.8404125      18255.43     
    966000   0.98539917     0.0023323615   0.00087039208  20.203848      18.74053       1.4633178     -1.7579064      18329.676    
    967000   1.0471191      0.0023323615   0.001159098    20.178817      18.623845      1.5549719     -2.0167382      18291.571    
    968000   0.95196526     0.0023323615  -0.0018591365   20.236453      18.822785      1.4136684     -1.6847762      18242.871    
    969000   0.92373359     0.0023323615  -0.00050205871  20.119614      18.74787       1.3717444     -1.8613285      18347.46     
    970000   0.99474167     0.0023323615  -0.0011838487   20.454981      18.97779       1.4771914     -1.5684745      18427.094    
    971000   0.97932648     0.0023323615   0.0054352676   20.442138      18.987839      1.4542998     -1.5690672      18405.194    
    972000   0.99834962     0.0023323615  -0.0015273087   20.443987      18.961438      1.4825492     -1.6565689      18517.929    
    973000   1.0641098      0.0023323615  -0.0010879419   20.872557      19.292354      1.5802031     -1.2910376      18504.32     
    974000   0.92213818     0.0023323615  -0.005509352    20.406208      19.036833      1.3693752     -1.5731174      18582.553    
    975000   1.0038719      0.0023323615  -0.0010755183   20.471127      18.980377      1.4907497     -1.6321995      18650.735    
    976000   0.93683384     0.0023323615  -0.00034237864  20.285856      18.894658      1.3911983     -1.5287326      18618.078    
    977000   1.0136624      0.0023323615   0.0027327782   20.393988      18.888699      1.5052886     -1.5809408      18535.728    
    978000   1.147333       0.0023323615   0.0017896121   20.407669      18.70388       1.7037896     -1.6914609      18411.917    
    979000   0.94115437     0.0023323615   0.00065509876  20.102405      18.704791      1.3976142     -1.7880023      18313.1      
    980000   0.98646226     0.0023323615   0.0018763315   20.374033      18.909137      1.4648965     -1.6086496      18466.709    
    981000   0.98918836     0.0023323615  -0.0015540946   20.526568      19.057623      1.4689447     -1.4604915      18528.878    
    982000   1.0219646      0.0023323615   0.0013522691   20.411642      18.894025      1.5176174     -1.6617829      18501.487    
    983000   1.1213755      0.0023323615  -0.0014756087   20.237351      18.572108      1.6652426     -1.8166654      18443.724    
    984000   1.0248231      0.0023323615   0.0057908275   20.287322      18.76546       1.5218623     -1.6258085      18337.681    
    985000   1.040809       0.0023323615  -0.0063436246   20.274948      18.729347      1.5456014     -1.9489327      18284.226    
    986000   0.95535622     0.0023323615   0.0007705532   20.07713       18.658426      1.418704      -1.8636418      18362.764    
    987000   0.92943648     0.0023323615  -0.0065885604   20.169646      18.789432      1.3802132     -1.7405569      18427.802    
    988000   1.1346617      0.0023323615   0.0025031078   20.48435       18.799377      1.6849726     -1.6946359      18460.268    
    989000   0.96171042     0.0023323615   0.0016017314   20.342369      18.914229      1.42814       -1.5667594      18347.058    
    990000   0.96267905     0.0023323615   0.00088813533  20.249864      18.820285      1.4295784     -1.7831955      18206.935    
    991000   1.0130668      0.0023323615   0.00059198829  20.40122       18.896816      1.5044042     -1.6550526      18310.886    
    992000   1.0533399      0.0023323615  -0.001550308    20.216593      18.652383      1.5642098     -1.8941014      18321.887    
    993000   1.0981511      0.0023323615   0.0027977629   20.743026      19.112272      1.6307543     -1.4490166      18301.653    
    994000   1.0639393      0.0023323615   0.00048648664  20.515889      18.935939      1.5799499     -1.629376       18286.802    
    995000   1.0692697      0.0023323615   0.00012012299  20.389731      18.801865      1.5878656     -1.6547273      18360.085    
    996000   0.83687505     0.0023323615   0.0014758016   20.217982      18.975223      1.2427595     -1.5337885      18288.662    
    997000   0.93419706     0.0023323615  -0.00049569909  20.20239       18.815107      1.3872826     -1.6947554      18471.904    
    998000   1.0067801      0.0023323615   0.0039529279   20.694338      19.19927       1.4950685     -1.4432667      18485.006    
    999000   1.1271937      0.0023323615  -0.00082858175  20.89349       19.219607      1.6738827     -1.433155       18373.283    
   1000000   0.99709533     0.0023323615   0.0023254181   20.404026      18.923339      1.4806866     -1.630526       18446.948    
Loop time of 54.391 on 1 procs for 1000000 steps with 100 atoms

Performance: 7942494.915 tau/day, 18385.405 timesteps/s
99.4% CPU use with 1 MPI tasks x 1 OpenMP threads

MPI task timing breakdown:
Section |  min time  |  avg time  |  max time  |%varavg| %total
---------------------------------------------------------------
Pair    | 45.421     | 45.421     | 45.421     |   0.0 | 83.51
Bond    | 1.2614     | 1.2614     | 1.2614     |   0.0 |  2.32
Neigh   | 3.8036     | 3.8036     | 3.8036     |   0.0 |  6.99
Comm    | 1.3848     | 1.3848     | 1.3848     |   0.0 |  2.55
Output  | 0.21286    | 0.21286    | 0.21286    |   0.0 |  0.39
Modify  | 1.9398     | 1.9398     | 1.9398     |   0.0 |  3.57
Other   |            | 0.3676     |            |       |  0.68

Nlocal:            100 ave         100 max         100 min
Histogram: 1 0 0 0 0 0 0 0 0 0
Nghost:            316 ave         316 max         316 min
Histogram: 1 0 0 0 0 0 0 0 0 0
Neighs:           4851 ave        4851 max        4851 min
Histogram: 1 0 0 0 0 0 0 0 0 0

Total # of neighbors = 4851
Ave neighs/atom = 48.51
Ave special neighs/atom = 1.98
Neighbor list builds = 97810
Dangerous builds = 79319

write_data      ${outputfile_assembled} nofix nocoeff
write_data      7_assembled.data nofix nocoeff
System init for write_data ...
Generated 0 of 6 mixed pair_coeff terms from geometric mixing rule

Total wall time: 0:00:55
