LAMMPS (23 Jun 2022 - Update 1)
OMP_NUM_THREADS environment is not set. Defaulting to 1 thread. (src/comm.cpp:98)
  using 1 OpenMP thread(s) per MPI task


variable        runtime equal 1000000
variable		subsample_rate equal 1000

variable		outputfile_created string '3_created.data'
variable		outputfile_relaxed string '5_relaxed.data'
variable		outputfile_selfasb string '6_a_self_assemble.lammpstrj'
variable		outputfile_trajlin string '6_b_trajlin.data'
variable		outputfile_assembled string '7_assembled.data'

units           lj
atom_style      full
dimension       3
boundary        p p p
timestep        0.005

read_data       ${outputfile_created}
read_data       3_created.data
Reading data file ...
  orthogonal box = (0 0 0) to (35 35 35)
  1 by 1 by 1 MPI processor grid
  reading atoms ...
  100 atoms
  reading velocities ...
  100 velocities
  scanning bonds ...
  1 = max bonds/atom
  reading bonds ...
  99 bonds
Finding 1-2 1-3 1-4 neighbors ...
  special bond factors lj:    0        0        0       
  special bond factors coul:  0        0        0       
     2 = max # of 1-2 neighbors
     2 = max # of 1-3 neighbors
     4 = max # of 1-4 neighbors
     6 = max # of special neighbors
  special bonds CPU = 0.000 seconds
  read_data CPU = 0.006 seconds

bond_style      fene
bond_coeff      * 30.0 1.5 1.0 1.0
special_bonds   fene
Finding 1-2 1-3 1-4 neighbors ...
  special bond factors lj:    0        1        1       
  special bond factors coul:  0        1        1       
     2 = max # of 1-2 neighbors
     6 = max # of special neighbors
  special bonds CPU = 0.000 seconds

variable        Temp equal 1.0
variable        velSeed equal 926458

velocity        all create ${Temp} ${velSeed}
velocity        all create 1 ${velSeed}
velocity        all create 1 926458

### Output
thermo_style    custom step temp density press etotal pe ke epair spcpu
thermo          1000

###########################################################################
# Soft relaxation (to remove overlaps of particles)
######################################################################

pair_style      soft 1.0
pair_coeff      * * 0.0
variable        prefactor equal ramp(0,300)
fix             rampSoft all adapt 1 pair soft a * * v_prefactor

minimize        0.0 1.0e-8 1000 100000
WARNING: Using 'neigh_modify every 1 delay 0 check yes' setting during minimization (src/min.cpp:187)
Generated 0 of 6 mixed pair_coeff terms from geometric mixing rule
Neighbor list info ...
  update every 1 steps, delay 0 steps, check yes
  max neighbors/atom: 2000, page size: 100000
  master list distance cutoff = 1.3
  ghost atom cutoff = 1.3
  binsize = 0.65, bins = 54 54 54
  1 neighbor lists, perpetual/occasional/extra = 1 0 0
  (1) pair soft, perpetual
      attributes: half, newton on
      pair build: half/bin/newton
      stencil: half/bin/3d
      bin: standard
WARNING: Communication cutoff 1.3 is shorter than a bond length based estimate of 1.7550000000000001. This may lead to errors. (src/comm.cpp:727)
Per MPI rank memory allocation (min/avg/max) = 8.346 | 8.346 | 8.346 Mbytes
   Step          Temp         Density         Press          TotEng         PotEng         KinEng         E_pair         S/CPU     
         0   1              0.0023323615  -0.0039617958   21.524174      20.039174      1.485          0              0            
       362   1              0.0023323615   0.0023090379   21.485548      20.000548      1.485          0              68732.79     
Loop time of 0.00526907 on 1 procs for 362 steps with 100 atoms

99.1% CPU use with 1 MPI tasks x 1 OpenMP threads

Minimization stats:
  Stopping criterion = force tolerance
  Energy initial, next-to-last, final = 
      20.0391741078675   20.0005480767337   20.0005480767337
  Force two-norm initial, final = 11.878422 7.9509778e-09
  Force max component initial, final = 6.6117807 1.3572772e-09
  Final line search alpha, max atom move = 1 1.3572772e-09
  Iterations, force evaluations = 362 738

MPI task timing breakdown:
Section |  min time  |  avg time  |  max time  |%varavg| %total
---------------------------------------------------------------
Pair    | 0.000214   | 0.000214   | 0.000214   |   0.0 |  4.06
Bond    | 0.0023282  | 0.0023282  | 0.0023282  |   0.0 | 44.19
Neigh   | 0.001519   | 0.001519   | 0.001519   |   0.0 | 28.83
Comm    | 0.00018746 | 0.00018746 | 0.00018746 |   0.0 |  3.56
Output  | 0          | 0          | 0          |   0.0 |  0.00
Modify  | 0          | 0          | 0          |   0.0 |  0.00
Other   |            | 0.00102    |            |       | 19.37

Nlocal:            100 ave         100 max         100 min
Histogram: 1 0 0 0 0 0 0 0 0 0
Nghost:             20 ave          20 max          20 min
Histogram: 1 0 0 0 0 0 0 0 0 0
Neighs:              0 ave           0 max           0 min
Histogram: 1 0 0 0 0 0 0 0 0 0

Total # of neighbors = 0
Ave neighs/atom = 0
Ave special neighs/atom = 1.98
Neighbor list builds = 17
Dangerous builds = 0

fix             nvtSoft all nvt temp ${Temp} ${Temp} 0.5
fix             nvtSoft all nvt temp 1 ${Temp} 0.5
fix             nvtSoft all nvt temp 1 1 0.5
run             100000
Generated 0 of 6 mixed pair_coeff terms from geometric mixing rule
WARNING: Communication cutoff 1.3 is shorter than a bond length based estimate of 1.7550000000000001. This may lead to errors. (src/comm.cpp:727)
Per MPI rank memory allocation (min/avg/max) = 7.221 | 7.221 | 7.221 Mbytes
   Step          Temp         Density         Press          TotEng         PotEng         KinEng         E_pair         S/CPU     
       362   1              0.0023323615   0.0023090379   21.485548      20.000548      1.485          0              0            
      1000   0.90989032     0.0023323615  -0.0021940042   21.776974      20.425787      1.3511871      0.00036425437  78099.733    
      2000   0.86546688     0.0023323615   0.0034714157   21.677128      20.39191       1.2852183      0.0025814786   76950.069    
      3000   0.98199538     0.0023323615   0.0028144228   21.866132      20.407869      1.4582631      0.0011756043   72759.07     
      4000   1.004495       0.0023323615  -0.0014058211   21.945624      20.453949      1.4916751      0.011986179    73269.354    
      5000   1.1222705      0.0023323615   0.0044495116   21.986385      20.319813      1.6665718      0.0050317639   71891.134    
      6000   1.0538243      0.0023323615   0.0023957538   21.985713      20.420784      1.564929       0.012100514    75320.625    
      7000   1.0210598      0.0023323615  -0.00038820026  21.904665      20.388391      1.5162738      0              76876.697    
      8000   0.94819751     0.0023323615   0.0024943091   21.747889      20.339816      1.4080733      0              77109.207    
      9000   0.92364502     0.0023323615   0.0020053029   21.724166      20.352554      1.3716129      1.7780894e-05  76334.089    
     10000   0.86685188     0.0023323615   0.00078277366  21.644879      20.357604      1.287275       0.0098636418   76230.325    
     11000   1.0057103      0.0023323615   0.00010113276  21.8558        20.362321      1.4934798      0.020705341    76224.148    
     12000   0.97901664     0.0023323615  -0.0026996968   21.871206      20.417366      1.4538397      0.0052928539   75817.633    
     13000   0.97718436     0.0023323615  -6.1641422e-06  21.963706      20.512587      1.4511188      0.025022446    75073.514    
     14000   1.0530014      0.0023323615  -0.0009993112   21.947994      20.384287      1.5637071      0.0020860456   75137.537    
     15000   0.99094527     0.0023323615   0.0011068478   21.895146      20.423592      1.4715537      0.0015091113   75639.87     
     16000   0.91285091     0.0023323615  -0.00025424173  21.87524       20.519657      1.3555836      0.0047853639   75456.886    
     17000   0.82806978     0.0023323615  -0.00054698156  21.701984      20.472301      1.2296836      0              75564.389    
     18000   1.043278       0.0023323615  -6.6143919e-05  22.003299      20.454031      1.5492679      0.0034319132   76104.254    
     19000   1.0879249      0.0023323615  -0.0017804642   21.998985      20.383416      1.6155685      0.015376175    74234.701    
     20000   1.1144506      0.0023323615   0.0025198298   22.190904      20.535944      1.6549592      0              75924.327    
     21000   1.0427751      0.0023323615   0.0011345349   22.099492      20.550971      1.548521       0.00040047813  76294.766    
     22000   1.0586695      0.0023323615   0.0017882747   22.05673       20.484606      1.5721242      0              76299.604    
     23000   1.0058426      0.0023323615  -0.0055245362   21.954628      20.460951      1.4936763      0.0027619031   75347.066    
     24000   0.98273442     0.0023323615   0.0015147357   21.862067      20.402707      1.4593606      0              75616.774    
     25000   0.95835343     0.0023323615   0.0017808774   21.937761      20.514606      1.4231548      0.00020839942  75679.271    
     26000   0.93993778     0.0023323615  -0.0021777292   21.884849      20.489042      1.3958076      0.0088889834   76163.081    
     27000   0.9308188      0.0023323615  -0.00011239942  21.842252      20.459986      1.3822659      0.021612409    75395.21     
     28000   1.0149581      0.0023323615   0.0041996387   21.906846      20.399633      1.5072129      0.0064059022   75962.987    
     29000   0.92841138     0.0023323615  -2.5398808e-05  21.987185      20.608494      1.3786909      0.0046112484   75804.333    
     30000   1.021043       0.0023323615   0.001589158    22.097958      20.581709      1.5162489      0.016799508    73170.521    
     31000   1.0465985      0.0023323615  -0.0021744286   22.037917      20.483718      1.5541987      0.0057879149   75946.631    
     32000   0.98907108     0.0023323615  -0.0015558606   22.044089      20.575318      1.4687705      0.009448173    75418        
     33000   1.0918536      0.0023323615  -0.0025643847   22.039275      20.417873      1.6214025      0              74920.796    
     34000   0.99801543     0.0023323615   0.0016279766   21.932339      20.450286      1.4820529      0.017384617    76918.343    
     35000   1.0352271      0.0023323615  -0.0052971711   22.076004      20.538692      1.5373122      0.00010473809  75386.27     
     36000   1.1141579      0.0023323615  -0.00093279925  22.222491      20.567966      1.6545245      0.00033678641  76767.846    
     37000   1.0369415      0.0023323615   0.00013065175  22.217841      20.677983      1.5398581      0.013788831    75826.101    
     38000   1.0515596      0.0023323615   0.0021717558   22.070766      20.5092        1.561566       0.0067894678   76502.244    
     39000   1.0238495      0.0023323615   0.00026414509  22.040141      20.519725      1.5204165      0.00044464649  75301.018    
     40000   1.0749111      0.0023323615  -0.0026849368   22.039327      20.443084      1.596243       0.012651334    73909.065    
     41000   0.99070886     0.0023323615  -0.0030385564   22.03241       20.561207      1.4712027      0.00092855646  76972.197    
     42000   0.95315224     0.0023323615   0.0019788197   21.965263      20.549832      1.4154311      0.020233689    75622.961    
     43000   1.0644183      0.0023323615  -0.0011168725   22.287172      20.706511      1.5806611      0.039694129    75674.741    
     44000   1.0253747      0.0023323615  -0.006676522    22.066233      20.543552      1.5226814      0              74632.686    
     45000   0.94179556     0.0023323615  -0.0047206018   21.970644      20.572077      1.3985664      0.019869988    75465.724    
     46000   1.0083495      0.0023323615  -0.0017646918   21.972114      20.474715      1.497399       0.00026040605  73883.351    
     47000   0.98767959     0.0023323615  -0.00080218158  22.091674      20.62497       1.4667042      0.024266258    75340.237    
     48000   1.1473449      0.0023323615  -0.0025885687   22.080512      20.376705      1.7038072      0.00065962995  75550.556    
     49000   1.0679312      0.0023323615   0.0017688272   21.970482      20.384604      1.5858779      0.014142422    76479.847    
     50000   0.9581935      0.0023323615   0.0014398836   21.955202      20.532284      1.4229173      0.0055011948   75984.73     
     51000   1.0215759      0.0023323615  -0.00093292688  21.934681      20.41764       1.5170402      0              75634.481    
     52000   0.98079591     0.0023323615   0.0040701936   21.977374      20.520892      1.4564819      0.0020862422   76459.813    
     53000   1.0090927      0.0023323615   0.0013324753   22.095438      20.596935      1.4985027      0              75754.511    
     54000   0.97519627     0.0023323615   0.0013260734   22.070151      20.621984      1.4481665      0.026885444    76624.401    
     55000   1.1805087      0.0023323615  -0.001586238    22.424088      20.671033      1.7530554      0.024690954    76425.798    
     56000   0.98387121     0.0023323615   0.0037155145   22.104425      20.643376      1.4610487      0.01435493     75955.007    
     57000   1.0723812      0.0023323615  -0.0037916262   22.122726      20.53024       1.592486       0.013635549    76321.307    
     58000   1.0152349      0.0023323615   0.00021908047  22.082827      20.575203      1.5076238      0.00077375639  76269.878    
     59000   1.1424502      0.0023323615  -0.0052108657   22.30072       20.604182      1.6965385      0.013308184    77177.353    
     60000   1.0359703      0.0023323615  -0.00097887545  22.188218      20.649802      1.538416       0.00011346294  75481.935    
     61000   1.1646839      0.0023323615  -0.002085017    22.239945      20.51039       1.7295556      0.012918477    77443.887    
     62000   1.101836       0.0023323615   0.0010338878   22.171386      20.53516       1.6362265      0.001396566    76602.988    
     63000   0.96616435     0.0023323615   0.00097550571  21.903821      20.469067      1.4347541      0.013027663    77912.506    
     64000   1.0068907      0.0023323615  -0.0020278726   22.061652      20.566419      1.4952327      0.013750276    76383.691    
     65000   0.98723233     0.0023323615   0.0022441476   22.031073      20.565033      1.46604        0.0066686189   76663.535    
     66000   1.0273881      0.0023323615  -0.0003515278   22.183579      20.657908      1.5256713      0              74814.942    
     67000   0.96528212     0.0023323615  -0.00014822656  21.9396        20.506156      1.4334439      0.010365557    76745.176    
     68000   1.069702       0.0023323615   9.4754668e-05  22.081119      20.492611      1.5885075      0.00049153926  73978.8      
     69000   1.1229502      0.0023323615   0.0011504079   22.200329      20.532748      1.6675811      0.0068454249   76980.214    
     70000   1.0062775      0.0023323615  -0.00085311964  22.094021      20.599699      1.4943221      0.013222355    75335.23     
     71000   1.0906935      0.0023323615   0.00015260357  22.145362      20.525682      1.6196798      0.018338513    76227.646    
     72000   1.010401       0.0023323615  -6.0487182e-06  22.154105      20.653659      1.5004455      0.0013793953   74925.859    
     73000   1.1177599      0.0023323615  -0.0034084797   22.254435      20.594562      1.6598735      0.00011231735  77476.768    
     74000   0.9768019      0.0023323615   0.00016143893  22.07312       20.622569      1.4505508      0.0084515956   75709.517    
     75000   1.1360996      0.0023323615   0.002159116    22.161595      20.474487      1.6871079      0.0089909162   76462.274    
     76000   0.97379329     0.0023323615  -0.00068458621  21.988928      20.542845      1.446083       0              75554.786    
     77000   0.94876793     0.0023323615  -0.0016073976   21.923496      20.514575      1.4089204      0.017745108    75636.203    
     78000   0.83947996     0.0023323615  -0.00062768559  21.726727      20.480099      1.2466277      0.0054510099   76301.822    
     79000   1.0090614      0.0023323615  -0.00080262643  22.068192      20.569736      1.4984562      0.00023011166  76931.386    
     80000   1.1217643      0.0023323615  -0.0038177864   22.367902      20.702082      1.66582        0.032902439    76172.549    
     81000   1.0240158      0.0023323615   0.00023547123  22.031597      20.510933      1.5206635      0.0068767308   75740.718    
     82000   1.003236       0.0023323615  -0.0022802982   21.894199      20.404393      1.4898055      0.019136282    74279.835    
     83000   1.0554159      0.0023323615   0.004011718    22.104562      20.537269      1.5672927      0.0080869707   74545.839    
     84000   0.83527346     0.0023323615  -0.0034122221   21.874648      20.634267      1.2403811      0.0030083664   75844.199    
     85000   1.036002       0.0023323615   0.0013573923   21.962923      20.42446       1.5384629      0.015709144    76440.549    
     86000   0.9432002      0.0023323615  -0.0032183248   21.913588      20.512936      1.4006523      0.013730309    76420.53     
     87000   0.95566008     0.0023323615  -0.00049614223  21.91653       20.497375      1.4191552      0.0035862035   75622.561    
     88000   0.93373351     0.0023323615  -0.00097093893  21.870485      20.483891      1.3865943      0.0018212145   75207.575    
     89000   0.9684944      0.0023323615  -0.00047342045  21.973429      20.535215      1.4382142      0.00087524744  75670.142    
     90000   0.98293324     0.0023323615  -0.0032204602   22.050919      20.591263      1.4596559      0.015353933    76821.554    
     91000   1.0832827      0.0023323615   0.0048517083   22.11977       20.511095      1.6086749      0.0052867789   77598.735    
     92000   0.85899662     0.0023323615  -0.0013049519   21.765697      20.490087      1.27561        0.0024124001   76656.472    
     93000   0.96176266     0.0023323615  -4.4223672e-05  21.874222      20.446004      1.4282176      0.0045653365   77302.878    
     94000   0.96019503     0.0023323615   0.00024459347  21.944954      20.519064      1.4258896      3.8053462e-05  76319.268    
     95000   0.94702149     0.0023323615  -0.0033658915   21.86315       20.456823      1.4063269      0              77286.83     
     96000   0.91119348     0.0023323615  -0.0013197298   21.825018      20.471896      1.3531223      0.00043282989  75923.117    
     97000   1.0016687      0.0023323615  -0.0019514304   22.013024      20.525546      1.487478       0.0048369955   75524.371    
     98000   1.02143        0.0023323615  -0.0057874974   22.177965      20.661142      1.5168235      0              74591.19     
     99000   1.032786       0.0023323615   0.0018228259   21.975336      20.441649      1.5336871      7.1595851e-05  77637.371    
    100000   1.0594928      0.0023323615   0.0036169719   22.011024      20.437677      1.5733468      0.00032948157  76076.353    
    100362   1.1904942      0.0023323615  -0.00089755607  22.316856      20.548972      1.7678839      0.00063845255  75646.253    
Loop time of 1.31861 on 1 procs for 100000 steps with 100 atoms

Performance: 32761730.398 tau/day, 75837.339 timesteps/s
98.8% CPU use with 1 MPI tasks x 1 OpenMP threads

MPI task timing breakdown:
Section |  min time  |  avg time  |  max time  |%varavg| %total
---------------------------------------------------------------
Pair    | 0.049436   | 0.049436   | 0.049436   |   0.0 |  3.75
Bond    | 0.12591    | 0.12591    | 0.12591    |   0.0 |  9.55
Neigh   | 0.80453    | 0.80453    | 0.80453    |   0.0 | 61.01
Comm    | 0.055281   | 0.055281   | 0.055281   |   0.0 |  4.19
Output  | 0.0011638  | 0.0011638  | 0.0011638  |   0.0 |  0.09
Modify  | 0.2484     | 0.2484     | 0.2484     |   0.0 | 18.84
Other   |            | 0.03389    |            |       |  2.57

Nlocal:            100 ave         100 max         100 min
Histogram: 1 0 0 0 0 0 0 0 0 0
Nghost:             60 ave          60 max          60 min
Histogram: 1 0 0 0 0 0 0 0 0 0
Neighs:             36 ave          36 max          36 min
Histogram: 1 0 0 0 0 0 0 0 0 0

Total # of neighbors = 36
Ave neighs/atom = 0.36
Ave special neighs/atom = 1.98
Neighbor list builds = 9821
Dangerous builds = 8265
unfix           nvtSoft
unfix           rampSoft
reset_timestep  0

write_data      ${outputfile_relaxed}
write_data      5_relaxed.data
System init for write_data ...
Generated 0 of 6 mixed pair_coeff terms from geometric mixing rule
WARNING: Communication cutoff 1.3 is shorter than a bond length based estimate of 1.7550000000000001. This may lead to errors. (src/comm.cpp:727)
WARNING: Not all mixed pair coeffs generated from mixing. Use write_data with 'pair ij' option to store all pair coeffs. (src/write_data.cpp:309)

###########################################################################
# Full LJ with Coulomb
######################################################################

# Cutoffs and parameters:
# - Values: Marcel Verkade's Bachelor Thesis
# - Mapping to atom groups: Patrick Onck's paper
# - 1: aliphatic, 2: aromatic, 3: anion, 4: cation
# pair_style	lj/cut/coul/cut <lj_cut_global> <coul_cut_global>
# pair_coeff	<type_1>  <type_2>  <eps>  <sigma>  <r_cut_lj>  <r_cut_coul>

# Problem: Onck's model is much more complex, and Marcel has no sigma reported
# Using sigma=1 randomly

variable		glob_ljeps equal 1.0
variable		glob_ljsig 	equal 1.0
variable		glob_coulcut equal 10.0
variable		att_ljcut equal 2.50
variable		rep_ljcut equal 1.12

pair_style		lj/cut/coul/cut 						${att_ljcut} 	${glob_coulcut}
pair_style		lj/cut/coul/cut 						2.5 	${glob_coulcut}
pair_style		lj/cut/coul/cut 						2.5 	10
pair_coeff		1 1 	${glob_ljeps} 	${glob_ljsig}	${att_ljcut} 	${glob_coulcut}
pair_coeff		1 1 	1 	${glob_ljsig}	${att_ljcut} 	${glob_coulcut}
pair_coeff		1 1 	1 	1	${att_ljcut} 	${glob_coulcut}
pair_coeff		1 1 	1 	1	2.5 	${glob_coulcut}
pair_coeff		1 1 	1 	1	2.5 	10
pair_coeff		1 2 	${glob_ljeps} 	${glob_ljsig}	${att_ljcut} 	${glob_coulcut}
pair_coeff		1 2 	1 	${glob_ljsig}	${att_ljcut} 	${glob_coulcut}
pair_coeff		1 2 	1 	1	${att_ljcut} 	${glob_coulcut}
pair_coeff		1 2 	1 	1	2.5 	${glob_coulcut}
pair_coeff		1 2 	1 	1	2.5 	10
pair_coeff		1 3 	${glob_ljeps} 	${glob_ljsig}	${rep_ljcut} 	${glob_coulcut}
pair_coeff		1 3 	1 	${glob_ljsig}	${rep_ljcut} 	${glob_coulcut}
pair_coeff		1 3 	1 	1	${rep_ljcut} 	${glob_coulcut}
pair_coeff		1 3 	1 	1	1.12 	${glob_coulcut}
pair_coeff		1 3 	1 	1	1.12 	10
pair_coeff		1 4 	${glob_ljeps} 	${glob_ljsig}	${rep_ljcut} 	${glob_coulcut}
pair_coeff		1 4 	1 	${glob_ljsig}	${rep_ljcut} 	${glob_coulcut}
pair_coeff		1 4 	1 	1	${rep_ljcut} 	${glob_coulcut}
pair_coeff		1 4 	1 	1	1.12 	${glob_coulcut}
pair_coeff		1 4 	1 	1	1.12 	10
pair_coeff		2 2 	${glob_ljeps} 	${glob_ljsig}	${att_ljcut} 	${glob_coulcut}
pair_coeff		2 2 	1 	${glob_ljsig}	${att_ljcut} 	${glob_coulcut}
pair_coeff		2 2 	1 	1	${att_ljcut} 	${glob_coulcut}
pair_coeff		2 2 	1 	1	2.5 	${glob_coulcut}
pair_coeff		2 2 	1 	1	2.5 	10
pair_coeff		2 3 	${glob_ljeps} 	${glob_ljsig}	${rep_ljcut} 	${glob_coulcut}
pair_coeff		2 3 	1 	${glob_ljsig}	${rep_ljcut} 	${glob_coulcut}
pair_coeff		2 3 	1 	1	${rep_ljcut} 	${glob_coulcut}
pair_coeff		2 3 	1 	1	1.12 	${glob_coulcut}
pair_coeff		2 3 	1 	1	1.12 	10
pair_coeff		2 4 	${glob_ljeps} 	${glob_ljsig}	${att_ljcut} 	${glob_coulcut}
pair_coeff		2 4 	1 	${glob_ljsig}	${att_ljcut} 	${glob_coulcut}
pair_coeff		2 4 	1 	1	${att_ljcut} 	${glob_coulcut}
pair_coeff		2 4 	1 	1	2.5 	${glob_coulcut}
pair_coeff		2 4 	1 	1	2.5 	10
pair_coeff		3 3 	${glob_ljeps} 	${glob_ljsig}	${rep_ljcut} 	${glob_coulcut}
pair_coeff		3 3 	1 	${glob_ljsig}	${rep_ljcut} 	${glob_coulcut}
pair_coeff		3 3 	1 	1	${rep_ljcut} 	${glob_coulcut}
pair_coeff		3 3 	1 	1	1.12 	${glob_coulcut}
pair_coeff		3 3 	1 	1	1.12 	10
pair_coeff		3 4 	${glob_ljeps} 	${glob_ljsig}	${att_ljcut} 	${glob_coulcut}
pair_coeff		3 4 	1 	${glob_ljsig}	${att_ljcut} 	${glob_coulcut}
pair_coeff		3 4 	1 	1	${att_ljcut} 	${glob_coulcut}
pair_coeff		3 4 	1 	1	2.5 	${glob_coulcut}
pair_coeff		3 4 	1 	1	2.5 	10
pair_coeff		4 4 	${glob_ljeps} 	${glob_ljsig}	${rep_ljcut} 	${glob_coulcut}
pair_coeff		4 4 	1 	${glob_ljsig}	${rep_ljcut} 	${glob_coulcut}
pair_coeff		4 4 	1 	1	${rep_ljcut} 	${glob_coulcut}
pair_coeff		4 4 	1 	1	1.12 	${glob_coulcut}
pair_coeff		4 4 	1 	1	1.12 	10


fix             noDriftRot 	all momentum 10 linear 1 1 1 angular
fix             nvt1 		all nvt temp ${Temp} ${Temp} 0.5
fix             nvt1 		all nvt temp 1 ${Temp} 0.5
fix             nvt1 		all nvt temp 1 1 0.5

# dump          assemble 	all custom 1000 				${outputfile_selfasb} id type xu yu zu vx vy vz
dump            lindump 	all custom ${subsample_rate} 	${outputfile_trajlin} id type xu yu zu vx vy vz
dump            lindump 	all custom 1000 	${outputfile_trajlin} id type xu yu zu vx vy vz
dump            lindump 	all custom 1000 	6_b_trajlin.data id type xu yu zu vx vy vz

run             ${runtime}
run             1000000
Generated 0 of 6 mixed pair_coeff terms from geometric mixing rule
Neighbor list info ...
  update every 1 steps, delay 10 steps, check yes
  max neighbors/atom: 2000, page size: 100000
  master list distance cutoff = 10.3
  ghost atom cutoff = 10.3
  binsize = 5.15, bins = 7 7 7
  1 neighbor lists, perpetual/occasional/extra = 1 0 0
  (1) pair lj/cut/coul/cut, perpetual
      attributes: half, newton on
      pair build: half/bin/newton
      stencil: half/bin/3d
      bin: standard
Per MPI rank memory allocation (min/avg/max) = 7.712 | 7.712 | 7.712 Mbytes
   Step          Temp         Density         Press          TotEng         PotEng         KinEng         E_pair         S/CPU     
         0   1.1904942      0.0023323615  -0.0015784736   21.890108      20.122224      1.7678839     -0.42610951     0            
      1000   1.0355671      0.0023323615   0.0018986909   21.291167      19.75335       1.5378171     -0.72127379     33495.183    
      2000   1.0375205      0.0023323615  -0.0028385078   21.479875      19.939157      1.5407179     -0.65826615     30475.994    
      3000   1.1948524      0.0023323615  -0.00029716197  21.153859      19.379503      1.7743558     -1.0064556      25138.409    
      4000   1.1390146      0.0023323615   0.005227922    20.999029      19.307593      1.6914366     -1.0718015      21016.24     
      5000   1.1097147      0.0023323615  -0.0011593023   20.639018      18.991091      1.6479263     -1.5877365      18494.298    
      6000   0.88490297     0.0023323615  -0.00085209104  20.409741      19.09566       1.3140809     -1.4760549      18532.032    
      7000   1.0324249      0.0023323615   0.0018988414   20.867831      19.33468       1.5331509     -1.2047529      18809.508    
      8000   1.0358872      0.0023323615   0.0011686261   20.697795      19.159502      1.5382925     -1.37001        18965.073    
      9000   0.91072917     0.0023323615  -0.0015563453   20.517248      19.164815      1.3524328     -1.2945981      18769.669    
     10000   1.064083       0.0023323615  -0.0014358907   20.639129      19.058965      1.5801633     -1.4087909      18646.502    
     11000   1.0723109      0.0023323615  -0.0021127262   20.645378      19.052996      1.5923818     -1.418978       18515.668    
     12000   1.0635144      0.0023323615   0.00071400175  20.61521       19.035891      1.5793189     -1.3553629      18382.037    
     13000   0.98716941     0.0023323615   0.0023903042   20.532744      19.066798      1.4659466     -1.4644652      18265.91     
     14000   0.85235241     0.0023323615  -0.0037343103   20.489666      19.223923      1.2657433     -1.3278973      18351.362    
     15000   1.0139039      0.0023323615   0.00043074161  20.266757      18.76111       1.5056473     -1.6888337      18390.233    
     16000   1.1490423      0.0023323615  -0.0011348824   20.717994      19.011666      1.7063278     -1.556142       18453.329    
     17000   1.0334689      0.0023323615  -0.00098035095  20.344305      18.809604      1.5347014     -1.7188288      18340.528    
     18000   1.0184178      0.0023323615  -0.00035669632  20.622017      19.109667      1.5123504     -1.554195       18463.744    
     19000   1.1127716      0.0023323615   0.00020286214  20.610638      18.958172      1.6524658     -1.5195985      18414.977    
     20000   0.79425362     0.0023323615  -0.00035456324  20.234431      19.054964      1.1794666     -1.5655335      18330.932    
     21000   0.93523274     0.0023323615   0.00028126727  20.507556      19.118736      1.3888206     -1.5075851      18432.579    
     22000   1.0001981      0.0023323615   0.0010042745   20.814967      19.329672      1.4852942     -1.1487313      18407.594    
     23000   0.85461882     0.0023323615   0.0044369608   20.660459      19.39135       1.2691089     -1.1224181      18699.45     
     24000   0.9819679      0.0023323615   0.0015826634   20.708781      19.250559      1.4582223     -1.1958533      18765.516    
     25000   0.92344274     0.0023323615  -0.0026952826   20.568466      19.197153      1.3713125     -1.3271974      18302.008    
     26000   0.93742002     0.0023323615   0.0041727352   20.304452      18.912383      1.3920687     -1.6248318      18611.205    
     27000   1.0203639      0.0023323615   0.00019408441  20.44562       18.93038       1.5152404     -1.5584107      18604.503    
     28000   1.095429       0.0023323615   0.0046349693   20.587904      18.961192      1.6267121     -1.4878761      18641.515    
     29000   0.91900207     0.0023323615   0.0017710289   20.292726      18.928008      1.3647181     -1.6430488      18246.72     
     30000   1.0566868      0.0023323615   0.0048841584   20.482027      18.912847      1.5691799     -1.6009325      18205.096    
     31000   0.98682249     0.0023323615   0.0026320912   20.6059        19.140469      1.4654314     -1.4696503      18277.978    
     32000   0.92720365     0.0023323615  -0.0017296237   20.489936      19.113039      1.3768974     -1.4626407      18209.387    
     33000   0.86514477     0.0023323615  -0.0038700035   20.428683      19.143943      1.28474       -1.4007272      18280.389    
     34000   1.0152125      0.0023323615   0.00019623613  20.523152      19.015562      1.5075906     -1.5769539      18330.228    
     35000   0.92341846     0.0023323615  -0.0025990059   20.251566      18.880289      1.3712764     -1.5598445      18259.791    
     36000   1.0186764      0.0023323615   0.0046105063   20.705498      19.192763      1.5127344     -1.3894554      18323.885    
     37000   0.9366449      0.0023323615  -0.0007328854   20.413237      19.022319      1.3909177     -1.4371326      18401.496    
     38000   0.99141861     0.0023323615  -0.0060268768   20.599512      19.127255      1.4722566     -1.3902787      18383.431    
     39000   0.9084138      0.0023323615  -0.0014517784   20.643122      19.294127      1.3489945     -1.2791557      18351.953    
     40000   1.0255209      0.0023323615  -0.0017466319   20.386406      18.863508      1.5228986     -1.593779       18304.398    
     41000   0.86025237     0.0023323615   0.0012438965   20.429032      19.151558      1.2774748     -1.4681951      18377.742    
     42000   0.99184778     0.0023323615  -0.0014729351   20.204662      18.731768      1.472894      -1.7339931      18218.357    
     43000   1.0088908      0.0023323615  -0.001304318    20.731533      19.23333       1.4982029     -1.3798422      18201.497    
     44000   1.0770288      0.0023323615  -0.00038802499  20.715054      19.115666      1.5993878     -1.2999411      18220.635    
     45000   0.96913662     0.0023323615   0.0017757877   20.243015      18.803847      1.4391679     -1.6496785      17819.296    
     46000   1.1336497      0.0023323615  -0.00065230304  20.642666      18.959196      1.6834699     -1.5664338      18205.74     
     47000   0.90631864     0.0023323615  -0.0052068615   20.506658      19.160775      1.3458832     -1.4751892      18048.621    
     48000   1.1009947      0.0023323615  -0.0012014123   20.485461      18.850484      1.6349771     -1.5475384      18326.257    
     49000   1.1349392      0.0023323615  -0.0025651713   20.557601      18.872216      1.6853847     -1.5837166      18381.833    
     50000   1.0253934      0.0023323615   0.00076106335  20.748967      19.226257      1.5227092     -1.4155548      18205.634    
     51000   1.0217699      0.0023323615   0.0023429454   20.440651      18.923323      1.5173284     -1.6230413      18149.11     
     52000   0.96151804     0.0023323615   0.00084283964  20.369729      18.941875      1.4278543     -1.5448614      18119.22     
     53000   1.1183864      0.0023323615   0.0046005122   20.643296      18.982492      1.6608037     -1.6112782      18409.621    
     54000   0.87788752     0.0023323615  -0.0018898451   20.143251      18.839588      1.303663      -1.636001       18320.293    
     55000   0.93073366     0.0023323615  -0.0019762639   20.348699      18.96656       1.3821395     -1.4941653      18362.305    
     56000   0.95368495     0.0023323615  -0.0022445452   20.601186      19.184964      1.4162221     -1.3544265      18378.029    
     57000   0.93121031     0.0023323615  -0.0019732722   20.467274      19.084426      1.3828473     -1.5058173      18409.444    
     58000   0.9138035      0.0023323615  -0.0032248337   20.374362      19.017363      1.3569982     -1.5174752      18204.624    
     59000   1.1217597      0.0023323615  -0.00080582636  20.62049       18.954677      1.6658131     -1.5869644      18133.016    
     60000   1.0842659      0.0023323615  -0.00054615206  20.643248      19.033113      1.6101349     -1.5585967      18214.265    
     61000   1.1165477      0.0023323615  -0.0028562952   20.815888      19.157815      1.6580734     -1.495021       18128.547    
     62000   0.93782697     0.0023323615   0.0010680857   20.63967       19.246997      1.3926731     -1.3248968      18385.395    
     63000   0.93920564     0.0023323615   0.006951405    20.539903      19.145183      1.3947204     -1.3773961      18405.31     
     64000   0.93889035     0.0023323615   0.0027806812   20.633282      19.23903       1.3942522     -1.1744009      18357.063    
     65000   0.88431012     0.0023323615  -0.0014394145   20.662535      19.349335      1.3132005     -1.2268458      18400.993    
     66000   1.0078504      0.0023323615  -0.00043950509  20.976986      19.480328      1.4966579     -0.99420851     18418.96     
     67000   0.99202169     0.0023323615   0.0015175672   20.905926      19.432773      1.4731522     -1.1070696      18553.421    
     68000   1.075006       0.0023323615  -0.0026287262   20.929113      19.332729      1.5963839     -1.0526558      18875.323    
     69000   0.95618142     0.0023323615   0.0025506208   20.646367      19.226438      1.4199294     -1.3031856      18708.079    
     70000   1.0898079      0.0023323615  -0.0013207129   20.817281      19.198916      1.6183647     -1.3307958      18399.003    
     71000   1.2489223      0.0023323615  -0.0028598975   21.009427      19.154778      1.8546496     -1.3803757      18456.543    
     72000   1.0494694      0.0023323615   0.00044145855  20.845022      19.28656       1.5584621     -1.1534066      18438.889    
     73000   0.87449915     0.0023323615  -0.0028093715   20.590101      19.291469      1.2986312     -1.11991        18454.465    
     74000   0.90204864     0.0023323615  -0.0032107563   20.550722      19.21118       1.3395422     -1.2767533      18845.198    
     75000   0.98465472     0.0023323615   7.0543638e-05  20.664779      19.202567      1.4622123     -1.2990793      18529.29     
     76000   1.0973595      0.0023323615  -0.001827859    20.849667      19.220088      1.6295789     -1.4477936      18341.924    
     77000   1.0525827      0.0023323615  -0.00012771307  20.645137      19.082051      1.5630853     -1.3681596      18407.76     
     78000   1.1064904      0.0023323615   0.0035815225   20.707535      19.064396      1.6431383     -1.3383211      18468.493    
     79000   0.88859057     0.0023323615  -0.00064035773  20.163811      18.844254      1.319557      -1.7123857      18119.303    
     80000   1.1111599      0.0023323615   0.0013618421   20.600532      18.95046       1.6500725     -1.6184175      18178.018    
     81000   0.78942159     0.0023323615   0.0036824956   20.011018      18.838727      1.1722911     -1.695137       17922.703    
     82000   0.95780544     0.0023323615   0.0027307679   20.507166      19.084825      1.4223411     -1.4632897      18216.991    
     83000   0.89133371     0.0023323615  -0.0016754815   20.252152      18.928522      1.3236306     -1.6235357      18264.352    
     84000   1.109436       0.0023323615  -0.00075393202  20.516421      18.868908      1.6475124     -1.6580982      18381.878    
     85000   1.1517651      0.0023323615   0.0036851353   20.780533      19.070161      1.7103711     -1.6236843      18383.106    
     86000   0.93728441     0.0023323615  -0.00052183757  20.682799      19.290931      1.3918673     -1.3092892      18333.114    
     87000   0.99596553     0.0023323615   0.0041499622   20.252802      18.773793      1.4790088     -1.7146389      18348.751    
     88000   0.81482511     0.0023323615  -0.0043071185   20.494988      19.284973      1.2100153     -1.2635435      18377.332    
     89000   0.95911005     0.0023323615  -0.00087410484  20.394859      18.970581      1.4242784     -1.5905058      18292.614    
     90000   1.0041347      0.0023323615   2.9379022e-05  20.485327      18.994187      1.4911401     -1.5043137      18283.958    
     91000   0.93674246     0.0023323615   0.00033136881  20.513239      19.122176      1.3910625     -1.400413       18392.622    
     92000   0.94486592     0.0023323615   0.0073789075   20.386803      18.983677      1.4031259     -1.6222973      18682.269    
     93000   0.83132377     0.0023323615   0.0053366635   20.361519      19.127003      1.2345158     -1.4777864      18434.863    
     94000   1.037988       0.0023323615   0.00098545319  20.651116      19.109703      1.5414122     -1.4209579      18333.299    
     95000   1.029407       0.0023323615  -0.00040039047  20.686132      19.157463      1.5286694     -1.3331227      18396.347    
     96000   0.96611437     0.0023323615  -7.968265e-05   20.413559      18.97888       1.4346798     -1.5590807      18376.723    
     97000   0.90743246     0.0023323615   0.0031385853   20.397386      19.049849      1.3475372     -1.4764606      18296.349    
     98000   1.0140139      0.0023323615   0.00066233744  20.587882      19.082071      1.5058107     -1.4899677      18030.721    
     99000   1.147739       0.0023323615  -0.004109362    21.047195      19.342802      1.7043925     -1.3053889      18112.48     
    100000   1.0348656      0.0023323615   0.0038165676   20.417031      18.880256      1.5367755     -1.6220402      18310.235    
    101000   1.170483       0.0023323615   0.0020218991   20.592662      18.854495      1.7381672     -1.5966375      18291.96     
    102000   1.1072152      0.0023323615   0.0001446708   20.610486      18.966271      1.6442146     -1.5072027      18401.54     
    103000   0.98022239     0.0023323615   0.00056316892  20.692203      19.236573      1.4556303     -1.3089012      18293.482    
    104000   1.1013343      0.0023323615   0.00015633322  20.780704      19.145223      1.6354814     -1.4572762      18307.995    
    105000   0.98713387     0.0023323615  -0.00084764858  20.351609      18.885715      1.4658938     -1.7315212      18344.553    
    106000   0.92111695     0.0023323615  -0.0014075494   20.214886      18.847028      1.3678587     -1.5950483      18272.859    
    107000   1.0907644      0.0023323615   0.00026062024  20.477745      18.85796       1.6197851     -1.65769        18258.329    
    108000   0.95765412     0.0023323615   0.0035025975   20.24627       18.824154      1.4221164     -1.6020624      18240.234    
    109000   1.0977722      0.0023323615   0.00067259394  20.758268      19.128077      1.6301917     -1.5785561      18492.403    
    110000   1.0296644      0.0023323615  -0.00081921529  20.616296      19.087244      1.5290517     -1.508227       18503.641    
    111000   0.9530759      0.0023323615  -4.717992e-05   20.53384       19.118522      1.4153177     -1.3492179      18402.171    
    112000   0.95432401     0.0023323615   0.0037940472   20.490161      19.07299       1.4171712     -1.3995763      18359.336    
    113000   1.0427114      0.0023323615  -0.0016210527   20.474225      18.925798      1.5484264     -1.5496004      18267.642    
    114000   0.84995368     0.0023323615  -0.00067416967  20.26063       18.998448      1.2621812     -1.5462492      18235.596    
    115000   0.97272841     0.0023323615   0.0045969589   20.094173      18.649671      1.4445017     -1.7668541      18203.831    
    116000   0.87803321     0.0023323615   0.002218969    20.298805      18.994925      1.3038793     -1.5040816      18446.352    
    117000   1.0569376      0.0023323615  -0.0034544056   20.480877      18.911325      1.5695523     -1.6219572      18374.846    
    118000   1.0394494      0.0023323615   0.00063250292  20.796639      19.253056      1.5435823     -1.3730814      18316.36     
    119000   1.0169425      0.0023323615  -0.0021111239   20.62153       19.111371      1.5101596     -1.4460588      18356.972    
    120000   1.0914002      0.0023323615  -0.00091069018  20.455496      18.834767      1.6207293     -1.6934857      18362.527    
    121000   0.99269296     0.0023323615   0.00011367502  20.560157      19.086008      1.474149      -1.5271044      18447.364    
    122000   1.0392889      0.0023323615   0.0032861686   20.752602      19.209258      1.543344      -1.3499014      18354.693    
    123000   1.0202803      0.0023323615   0.0041623627   20.725047      19.20993       1.5151162     -1.3704175      18470.212    
    124000   0.99526663     0.0023323615   0.00067421088  20.280209      18.802238      1.477971      -1.6751579      18704.251    
    125000   0.85681861     0.0023323615  -0.0020750297   20.464694      19.192319      1.2723756     -1.3362898      18660.226    
    126000   0.91514238     0.0023323615  -0.0041568136   20.261885      18.902898      1.3589864     -1.565655       18459.387    
    127000   1.0266101      0.0023323615   0.0016599427   20.75926       19.234744      1.524516      -1.3733276      18175.731    
    128000   0.99660693     0.0023323615  -0.0012464212   20.597009      19.117048      1.4799613     -1.504057       18335.865    
    129000   0.97772969     0.0023323615   0.0029413319   20.670945      19.219016      1.4519286     -1.4138847      18256.295    
    130000   1.0360691      0.0023323615  -0.0035626779   20.30906       18.770497      1.5385626     -1.7020176      18151.017    
    131000   1.0214076      0.0023323615  -0.0017713374   20.510758      18.993968      1.5167903     -1.4920753      18234.902    
    132000   1.0578661      0.0023323615   0.0016533913   20.279356      18.708425      1.5709312     -1.8485664      18334.626    
    133000   1.0394326      0.0023323615   0.0010121333   20.45306       18.909502      1.5435574     -1.5916066      18351.74     
    134000   0.99502193     0.0023323615  -0.0010183911   20.355672      18.878064      1.4776076     -1.6161259      18469.682    
    135000   1.0022121      0.0023323615   0.0031232951   20.162128      18.673843      1.4882849     -1.8699493      18298.006    
    136000   0.91082443     0.0023323615   7.6067693e-05  20.38668       19.034106      1.3525743     -1.5544978      18242.134    
    137000   1.1388941      0.0023323615   0.0029528048   20.467958      18.7767        1.6912578     -1.8022667      18156.257    
    138000   1.0109055      0.0023323615   0.00046048121  20.367887      18.866692      1.5011946     -1.6988293      18202.725    
    139000   0.92264123     0.0023323615  -0.0002565664   20.247885      18.877763      1.3701222     -1.5957235      18251.124    
    140000   0.98320995     0.0023323615   0.0028436345   20.266585      18.806518      1.4600668     -1.7111703      18284.899    
    141000   0.90884351     0.0023323615   0.00029641775  20.228551      18.878919      1.3496326     -1.6570523      18300.173    
    142000   0.99754656     0.0023323615  -0.00023522051  20.306494      18.825138      1.4813566     -1.5415006      18260.112    
    143000   1.0207596      0.0023323615  -0.0016360986   20.344777      18.828949      1.5158281     -1.5960374      18329.124    
    144000   0.86111923     0.0023323615   0.00091054202  20.219668      18.940906      1.2787621     -1.5541023      18496.834    
    145000   0.95791738     0.0023323615   0.00075889566  20.479304      19.056796      1.4225073     -1.4717019      18727.149    
    146000   1.0969457      0.0023323615   0.0027837401   20.765622      19.136658      1.6289643     -1.4343994      18678.73     
    147000   0.8890001      0.0023323615  -0.0013807615   20.138507      18.818341      1.3201652     -1.7417917      18464.243    
    148000   1.0061263      0.0023323615   0.0017432445   20.564713      19.070616      1.4940975     -1.4497796      18289.168    
    149000   0.9665627      0.0023323615   0.00013292872  20.471665      19.036319      1.4353456     -1.5655529      18305.782    
    150000   0.96950367     0.0023323615   0.0047014237   20.600768      19.161055      1.439713      -1.3802243      18309.297    
    151000   0.91708049     0.0023323615  -1.4046252e-05  20.375269      19.013405      1.3618645     -1.4255472      18328.727    
    152000   1.0690651      0.0023323615  -0.0030356842   20.593661      19.006099      1.5875616     -1.6463736      18268.25     
    153000   0.8370623      0.0023323615  -0.000652392    20.163394      18.920357      1.2430375     -1.5627106      18182.061    
    154000   1.0390349      0.0023323615  -0.00015531043  20.586092      19.043126      1.5429668     -1.512733       18314.848    
    155000   1.0492861      0.0023323615   0.00069354718  20.362722      18.804532      1.5581898     -1.6799592      18215.837    
    156000   0.91293641     0.0023323615  -0.001300629    20.513965      19.158254      1.3557106     -1.2870176      18307.776    
    157000   0.98551826     0.0023323615  -0.00075345632  20.480188      19.016693      1.4634946     -1.4402331      18254.642    
    158000   0.92540525     0.0023323615   0.00021011597  20.37348       18.999253      1.3742268     -1.539991       18377.038    
    159000   0.9758692      0.0023323615  -0.0012433848   20.009556      18.56039       1.4491658     -1.9115852      18147.918    
    160000   1.1292185      0.0023323615   0.0002181807   20.747573      19.070684      1.6768895     -1.483749       18254.245    
    161000   1.0592172      0.0023323615  -0.0035773539   20.651329      19.078392      1.5729375     -1.4522262      18531.585    
    162000   0.95430331     0.0023323615   0.003723677    20.093477      18.676336      1.4171404     -1.6666874      18476.359    
    163000   1.0431509      0.0023323615   0.00028227525  20.756439      19.20736       1.5490791     -1.4632924      18429.669    
    164000   1.0435201      0.0023323615  -0.0004511256   20.447419      18.897792      1.5496274     -1.6641883      18516.245    
    165000   1.0770133      0.0023323615  -0.0013673946   20.701502      19.102138      1.5993648     -1.3551279      18410.759    
    166000   1.1051147      0.0023323615   0.0016759456   20.604835      18.96374       1.6410953     -1.5372138      18460.456    
    167000   0.95906512     0.0023323615  -0.0020174435   20.393775      18.969564      1.4242117     -1.5612177      18193.919    
    168000   0.90395044     0.0023323615   0.00050186401  20.104311      18.761945      1.3423664     -1.6749814      18319.375    
    169000   0.81450176     0.0023323615  -0.0022728294   20.21179       19.002255      1.2095351     -1.5656745      18240.334    
    170000   0.97489506     0.0023323615  -0.00098536046  20.594274      19.146555      1.4477192     -1.2786674      18312.905    
    171000   1.0268698      0.0023323615   0.0016783525   20.457898      18.932997      1.5249016     -1.5584375      18517.489    
    172000   0.96265342     0.0023323615  -0.003379272    20.369433      18.939892      1.4295403     -1.6600073      18383.37     
    173000   0.95911616     0.0023323615   0.0016243466   20.289102      18.864814      1.4242875     -1.728373       18174.45     
    174000   0.7720183      0.0023323615  -0.0031845562   19.902168      18.755721      1.1464472     -1.7470666      18229.471    
    175000   1.048109       0.0023323615   0.0011615428   20.531305      18.974863      1.5564418     -1.6773084      18349.264    
    176000   1.095778       0.0023323615   0.0001862626   20.568095      18.940865      1.6272304     -1.5506298      18640.857    
    177000   0.94451585     0.0023323615   0.00097386382  20.159916      18.75731       1.402606      -1.6959627      18746.571    
    178000   0.9024766      0.0023323615  -0.0026781017   20.187874      18.847696      1.3401778     -1.7608926      18520.338    
    179000   1.0261075      0.0023323615  -0.0032974417   20.424896      18.901127      1.5237697     -1.5990592      18414.736    
    180000   0.84619946     0.0023323615  -0.0040629246   20.542961      19.286355      1.2566062     -1.3343795      18232.185    
    181000   0.98263654     0.0023323615  -0.00052290325  20.202553      18.743338      1.4592153     -1.7529376      18196.855    
    182000   0.99270636     0.0023323615   0.0034271126   20.45701       18.982841      1.4741689     -1.4811301      18237.568    
    183000   1.0255728      0.0023323615   0.0050124673   20.473337      18.950362      1.5229755     -1.6118901      18262.404    
    184000   0.94977413     0.0023323615  -0.00066646319  20.303201      18.892786      1.4104146     -1.5787869      18146.334    
    185000   0.98486717     0.0023323615   0.00091637601  20.581032      19.118504      1.4625277     -1.4859073      18223.377    
    186000   0.96507454     0.0023323615   0.0023539449   20.563908      19.130773      1.4331357     -1.4865755      18224.322    
    187000   1.0871811      0.0023323615   0.0036802128   20.568327      18.953863      1.614464      -1.5906788      18314.095    
    188000   1.0440738      0.0023323615  -0.0005597277   20.701034      19.150585      1.5504496     -1.5165815      18283.593    
    189000   0.99498162     0.0023323615  -0.0050366517   20.473142      18.995594      1.4775477     -1.6821777      18375.576    
    190000   0.96071248     0.0023323615  -0.00081173167  20.341802      18.915144      1.426658      -1.5196126      18156.141    
    191000   1.0556949      0.0023323615   0.0014868525   20.557574      18.989867      1.5677069     -1.6273965      18275.93     
    192000   1.1153414      0.0023323615   0.001213367    20.691824      19.035542      1.6562819     -1.4421451      18153.394    
    193000   0.94396245     0.0023323615  -0.0066174042   20.813416      19.411632      1.4017842     -1.22781        18290.375    
    194000   0.97161469     0.0023323615   0.0010632328   20.201017      18.758169      1.4428478     -1.7645242      18340.464    
    195000   1.0408154      0.0023323615   0.0021061083   20.95183       19.406219      1.5456109     -1.1472323      18529.676    
    196000   1.2052084      0.0023323615  -0.0026677887   21.014423      19.224688      1.7897345     -1.3026337      18529.81     
    197000   1.0332786      0.0023323615  -0.00018244318  20.812815      19.278396      1.5344188     -1.2646192      18347.237    
    198000   0.9227575      0.0023323615   0.0011613642   20.302882      18.932587      1.3702949     -1.5850456      18415.748    
    199000   0.9326873      0.0023323615   0.0014079324   20.496341      19.111301      1.3850406     -1.4018424      18462.453    
    200000   1.0108934      0.0023323615   0.0037546015   20.528633      19.027457      1.5011767     -1.5095938      18313.967    
    201000   1.0075797      0.0023323615  -0.00062479683  20.49339       18.997134      1.4962558     -1.4808168      18334.619    
    202000   0.96335213     0.0023323615   0.00074705107  20.346049      18.915471      1.4305779     -1.5937999      18398.935    
    203000   1.0090383      0.0023323615   0.0014573595   20.690259      19.191837      1.4984219     -1.3648572      18421.435    
    204000   0.92608272     0.0023323615  -0.00099761475  20.503736      19.128503      1.3752328     -1.4405484      18488.827    
    205000   1.1651285      0.0023323615   0.0019151606   20.512216      18.782         1.7302158     -1.7825708      18505.854    
    206000   1.1152868      0.0023323615  -0.00080713503  20.6224        18.966199      1.6562009     -1.5139183      18572.243    
    207000   1.0694226      0.0023323615   0.0011405116   20.662796      19.074703      1.5880925     -1.3959786      18555.59     
    208000   0.97508531     0.0023323615   0.00051272213  20.427479      18.979477      1.4480017     -1.5974989      18581.284    
    209000   0.89232174     0.0023323615  -0.003015657    20.561315      19.236218      1.3250978     -1.3579382      18498.7      
    210000   1.0645608      0.0023323615   0.0019269003   20.564384      18.983511      1.5808728     -1.4389086      18366.234    
    211000   1.0808817      0.0023323615   0.00049080267  20.627112      19.022003      1.6051093     -1.4723222      18296.872    
    212000   1.0231854      0.0023323615   0.00055994296  20.691921      19.172491      1.5194303     -1.3469045      18225.217    
    213000   0.96346058     0.0023323615  -0.00027931786  20.629755      19.199016      1.430739      -1.2828694      18378.605    
    214000   0.80886279     0.0023323615  -0.0011977941   20.316275      19.115113      1.2011612     -1.3810361      18517.376    
    215000   1.0601759      0.0023323615  -0.00078797115  20.630136      19.055775      1.5743612     -1.45557        18406.42     
    216000   1.0059513      0.0023323615  -0.0030368924   20.644424      19.150586      1.4938377     -1.3430529      18281.865    
    217000   0.94036721     0.0023323615   0.0013065678   20.453623      19.057177      1.3964453     -1.5059679      18365.734    
    218000   1.1175139      0.0023323615   0.0035774281   20.999197      19.339689      1.6595082     -1.3323764      18308.055    
    219000   0.98727028     0.0023323615   0.0016922147   20.703576      19.23748       1.4660964     -1.4360757      18471.343    
    220000   0.97206718     0.0023323615  -0.0024133751   20.628076      19.184556      1.4435198     -1.2973542      18409.547    
    221000   1.0248035      0.0023323615   0.00215243     20.530606      19.008772      1.5218333     -1.3869152      18598.2      
    222000   0.84362639     0.0023323615  -0.0012750439   20.472552      19.219767      1.2527852     -1.2458926      18475.231    
    223000   0.9347076      0.0023323615  -0.0037300213   20.718342      19.330301      1.3880408     -1.1581992      18622.021    
    224000   0.99359319     0.0023323615   0.001931132    20.614099      19.138613      1.4754859     -1.3800921      18775.625    
    225000   0.90918657     0.0023323615  -0.00067781812  20.407499      19.057357      1.3501421     -1.3310577      18529.397    
    226000   0.97721516     0.0023323615  -0.0027112624   20.913593      19.462429      1.4511645     -1.0751769      18447.446    
    227000   1.2446956      0.0023323615  -0.00015974338  21.178112      19.329739      1.848373      -1.2425356      18537.274    
    228000   1.0906877      0.0023323615  -0.00038200841  20.807778      19.188107      1.6196712     -1.3355737      18386.232    
    229000   0.93839758     0.0023323615  -0.0044835793   20.224475      18.830955      1.3935204     -1.670967       18308.82     
    230000   1.0050028      0.0023323615   0.0010928389   20.679567      19.187137      1.4924292     -1.4836908      18297.459    
    231000   1.1286849      0.0023323615  -0.00086540568  20.614137      18.93804       1.6760971     -1.5618623      18321.524    
    232000   0.821731       0.0023323615  -0.00083117615  20.628266      19.407995      1.2202705     -1.1818287      18654.015    
    233000   0.96508669     0.0023323615  -0.0013186999   20.665363      19.232209      1.4331537     -1.3712972      18481.046    
    234000   0.88064555     0.0023323615  -0.00071331788  20.379596      19.071837      1.3077586     -1.400083       18263.056    
    235000   1.0730639      0.0023323615  -0.0020153555   20.346822      18.753322      1.5934999     -1.620673       18308.196    
    236000   1.0811816      0.0023323615   9.3315193e-05  20.532077      18.926522      1.6055547     -1.6439689      18372.015    
    237000   0.86033981     0.0023323615   0.0011705421   20.10948       18.831876      1.2776046     -1.6557074      18341.135    
    238000   1.0417399      0.0023323615   0.0015579046   20.725711      19.178727      1.5469837     -1.4627619      18357.536    
    239000   1.0575918      0.0023323615   0.0023210567   20.584462      19.013939      1.5705238     -1.5052829      18383.641    
    240000   0.77126202     0.0023323615  -0.0012670152   20.050805      18.90548       1.1453241     -1.6259085      18401.037    
    241000   0.90351581     0.0023323615  -0.0010943197   20.381476      19.039755      1.341721      -1.4966209      18226.049    
    242000   0.99838709     0.0023323615   0.001470949    20.392512      18.909907      1.4826048     -1.6747569      18559.161    
    243000   1.0311077      0.0023323615   0.0012765249   20.522641      18.991446      1.531195      -1.5602586      18612.999    
    244000   1.1136028      0.0023323615  -0.0019607867   20.402618      18.748917      1.6537001     -1.7445858      18447.944    
    245000   0.88744654     0.0023323615   0.0023345107   20.269761      18.951903      1.3178581     -1.6341566      18262.551    
    246000   1.006452       0.0023323615  -0.0026837348   20.581719      19.087138      1.4945812     -1.4926179      18331.73     
    247000   0.80239214     0.0023323615   0.0029955771   20.447441      19.255888      1.1915523     -1.2931321      18303.546    
    248000   1.0779343      0.0023323615  -0.0028299524   20.654253      19.05352       1.6007324     -1.4857805      18383.756    
    249000   1.0018199      0.0023323615  -2.5674565e-05  20.19177       18.704068      1.4877026     -1.7919353      18311.528    
    250000   0.99501777     0.0023323615  -0.0033855501   20.483219      19.005617      1.4776014     -1.524252       18284.075    
    251000   0.81332718     0.0023323615   0.0025102934   20.067572      18.859781      1.2077909     -1.6188331      18364.703    
    252000   0.89825365     0.0023323615   0.00088765004  20.293695      18.959789      1.3339067     -1.5035396      18440.654    
    253000   0.96296294     0.0023323615  -0.00036931606  20.822385      19.392385      1.43          -1.2248463      18487.834    
    254000   1.0047558      0.0023323615   0.0011636626   20.513911      19.021849      1.4920624     -1.3884663      18391.51     
    255000   0.96208175     0.0023323615  -0.0031637649   20.365785      18.937094      1.4286914     -1.4683296      18414.926    
    256000   1.0065511      0.0023323615   0.0033437885   20.59163       19.096902      1.4947284     -1.439264       18347.986    
    257000   1.0570629      0.0023323615  -0.0016702685   20.462107      18.892369      1.5697384     -1.6975598      18356.82     
    258000   0.95217328     0.0023323615  -0.00063971776  20.281111      18.867133      1.4139773     -1.5824999      18248.852    
    259000   1.0102267      0.0023323615  -0.00481479     20.297667      18.79748       1.5001866     -1.5883587      18136.054    
    260000   0.83809373     0.0023323615   0.0033128852   20.264126      19.019557      1.2445692     -1.4668665      18363.038    
    261000   1.0026221      0.0023323615  -0.00013360176  20.45104       18.962147      1.4888939     -1.6413605      18460.213    
    262000   1.0007812      0.0023323615  -0.0033390547   20.643545      19.157385      1.48616       -1.3699566      18443.073    
    263000   0.95557346     0.0023323615  -0.00026610849  20.874119      19.455093      1.4190266     -1.0473493      18774.915    
    264000   1.0775292      0.0023323615   0.002803224    20.656452      19.056321      1.6001309     -1.4383671      18385.263    
    265000   1.0923944      0.0023323615   0.0053028561   20.713663      19.091458      1.6222056     -1.4919573      18265.603    
    266000   0.85456939     0.0023323615  -0.001140076    20.232357      18.963321      1.2690355     -1.4870665      18114.969    
    267000   0.94261967     0.0023323615   0.00038160316  20.262173      18.862383      1.3997902     -1.5943405      18240.734    
    268000   1.0653998      0.0023323615   0.00090058941  20.883832      19.301713      1.5821186     -1.3333236      18091.607    
    269000   1.0625449      0.0023323615  -0.0024888906   20.790684      19.212805      1.5778791     -1.4793126      18212.706    
    270000   0.93657386     0.0023323615  -0.0019852606   20.641213      19.2504        1.3908122     -1.3432146      18222.864    
    271000   1.0184496      0.0023323615   0.00038625464  20.757041      19.244644      1.5123977     -1.3714058      18263.894    
    272000   0.98504744     0.0023323615   0.00066048376  20.565657      19.102862      1.4627954     -1.3322735      18284.963    
    273000   0.9436777      0.0023323615  -0.00017445739  20.26663       18.865268      1.4013614     -1.5845052      18302.27     
    274000   1.0607587      0.0023323615   0.00082750655  20.559955      18.984729      1.5752267     -1.5748005      18284.454    
    275000   1.1077781      0.0023323615   0.00074318234  20.498978      18.853928      1.6450505     -1.7100781      18506.18     
    276000   1.0338573      0.0023323615   0.0023333934   20.513349      18.978071      1.535278      -1.4341905      18190.394    
    277000   0.98603707     0.0023323615   0.0010688915   20.542354      19.078088      1.464265      -1.383127       18260.817    
    278000   1.0821521      0.0023323615  -0.0010866158   20.614768      19.007772      1.6069959     -1.5710508      18101.85     
    279000   1.0317705      0.0023323615   0.00077569129  20.429586      18.897407      1.5321792     -1.6442495      18208.463    
    280000   0.95343562     0.0023323615  -0.0039457752   20.3038        18.887948      1.4158519     -1.5247937      18031.796    
    281000   1.1156244      0.0023323615   0.0054200745   20.503083      18.846381      1.6567022     -1.5737338      18303.851    
    282000   0.99357659     0.0023323615  -0.00080702666  20.485762      19.010301      1.4754612     -1.4380497      18545.95     
    283000   1.0624037      0.0023323615  -0.0009208412   20.305766      18.728097      1.5776696     -1.6595638      18298.228    
    284000   0.95989543     0.0023323615  -0.0002179205   20.301936      18.876492      1.4254447     -1.6430128      18256.298    
    285000   1.0524627      0.0023323615  -0.00052920735  20.579657      19.01675       1.5629071     -1.4848585      18451.187    
    286000   1.0373059      0.0023323615  -0.0036970104   20.426355      18.885956      1.5403993     -1.5543156      18338.456    
    287000   1.0607538      0.0023323615  -0.0016041654   20.516335      18.941115      1.5752194     -1.7234382      18278.507    
    288000   1.1206408      0.0023323615   0.002688686    20.559263      18.895112      1.6641515     -1.6441357      18153.701    
    289000   0.98225235     0.0023323615  -0.0017816959   20.453756      18.995111      1.4586447     -1.6050377      18304.372    
    290000   0.97093507     0.0023323615  -0.00096386893  20.309         18.867162      1.4418386     -1.6930326      18404.607    
    291000   0.96011474     0.0023323615   0.0048910774   20.417018      18.991247      1.4257704     -1.5902181      18600.772    
    292000   0.97302498     0.0023323615  -0.0014319159   20.387075      18.942133      1.4449421     -1.6893484      18492.438    
    293000   0.94467936     0.0023323615   0.0002774095   20.230798      18.827949      1.4028488     -1.5973072      18541.768    
    294000   1.0799171      0.0023323615   0.0021721191   20.307468      18.703791      1.6036769     -1.856074       18629.431    
    295000   0.97161704     0.0023323615  -0.00078144604  20.327863      18.885012      1.4428513     -1.6144326      18536.713    
    296000   0.90064697     0.0023323615   0.00019644711  20.375593      19.038132      1.3374608     -1.4244453      18644.227    
    297000   1.0369191      0.0023323615   0.0018876744   20.494883      18.955058      1.5398248     -1.5794292      18594.888    
    298000   1.0060275      0.0023323615   0.0011022772   20.587452      19.093502      1.4939508     -1.4550433      18499.906    
    299000   1.0683453      0.0023323615   0.0019262214   20.701872      19.115379      1.5864928     -1.4758119      18574.427    
    300000   1.0494881      0.0023323615  -0.0024271896   20.565059      19.00657       1.5584899     -1.506104       18635.89     
    301000   0.91666194     0.0023323615   0.00041495496  20.350056      18.988813      1.361243      -1.486526       18511.51     
    302000   1.1027069      0.0023323615   0.0055682976   20.490499      18.852979      1.6375197     -1.5247298      18454.145    
    303000   1.0449354      0.0023323615  -0.002516509    20.537403      18.985674      1.5517291     -1.4692775      18283.121    
    304000   1.1553407      0.0023323615  -0.0014148469   20.733905      19.018224      1.715681      -1.5627545      18514.954    
    305000   0.90898016     0.0023323615  -0.00066698091  20.622039      19.272204      1.3498355     -1.2304788      18705.947    
    306000   1.0966579      0.0023323615  -0.0004655243   20.898202      19.269665      1.628537      -1.3772861      18737.136    
    307000   1.0609591      0.0023323615  -0.0025039918   20.364728      18.789204      1.5755243     -1.7006736      18359.008    
    308000   1.0014959      0.0023323615   0.00032736894  20.638828      19.151607      1.4872215     -1.4554037      18059.822    
    309000   1.1932719      0.0023323615  -0.0027723049   20.920467      19.148459      1.7720087     -1.4245328      18220.07     
    310000   0.92905084     0.0023323615  -0.0025232589   20.344871      18.965231      1.3796405     -1.5434538      18260.099    
    311000   1.045327       0.0023323615  -0.0043366097   20.48344       18.93113       1.5523106     -1.5208953      18266.663    
    312000   1.0030179      0.0023323615   0.00056097461  20.774582      19.285101      1.4894816     -1.389995       18359.575    
    313000   0.92569708     0.0023323615   0.0020461874   20.493709      19.119049      1.3746602     -1.3922924      18410.242    
    314000   1.0680234      0.0023323615   0.00083728143  20.568215      18.9822        1.5860148     -1.5183401      18293.535    
    315000   0.88430943     0.0023323615  -0.0030407427   20.718872      19.405672      1.3131995     -1.2704263      18406.508    
    316000   0.96169478     0.0023323615  -3.1073539e-05  20.576986      19.148869      1.4281167     -1.4119753      18275.502    
    317000   1.0269735      0.0023323615   0.0017510185   20.70105       19.175994      1.5250556     -1.3531815      18445.622    
    318000   0.92058824     0.0023323615   0.0023725412   20.164866      18.797793      1.3670735     -1.5985778      18320.034    
    319000   1.0545962      0.0023323615  -0.0052160258   20.589138      19.023063      1.5660754     -1.4984722      18296.684    
    320000   1.0576338      0.0023323615  -0.0032176755   20.381115      18.810529      1.5705861     -1.709946       18297.446    
    321000   1.0441952      0.0023323615   0.0041208043   20.650535      19.099905      1.5506298     -1.4719238      18188.959    
    322000   0.98064602     0.0023323615   0.0055720084   20.41861       18.962351      1.4562593     -1.575681       18257.788    
    323000   1.0611002      0.0023323615   0.0019514614   20.463578      18.887844      1.5757338     -1.5831593      18110.459    
    324000   1.0384036      0.0023323615  -0.0010047648   20.425697      18.883668      1.5420294     -1.516451       18140.738    
    325000   1.195155       0.0023323615  -0.0010438269   20.565292      18.790487      1.7748052     -1.6864336      18138.479    
    326000   0.97626986     0.0023323615   0.0011291183   20.542193      19.092432      1.4497607     -1.4787355      18189.868    
    327000   0.97584432     0.0023323615  -0.0045860821   20.525827      19.076698      1.4491288     -1.3821292      18278.909    
    328000   1.0044955      0.0023323615   0.0019070663   20.542013      19.050337      1.4916759     -1.4429963      18376.906    
    329000   1.0840639      0.0023323615   0.00041394493  20.575621      18.965787      1.6098349     -1.5752442      18476.958    
    330000   0.96111331     0.0023323615   0.00043177679  20.190857      18.763604      1.4272533     -1.6918854      18366.457    
    331000   0.98040869     0.0023323615  -0.0022931293   20.377889      18.921983      1.4559069     -1.6263356      18404.556    
    332000   0.97486346     0.0023323615  -0.0014920365   20.27626       18.828587      1.4476722     -1.749323       18520.32     
    333000   0.84553921     0.0023323615  -0.0063084387   20.266119      19.010494      1.2556257     -1.7054804      18261.292    
    334000   0.90561791     0.0023323615  -0.0031169411   20.280426      18.935584      1.3448426     -1.5906786      18300.908    
    335000   1.0403515      0.0023323615   0.006804912    20.705121      19.160199      1.544922      -1.4155692      18350.701    
    336000   0.95331386     0.0023323615  -0.0043067628   20.439537      19.023866      1.4156711     -1.5502353      18511.379    
    337000   0.93765833     0.0023323615  -0.00058190158  20.400114      19.007691      1.3924226     -1.6202015      18470.239    
    338000   1.0229316      0.0023323615   0.0061082067   20.59858       19.079526      1.5190535     -1.6124148      18105.203    
    339000   1.0604532      0.0023323615  -0.00019212701  20.485121      18.910348      1.574773      -1.534264       18033.493    
    340000   0.9121067      0.0023323615  -0.00023788212  20.476383      19.121904      1.3544784     -1.3701842      18039.054    
    341000   0.90971433     0.0023323615  -0.0051411914   20.785082      19.434156      1.3509258     -1.1628007      18204.607    
    342000   0.88535585     0.0023323615   4.9233512e-05  20.364141      19.049388      1.3147534     -1.5412947      18487.482    
    343000   0.88068519     0.0023323615   0.00058504289  20.693458      19.385641      1.3078175     -1.2379805      18427.219    
    344000   0.93908778     0.0023323615   0.0039517393   20.750965      19.35642       1.3945454     -1.2727644      18309.956    
    345000   1.058923       0.0023323615   0.00070451574  20.652524      19.080023      1.5725007     -1.4332225      18473.063    
    346000   1.0977163      0.0023323615  -0.0007956236   20.599085      18.968976      1.6301086     -1.5986911      18366.778    
    347000   0.92776769     0.0023323615  -0.0041275817   20.312663      18.934928      1.377735      -1.5150535      18369.151    
    348000   1.0819773      0.0023323615   0.00034298129  20.443856      18.837119      1.6067363     -1.7470165      18204.677    
    349000   1.0944991      0.0023323615   0.0042860686   20.710677      19.085345      1.6253312     -1.5105352      18304.936    
    350000   1.1375321      0.0023323615  -0.0027345749   20.689205      18.99997       1.6892351     -1.4736655      18349.581    
    351000   0.98445926     0.0023323615  -0.00010345367  20.549399      19.087477      1.461922      -1.3794603      18320.532    
    352000   1.1604765      0.0023323615   0.00078570715  21.029682      19.306375      1.7233076     -1.2836249      18782.656    
    353000   1.1215023      0.0023323615  -0.0013295348   20.458168      18.792737      1.6654309     -1.7350726      18738.108    
    354000   1.1598287      0.0023323615   0.00072036276  20.735624      19.013279      1.7223455     -1.5629984      18547.543    
    355000   0.93410041     0.0023323615  -0.0014531858   20.179237      18.792098      1.3871391     -1.6066319      18558.361    
    356000   1.2010574      0.0023323615  -0.00033353896  20.518752      18.735181      1.7835703     -1.6627309      18549.387    
    357000   1.0424828      0.0023323615   0.0005426647   20.595092      19.047005      1.5480869     -1.4742628      18649.355    
    358000   1.0721743      0.0023323615   0.00055896755  20.648342      19.056163      1.5921788     -1.4162621      18551.376    
    359000   1.0900457      0.0023323615  -0.0013314373   20.724855      19.106137      1.6187179     -1.3903674      18465.889    
    360000   0.99410847     0.0023323615  -0.0026195139   20.620607      19.144356      1.4762511     -1.3607345      18361.771    
    361000   1.0227332      0.0023323615   0.0023151937   20.653636      19.134877      1.5187588     -1.3579563      18521.939    
    362000   0.95903376     0.0023323615  -0.0020789683   20.442357      19.018192      1.4241651     -1.5516719      18534.304    
    363000   1.0485572      0.0023323615  -0.0032297994   20.616627      19.059519      1.5571075     -1.5422996      18432.474    
    364000   1.0875309      0.0023323615   0.0049739474   20.800043      19.18506       1.6149833     -1.4080594      18211.128    
    365000   0.98063526     0.0023323615  -0.00056870007  20.425405      18.969162      1.4562434     -1.5645038      18379.251    
    366000   1.087406       0.0023323615  -0.00067327445  20.362473      18.747675      1.6147979     -1.7552686      18254.291    
    367000   0.90042304     0.0023323615  -0.0015838897   20.433253      19.096125      1.3371282     -1.4120309      18238.864    
    368000   1.0026359      0.0023323615  -0.0055190545   20.40908       18.920166      1.4889143     -1.6196226      18239.991    
    369000   1.0477225      0.0023323615   0.00046273809  20.503119      18.947251      1.5558679     -1.5831105      18235.586    
    370000   1.0089236      0.0023323615  -0.00062165265  20.359086      18.860835      1.4982515     -1.6242204      18311.598    
    371000   0.97158966     0.0023323615  -0.0073831025   20.606254      19.163443      1.4428107     -1.4224276      18245.192    
    372000   0.99826928     0.0023323615  -0.002974073    20.683098      19.200668      1.4824299     -1.3235516      18265.235    
    373000   0.84378363     0.0023323615   0.00038174596  20.242953      18.989934      1.2530187     -1.3836656      18407.458    
    374000   1.1806482      0.0023323615   0.0003655924   20.942998      19.189735      1.7532626     -1.2665014      18287.884    
    375000   1.1065336      0.0023323615  -0.0037568023   20.592331      18.949128      1.6432024     -1.5392273      18362.696    
    376000   0.86701384     0.0023323615  -0.0018865216   20.059472      18.771957      1.2875155     -1.6061524      18116.8      
    377000   0.84982296     0.0023323615  -0.0013757351   20.293835      19.031848      1.2619871     -1.4119838      18012.678    
    378000   0.87046414     0.0023323615  -0.00056274398  20.690434      19.397795      1.2926393     -1.1379223      18597.337    
    379000   0.96318232     0.0023323615  -0.0038229246   20.552261      19.121935      1.4303257     -1.3270031      18695.762    
    380000   0.85925718     0.0023323615  -0.0021557942   20.383443      19.107446      1.2759969     -1.4121292      18414.828    
    381000   1.0017364      0.0023323615   0.0049736105   20.875402      19.387824      1.4875786     -1.2718868      18330.952    
    382000   0.99881952     0.0023323615  -0.00062958911  20.569135      19.085888      1.483247      -1.5785851      18320.949    
    383000   0.9815197      0.0023323615   0.0015577583   20.367759      18.910202      1.4575568     -1.6448028      18087.486    
    384000   0.94249638     0.0023323615  -0.0030752575   20.54204       19.142433      1.3996071     -1.3723322      18133.767    
    385000   1.1318141      0.0023323615   0.0026502608   20.580072      18.899328      1.680744      -1.7036864      18044.02     
    386000   0.88568815     0.0023323615  -0.00084660579  20.255038      18.939791      1.3152469     -1.5595523      18153.074    
    387000   0.97961708     0.0023323615   0.0034724413   20.396046      18.941314      1.4547314     -1.6246079      18019.419    
    388000   1.033264       0.0023323615  -0.0042949837   20.527129      18.992732      1.5343971     -1.6437548      18106.306    
    389000   1.0828987      0.0023323615   0.0024741871   20.591445      18.98334       1.6081046     -1.5451059      18216.013    
    390000   0.91837726     0.0023323615  -0.00068148269  20.488718      19.124928      1.3637902     -1.3379659      18320.34     
    391000   0.94611924     0.0023323615   0.00079442384  20.246049      18.841062      1.4049871     -1.6223936      18311.689    
    392000   1.0493521      0.0023323615   0.0015051359   20.641398      19.08311       1.5582878     -1.5221026      18344.779    
    393000   1.0923523      0.0023323615   0.0017016571   20.498713      18.87657       1.6221432     -1.5306139      18397.989    
    394000   1.0043525      0.0023323615  -0.0035626407   20.566489      19.075025      1.4914634     -1.4723858      18286.548    
    395000   1.131498       0.0023323615   0.0033173812   20.823123      19.142848      1.6802745     -1.3089671      18235.006    
    396000   1.0528001      0.0023323615  -0.00061946629  20.356743      18.793335      1.5634081     -1.6893687      18140.754    
    397000   1.2062443      0.0023323615   0.0043789143   20.619528      18.828255      1.7912727     -1.6770983      18117.856    
    398000   1.1315708      0.0023323615   0.0016754154   20.474858      18.794475      1.6803827     -1.6881401      18188.299    
    399000   0.9240135      0.0023323615   0.0013102422   20.754103      19.381943      1.3721601     -1.2524519      18251.238    
    400000   1.0681561      0.0023323615  -0.0039625173   20.620333      19.034121      1.5862118     -1.5349045      18140.672    
    401000   0.96648607     0.0023323615   0.0012347003   20.630123      19.194891      1.4352318     -1.3418739      9111.3815    
    402000   0.89853981     0.0023323615  -0.0031090639   20.494901      19.16057       1.3343316     -1.2361502      18132.667    
    403000   1.1200242      0.0023323615   0.0024522441   20.371174      18.707938      1.663236      -1.8109781      18263.039    
    404000   1.0405596      0.0023323615  -0.0038031864   20.621626      19.076395      1.545231      -1.5250385      18114.807    
    405000   1.029555       0.0023323615   0.0020236801   20.483622      18.954733      1.5288892     -1.4686594      18232.961    
    406000   1.0469062      0.0023323615   0.0012845132   20.553281      18.998625      1.5546557     -1.3990199      18415.915    
    407000   0.87800652     0.0023323615  -0.0020768893   20.242094      18.938254      1.3038397     -1.5209597      18327.983    
    408000   0.97270795     0.0023323615   0.0012759565   20.450697      19.006226      1.4444713     -1.4938825      18288.16     
    409000   1.0744357      0.0023323615  -1.4287307e-05  20.701554      19.106017      1.595537      -1.4404367      18248.485    
    410000   1.0532692      0.0023323615  -0.0026056011   20.700511      19.136407      1.5641047     -1.4323283      18358.778    
    411000   1.0380135      0.0023323615   0.00077418197  20.681681      19.140231      1.5414501     -1.5551703      18367.237    
    412000   1.0968723      0.0023323615  -0.0020379221   20.288321      18.659465      1.6288554     -1.7808674      18400.068    
    413000   1.0183258      0.0023323615   0.00021128832  20.582968      19.070754      1.5122138     -1.4428881      18316.44     
    414000   0.94882155     0.0023323615   0.0024003275   20.260175      18.851175      1.409         -1.6672482      18219.019    
    415000   1.1691076      0.0023323615   0.0011478287   20.601602      18.865477      1.7361247     -1.6316673      18245.026    
    416000   0.99464298     0.0023323615   0.0010131259   20.226464      18.749419      1.4770448     -1.698822       17920.428    
    417000   1.004694       0.0023323615   0.0014006699   20.429613      18.937642      1.4919706     -1.5111857      18137.721    
    418000   0.84932152     0.0023323615   0.0026380774   20.231703      18.97046       1.2612425     -1.4962032      18374.883    
    419000   0.97457354     0.0023323615  -0.0024124243   20.645906      19.198664      1.4472417     -1.3527825      18514.858    
    420000   0.94397158     0.0023323615   0.0035995413   20.363794      18.961996      1.4017978     -1.4556707      18552.941    
    421000   1.0003429      0.0023323615  -0.00094816396  20.734283      19.248774      1.4855092     -1.1815935      18524.871    
    422000   1.0681805      0.0023323615   0.002372032    21.285463      19.699215      1.586248      -0.98517569     18456.093    
    423000   1.0211779      0.0023323615  -0.0047386436   20.687843      19.171394      1.5164492     -1.3514176      18465.384    
    424000   0.93733685     0.0023323615  -0.0052674017   20.33165       18.939704      1.3919452     -1.5374051      18548.38     
    425000   0.96521019     0.0023323615  -0.00083791241  20.38591       18.952573      1.4333371     -1.4314927      18420.503    
    426000   1.0077147      0.0023323615  -0.0028912332   20.308508      18.812052      1.4964563     -1.6675001      18421.186    
    427000   0.96972083     0.0023323615  -0.0021346724   20.32867       18.888635      1.4400354     -1.698805       18315.641    
    428000   1.0374744      0.0023323615  -0.00091924364  20.290998      18.750349      1.5406494     -1.7175103      18202.463    
    429000   1.0280185      0.0023323615   0.00099589393  20.564249      19.037641      1.5266075     -1.4306047      18305.697    
    430000   1.0607663      0.0023323615  -0.0007700156   20.652072      19.076834      1.575238      -1.5034269      18266.98     
    431000   0.90736308     0.0023323615   0.0010184227   20.281201      18.933767      1.3474342     -1.5750986      18220.476    
    432000   1.0040586      0.0023323615   0.003029691    20.660684      19.169657      1.491027      -1.4270813      18303.15     
    433000   0.90940857     0.0023323615  -0.00029774549  20.361329      19.010858      1.3504717     -1.459692       18279.213    
    434000   0.88845934     0.0023323615  -0.00094976126  20.790934      19.471572      1.3193621     -1.2472612      18277.828    
    435000   0.98764057     0.0023323615  -0.0023818608   21.021879      19.555233      1.4666463     -1.0756589      18324.353    
    436000   0.93789695     0.0023323615   0.00096965785  20.473419      19.080642      1.392777      -1.3771293      18261.068    
    437000   0.96810802     0.0023323615   0.0017898227   20.327539      18.889898      1.4376404     -1.5792315      18279.083    
    438000   0.993444       0.0023323615   0.0054214419   20.739921      19.264657      1.4752643     -1.2707132      18424.413    
    439000   1.0564042      0.0023323615  -0.0050980372   20.517778      18.949018      1.5687603     -1.4943387      18353.128    
    440000   1.1129077      0.0023323615   0.0012350866   20.836965      19.184297      1.6526679     -1.3266285      18276.583    
    441000   0.93972981     0.0023323615   0.0013098948   20.58784       19.192341      1.3954988     -1.3445479      18339.854    
    442000   1.0311718      0.0023323615  -0.0010381506   20.402249      18.870959      1.5312901     -1.5618935      18195.153    
    443000   1.0204831      0.0023323615  -0.001238713    20.455848      18.940431      1.5154175     -1.7359189      18456.827    
    444000   1.0109254      0.0023323615  -0.00098312608  20.370341      18.869117      1.5012243     -1.6592375      18368.133    
    445000   0.86590575     0.0023323615   0.0011760784   20.115022      18.829152      1.28587       -1.6148494      18418.746    
    446000   1.0575945      0.0023323615   0.0019017054   20.46833       18.897802      1.5705279     -1.5915931      18269.123    
    447000   0.99288466     0.0023323615   0.0079222453   20.631626      19.157192      1.4744337     -1.4247044      18300.616    
    448000   0.96348443     0.0023323615  -0.0022500589   20.751779      19.321005      1.4307744     -1.2152121      18504.958    
    449000   0.99820357     0.0023323615   0.00095728161  20.610401      19.128069      1.4823323     -1.338717       18508.702    
    450000   0.96961762     0.0023323615   0.00016449123  20.365896      18.926014      1.4398822     -1.5521939      18349.663    
    451000   0.9328555      0.0023323615   0.0022851684   20.167441      18.78215       1.3852904     -1.6072144      18441.999    
    452000   0.93840362     0.0023323615   0.0024500832   20.371206      18.977676      1.3935294     -1.5352921      18291.776    
    453000   1.0621371      0.0023323615   0.0010588013   20.207231      18.629957      1.5772737     -1.8026684      18198.689    
    454000   0.96527175     0.0023323615   0.002113131    20.53511       19.101681      1.4334286     -1.5335165      18239.851    
    455000   0.92687698     0.0023323615   0.0012338503   20.720695      19.344282      1.3764123     -1.1876201      18419.286    
    456000   1.061624       0.0023323615   0.00070922629  20.657994      19.081482      1.5765116     -1.4264507      18332.945    
    457000   0.90129325     0.0023323615   0.0024709961   20.067275      18.728854      1.3384205     -1.7835707      18318.058    
    458000   0.94367658     0.0023323615  -0.00027759958  20.568713      19.167354      1.4013597     -1.4693771      18212.576    
    459000   0.95825654     0.0023323615   0.0034246868   20.502892      19.079881      1.423011      -1.5232451      18312.721    
    460000   1.0169         0.0023323615  -0.0010209285   20.306199      18.796103      1.5100965     -1.6060097      18254.395    
    461000   0.94408689     0.0023323615   0.0028173361   20.616604      19.214635      1.401969      -1.3412122      18276.686    
    462000   1.0912509      0.0023323615   0.0074634018   20.484723      18.864216      1.6205076     -1.6892779      18350.563    
    463000   1.1504419      0.0023323615   0.0046665624   20.621538      18.913132      1.7084063     -1.5119376      18366.484    
    464000   1.1200505      0.0023323615  -0.002108041    20.675828      19.012554      1.6632749     -1.4915109      18292.972    
    465000   0.86164309     0.0023323615  -0.0039854262   20.226024      18.946484      1.27954       -1.586561       18304.083    
    466000   1.009293       0.0023323615  -0.0015027366   20.594633      19.095833      1.4988001     -1.6455084      18201.925    
    467000   1.1033154      0.0023323615   0.0013001052   20.332293      18.69387       1.6384234     -1.7577021      18262.127    
    468000   0.96834048     0.0023323615   0.0023690637   20.386244      18.948259      1.4379856     -1.5891056      18241.894    
    469000   0.93440105     0.0023323615   0.0016649356   20.406923      19.019337      1.3875856     -1.4288041      18376.71     
    470000   1.010913       0.0023323615  -0.00065187287  20.677759      19.176553      1.5012057     -1.4843988      18336.266    
    471000   0.94905982     0.0023323615  -0.0023772789   20.604385      19.195031      1.4093538     -1.4375535      18225.296    
    472000   0.98707607     0.0023323615  -0.0019414918   20.445163      18.979355      1.465808      -1.561654       18085.415    
    473000   1.0165894      0.0023323615  -0.0014369822   20.58429       19.074654      1.5096353     -1.4757619      18325.752    
    474000   1.0050743      0.0023323615   0.0017505171   20.401848      18.909313      1.4925353     -1.6319209      18256.502    
    475000   1.0303573      0.0023323615  -0.00075605535  20.654172      19.124091      1.5300806     -1.4946501      18220.256    
    476000   0.85304178     0.0023323615   0.0013010399   20.329407      19.06264       1.266767      -1.5455723      18251.775    
    477000   1.1939452      0.0023323615  -0.00088638553  20.981116      19.208107      1.7730086     -1.392539       18349.123    
    478000   0.93649819     0.0023323615   0.0052049632   20.163683      18.772983      1.3906998     -1.5718023      18417.838    
    479000   0.9609017      0.0023323615  -0.0026269985   20.651424      19.224485      1.426939      -1.2813724      18400.19     
    480000   1.1615955      0.0023323615   0.0017654272   20.883628      19.158659      1.7249693     -1.2621276      18355.834    
    481000   1.1092835      0.0023323615  -0.00033308968  20.745704      19.098418      1.6472861     -1.4214913      18449.066    
    482000   0.99531709     0.0023323615   0.00074365272  20.387442      18.909396      1.4780459     -1.6686476      18317.53     
    483000   0.90006168     0.0023323615   0.0018583443   20.482987      19.146395      1.3365916     -1.4951516      18467.181    
    484000   0.88884873     0.0023323615  -0.00035549638  20.162407      18.842467      1.3199404     -1.8384208      18102.211    
    485000   0.85457804     0.0023323615   0.00078072894  20.265485      18.996437      1.2690484     -1.5963061      18165.678    
    486000   1.0567669      0.0023323615   0.0026430366   20.232741      18.663442      1.5692988     -1.8971432      18227.57     
    487000   1.017397       0.0023323615   9.0512542e-05  20.33105       18.820215      1.5108346     -1.7019942      18266.034    
    488000   0.84102139     0.0023323615  -0.0053624758   20.114568      18.865652      1.2489168     -1.7155925      18269.969    
    489000   1.0955824      0.0023323615   0.0024803931   20.522637      18.895697      1.6269398     -1.6545533      18166.078    
    490000   1.0686097      0.0023323615   0.0026121361   20.610313      19.023427      1.5868854     -1.5236096      18134.199    
    491000   1.0171401      0.0023323615  -0.004565834    20.68859       19.178137      1.510453      -1.3350976      18277.249    
    492000   0.89349331     0.0023323615  -0.0019762073   20.260084      18.933247      1.3268376     -1.5360124      18205.68     
    493000   0.88105864     0.0023323615   0.0010191632   20.351169      19.042797      1.3083721     -1.5022933      10835.144    
    494000   1.1655638      0.0023323615  -0.00041448351  20.784689      19.053827      1.7308623     -1.4502713      18208.384    
    495000   1.000197       0.0023323615  -0.0027993543   20.638464      19.153172      1.4852925     -1.4243109      18647.808    
    496000   1.0561477      0.0023323615  -0.0038743595   20.491487      18.923108      1.5683793     -1.5334068      18303.63     
    497000   0.96406273     0.0023323615   0.00010600745  20.118846      18.687213      1.4316332     -1.7430647      18180.299    
    498000   0.92743666     0.0023323615   0.0051729186   20.4459        19.068656      1.3772434     -1.5546968      18296.943    
    499000   0.98929192     0.0023323615   0.0010111865   20.455094      18.985996      1.4690985     -1.494276       18436.77     
    500000   0.95658962     0.0023323615  -0.0029747305   20.182477      18.761942      1.4205356     -1.6692547      18398.196    
    501000   0.97546959     0.0023323615  -0.0023875187   20.449745      19.001173      1.4485723     -1.5388784      18295.93     
    502000   0.89555359     0.0023323615  -0.002931479    20.410643      19.080746      1.3298971     -1.4638752      18298.909    
    503000   0.97717092     0.0023323615  -0.00023950128  20.288527      18.837428      1.4510988     -1.5829645      18294.629    
    504000   0.92805996     0.0023323615   0.0027852805   20.320979      18.94281       1.378169      -1.619488       18387.641    
    505000   1.3030189      0.0023323615   0.0030408436   20.615199      18.680216      1.934983      -1.8054251      18243.001    
    506000   0.88642462     0.0023323615  -0.0027531344   20.316776      19.000436      1.3163406     -1.5063878      18168.634    
    507000   1.0307145      0.0023323615   1.187363e-05   20.636869      19.106258      1.5306111     -1.4941594      18217.822    
    508000   0.86284752     0.0023323615   0.0030083482   20.390748      19.109419      1.2813286     -1.4796549      18342.995    
    509000   0.93489593     0.0023323615   0.0015735444   20.393322      19.005002      1.3883205     -1.5717937      18370.25     
    510000   0.89143247     0.0023323615   0.0028956846   20.118734      18.794957      1.3237772     -1.6195428      18193.475    
    511000   1.1101534      0.0023323615  -0.0014929284   20.98645       19.337873      1.6485778     -1.3530836      18247.063    
    512000   0.94197183     0.0023323615   0.0026099589   20.458752      19.059924      1.3988282     -1.4936022      18152.539    
    513000   1.2186695      0.0023323615  -0.0025629629   20.709759      18.900035      1.8097243     -1.7195028      18212.679    
    514000   0.9605337      0.0023323615  -0.0015440306   20.438957      19.012565      1.4263925     -1.4936611      18320.36     
    515000   0.96629685     0.0023323615  -0.00046274255  20.594982      19.160031      1.4349508     -1.401231       18337.287    
    516000   0.97326359     0.0023323615  -0.0034299135   20.526883      19.081587      1.4452964     -1.5155024      18335.677    
    517000   1.0105193      0.0023323615   0.00026270237  20.521408      19.020787      1.5006212     -1.4729056      18244.185    
    518000   0.98473406     0.0023323615  -0.0019972668   20.570325      19.107995      1.4623301     -1.4200878      18083.793    
    519000   0.85259995     0.0023323615   0.0025024701   20.094817      18.828706      1.2661109     -1.6499858      18088.774    
    520000   1.1484898      0.0023323615  -0.0015128875   20.865251      19.159743      1.7055074     -1.4170025      18379.099    
    521000   1.0500689      0.0023323615   0.0045598825   20.386551      18.827198      1.5593524     -1.6568498      18370.111    
    522000   1.1688564      0.0023323615   0.0056522115   20.680516      18.944764      1.7357517     -1.5538526      18300.036    
    523000   0.80093047     0.0023323615  -0.0052491432   20.050708      18.861326      1.1893817     -1.5135174      18429.469    
    524000   0.87982671     0.0023323615  -6.1601117e-05  20.23331       18.926767      1.3065427     -1.5129923      18493.955    
    525000   1.1099229      0.0023323615   0.0017402098   20.548713      18.900478      1.6482356     -1.5356616      18380.425    
    526000   1.1215998      0.0023323615   0.00033367744  20.762753      19.097177      1.6655757     -1.4479433      18375.272    
    527000   1.0021007      0.0023323615  -0.00072644798  20.406782      18.918663      1.4881195     -1.5657238      18142.904    
    528000   1.029542       0.0023323615  -0.00095522417  20.720885      19.192015      1.5288698     -1.4071983      18105.524    
    529000   1.0466202      0.0023323615   0.0011717926   20.326958      18.772727      1.554231      -1.7350072      18206.062    
    530000   0.99375612     0.0023323615   0.0017685759   20.401574      18.925846      1.4757278     -1.6155669      18305.218    
    531000   0.83629882     0.0023323615  -0.00087460208  20.19411       18.952206      1.2419038     -1.5844671      18401.038    
    532000   1.0493437      0.0023323615  -0.0037307993   20.713076      19.1548        1.5582754     -1.4031116      18360.207    
    533000   1.0359801      0.0023323615   0.0023031234   20.681707      19.143277      1.5384304     -1.3620047      18364.173    
    534000   1.072727       0.0023323615  -0.00090089247  20.62815       19.035151      1.5929997     -1.6239542      18324.518    
    535000   1.1267707      0.0023323615   0.00071842664  20.722692      19.049438      1.6732544     -1.5076031      18298.452    
    536000   1.032691       0.0023323615  -0.00041200239  20.332504      18.798958      1.5335461     -1.6461377      18411.808    
    537000   0.9553051      0.0023323615  -0.0015876482   20.48826       19.069632      1.4186281     -1.5145108      18387.529    
    538000   0.96660218     0.0023323615   0.0048883318   20.290928      18.855524      1.4354042     -1.5852469      18466.87     
    539000   1.008491       0.0023323615  -0.0042582037   20.405706      18.908097      1.4976091     -1.5330057      18346.519    
    540000   1.0147742      0.0023323615  -0.0026456969   20.646394      19.139455      1.5069397     -1.4255601      18528.85     
    541000   0.91736863     0.0023323615   0.0033024092   20.492142      19.129849      1.3622924     -1.4483426      18520.922    
    542000   1.1119973      0.0023323615   0.00053248886  20.718405      19.067089      1.6513159     -1.4654838      18534.248    
    543000   1.1548029      0.0023323615  -0.0028849265   20.859152      19.14427       1.7148822     -1.3572611      18306.752    
    544000   0.99514788     0.0023323615   0.0017822584   20.373551      18.895757      1.4777946     -1.5885457      18351.299    
    545000   1.0201217      0.0023323615   0.00013291503  20.658682      19.143801      1.5148807     -1.489309       18287.667    
    546000   0.89641172     0.0023323615  -0.0021198308   20.29495       18.963779      1.3311714     -1.5116197      18338.655    
    547000   0.91677877     0.0023323615   0.0019088982   20.652861      19.291445      1.3614165     -1.2640345      18646.025    
    548000   0.9835446      0.0023323615   0.0036717686   20.398769      18.938206      1.4605637     -1.7129704      18630.008    
    549000   0.91423794     0.0023323615   0.0034407187   20.639336      19.281692      1.3576433     -1.2961841      18548.535    
    550000   0.90183375     0.0023323615   0.0012944046   20.503743      19.16452       1.3392231     -1.3932064      18175.532    
    551000   1.0262026      0.0023323615   0.0014912431   20.76385       19.239939      1.5239108     -1.2791949      18414.875    
    552000   1.0409756      0.0023323615   0.0029989215   20.619798      19.07395       1.5458487     -1.3683892      18442.415    
    553000   1.1417383      0.0023323615   0.0048377229   20.484599      18.789118      1.6954814     -1.6785902      18526.511    
    554000   1.062509       0.0023323615  -0.003287296    20.356748      18.778923      1.5778258     -1.6867917      18291.273    
    555000   1.1152364      0.0023323615   0.00043616873  20.641455      18.985329      1.6561261     -1.5391348      18347.49     
    556000   0.91123792     0.0023323615   0.0048975396   20.426022      19.072834      1.3531883     -1.3445105      18594.438    
    557000   0.98624553     0.0023323615  -0.001006836    20.471173      19.006599      1.4645746     -1.5302275      18517.86     
    558000   0.94286671     0.0023323615  -0.00026619772  20.359719      18.959562      1.4001571     -1.4900695      18333.114    
    559000   0.96506467     0.0023323615  -0.0025399038   20.462134      19.029013      1.433121      -1.3993052      18497.27     
    560000   0.91801115     0.0023323615  -0.0012649822   20.183923      18.820676      1.3632466     -1.6425058      18388.254    
    561000   0.95298647     0.0023323615  -0.0015273142   20.699105      19.28392       1.4151849     -1.2896258      18492.743    
    562000   0.98908738     0.0023323615   0.00039364069  20.32342       18.854626      1.4687948     -1.6003202      18493.36     
    563000   0.96636049     0.0023323615   0.0021414819   20.087945      18.6529        1.4350453     -1.6966011      18315.869    
    564000   1.1295701      0.0023323615   0.0024455194   20.556823      18.879412      1.6774116     -1.6066528      18261.853    
    565000   1.0648703      0.0023323615  -0.00032992296  20.76267       19.181337      1.5813323     -1.4094866      18430.353    
    566000   0.93115803     0.0023323615  -7.721771e-05   20.293074      18.910304      1.3827697     -1.626895       18539.378    
    567000   0.93191481     0.0023323615  -0.00070436649  20.480424      19.09653       1.3838935     -1.4099121      18608.38     
    568000   1.0557574      0.0023323615   0.0015995089   20.561619      18.993819      1.5677997     -1.5356087      18675.77     
    569000   0.93978719     0.0023323615  -0.0034570533   20.422478      19.026894      1.395584      -1.4477644      18476.387    
    570000   0.95202717     0.0023323615  -0.0021131136   20.300132      18.886372      1.4137604     -1.5721066      18489.132    
    571000   0.95590107     0.0023323615  -0.00062512698  20.316266      18.896753      1.4195131     -1.5043009      18514.909    
    572000   0.85512622     0.0023323615  -0.0034715198   20.277859      19.007997      1.2698624     -1.7084326      18473.586    
    573000   1.0871268      0.0023323615  -0.00093514696  20.665726      19.051342      1.6143833     -1.4964365      18585.806    
    574000   1.0674876      0.0023323615   0.0022525888   20.36946       18.784241      1.5852191     -1.7841959      18503.747    
    575000   1.0266239      0.0023323615   0.00038068224  20.393263      18.868727      1.5245365     -1.6557233      18599.077    
    576000   0.8847043      0.0023323615   0.0010937433   20.20072       18.886934      1.3137859     -1.7200334      18558.461    
    577000   0.99098742     0.0023323615  -0.0003126464   20.598317      19.126701      1.4716163     -1.3667096      18722.674    
    578000   0.94168954     0.0023323615   0.0033809099   21.033805      19.635396      1.398409      -0.87212826     18755.371    
    579000   1.1082651      0.0023323615  -0.00024815573  21.141015      19.495241      1.6457736     -1.0528205      18680.401    
    580000   1.1392495      0.0023323615   0.001690091    21.184813      19.493028      1.6917855     -1.050423       18638.838    
    581000   1.094189       0.0023323615   0.0006234102   20.735637      19.110767      1.6248706     -1.3694382      18426.988    
    582000   1.0530316      0.0023323615  -0.00073717127  20.394668      18.830916      1.5637519     -1.6979936      18203.376    
    583000   0.95447252     0.0023323615  -0.00065763405  20.319685      18.902293      1.4173917     -1.5172705      18297.335    
    584000   0.93543338     0.0023323615   0.00087263818  20.395354      19.006236      1.3891186     -1.5252093      18380.128    
    585000   0.82109931     0.0023323615  -0.0011061725   19.939648      18.720316      1.2193325     -1.7286113      18177.273    
    586000   1.068112       0.0023323615  -0.00084424251  20.247702      18.661556      1.5861463     -1.8163985      18197.966    
    587000   1.050834       0.0023323615   0.0033697307   20.440119      18.879631      1.5604884     -1.6986004      7114.472     
    588000   0.94131385     0.0023323615   0.00034579807  19.975106      18.577255      1.3978511     -1.8581567      18073.789    
    589000   1.1608219      0.0023323615   6.8642339e-05  20.430168      18.706348      1.7238205     -1.8820551      18251.962    
    590000   1.0328472      0.0023323615   0.0042673411   20.082369      18.548591      1.5337781     -1.9054537      18217.53     
    591000   1.0580055      0.0023323615   0.00053700977  20.37945       18.808312      1.5711382     -1.6916393      18241.934    
    592000   1.0244053      0.0023323615   0.0038591519   20.592956      19.071714      1.5212419     -1.5211695      18294.672    
    593000   0.87334866     0.0023323615  -0.0017315889   20.443091      19.146168      1.2969228     -1.5033072      18268.785    
    594000   0.83098354     0.0023323615   0.0018386543   20.329225      19.095214      1.2340106     -1.3380283      18331.962    
    595000   1.0682482      0.0023323615   0.00028275297  20.795879      19.20953       1.5863485     -1.3041603      18293.033    
    596000   1.0475194      0.0023323615  -0.0015529717   20.690938      19.135371      1.5555663     -1.5008752      18218.288    
    597000   0.86922607     0.0023323615   0.0010756758   20.500722      19.209921      1.2908007     -1.237945       18480.126    
    598000   1.0583135      0.0023323615   0.002242582    20.994422      19.422826      1.5715955     -1.1336958      18408.524    
    599000   0.99060775     0.0023323615  -0.0010752732   20.765643      19.294591      1.4710525     -1.2540047      18391.131    
    600000   0.96288951     0.0023323615  -0.0049185981   20.784156      19.354265      1.4298909     -1.2099115      18561.422    
    601000   0.91727505     0.0023323615   0.0019428961   20.581533      19.21938       1.3621535     -1.2514563      18677.905    
    602000   0.91469248     0.0023323615   0.0013690876   20.481732      19.123414      1.3583183     -1.3812353      18625.315    
    603000   0.9932901      0.0023323615   0.0026027875   20.673767      19.198732      1.4750358     -1.3867961      18497.393    
    604000   0.94809924     0.0023323615   0.0019579772   20.276175      18.868248      1.4079274     -1.6124243      18394.937    
    605000   1.1400446      0.0023323615   0.0048545986   20.6161        18.923134      1.6929662     -1.5774444      18475.07     
    606000   0.89217737     0.0023323615  -0.0017309119   20.511184      19.1863        1.3248834     -1.344998       18421.686    
    607000   1.0605882      0.0023323615  -0.0012849634   20.766861      19.191887      1.5749735     -1.4344947      18501.189    
    608000   0.98235392     0.0023323615   0.00030356246  20.623025      19.16423       1.4587956     -1.4407706      18475.805    
    609000   0.93255824     0.0023323615   0.0026272077   20.267008      18.882159      1.384849      -1.4907366      18426.672    
    610000   1.0093598      0.0023323615  -0.00028255528  20.635474      19.136575      1.4988993     -1.4089458      18362.146    
    611000   0.9103351      0.0023323615  -0.001781179    20.341386      18.989538      1.3518476     -1.4655715      18478.234    
    612000   0.91534143     0.0023323615  -0.00064372156  20.502764      19.143482      1.359282      -1.3133011      18601.365    
    613000   0.85999122     0.0023323615  -0.004520902    20.597495      19.320408      1.277087      -1.2992294      18435.817    
    614000   1.0093236      0.0023323615   0.0024255802   20.421225      18.92238       1.4988455     -1.6198071      18439.083    
    615000   1.0877371      0.0023323615   6.3383861e-05  20.618341      19.003052      1.6152895     -1.472812       18303.566    
    616000   1.0074364      0.0023323615  -0.00039098367  20.429464      18.933421      1.4960431     -1.5680369      18292.054    
    617000   1.0151984      0.0023323615  -0.0017203077   20.380277      18.872707      1.5075697     -1.5973101      18339.699    
    618000   0.97007432     0.0023323615   0.001893581    20.541668      19.101107      1.4405604     -1.4028041      18392.049    
    619000   1.0623066      0.0023323615  -0.00050048415  20.502346      18.924821      1.5775254     -1.581184       18247.831    
    620000   0.87532633     0.0023323615  -0.0023015231   20.43267       19.13281       1.2998596     -1.3743853      18266.866    
    621000   1.1609077      0.0023323615  -0.001986889    20.781189      19.057241      1.7239479     -1.4066757      18333.528    
    622000   1.0729504      0.0023323615   0.0002626296   20.327396      18.734064      1.5933314     -1.7263874      18386.483    
    623000   1.0337759      0.0023323615  -0.0015171154   20.338471      18.803314      1.5351572     -1.7457198      18326.476    
    624000   1.1293484      0.0023323615  -0.00065589588  20.747807      19.070725      1.6770824     -1.5778852      18290.733    
    625000   1.0612585      0.0023323615  -0.001214886    20.616286      19.040318      1.5759688     -1.51528        18265.666    
    626000   1.0381418      0.0023323615   0.0012692605   20.60863       19.066989      1.5416405     -1.5057185      18345.959    
    627000   1.010465       0.0023323615   0.00051266307  20.703377      19.202837      1.5005405     -1.3749496      18470.489    
    628000   1.0684709      0.0023323615  -0.00046750304  20.629883      19.043204      1.5866793     -1.4949772      18360.048    
    629000   0.97845438     0.0023323615   0.00064553899  20.24451       18.791506      1.4530048     -1.7190636      18345.777    
    630000   1.1208375      0.0023323615   0.0036481112   20.644777      18.980334      1.6644436     -1.6190353      18286.079    
    631000   1.1730764      0.0023323615   0.0052868583   20.466419      18.724401      1.7420184     -1.8603624      18450.955    
    632000   1.0899424      0.0023323615   0.0049275599   20.41545       18.796886      1.6185644     -1.7228213      18355.112    
    633000   1.0915969      0.0023323615   0.00047499164  20.680807      19.059785      1.6210214     -1.5309907      18436.515    
    634000   0.8983573      0.0023323615   0.00022808833  20.036932      18.702871      1.3340606     -1.7649942      18327.314    
    635000   1.0161878      0.0023323615   0.0055262945   20.35063       18.841591      1.5090389     -1.6418678      18190.521    
    636000   0.92965294     0.0023323615  -0.0042238318   20.550085      19.16955       1.3805346     -1.3954061      18155.567    
    637000   1.024105       0.0023323615  -0.0014057038   20.41809       18.897294      1.520796      -1.6467419      18126.134    
    638000   0.97830647     0.0023323615   0.0046455921   20.638643      19.185858      1.4527851     -1.3293529      18063.943    
    639000   1.0482042      0.0023323615   0.0021565393   20.762968      19.206384      1.5565833     -1.322824       18176.455    
    640000   0.80300204     0.0023323615  -8.1173241e-05  20.205116      19.012658      1.192458      -1.4637036      18147.529    
    641000   1.0757655      0.0023323615   0.0035459137   20.747466      19.149954      1.5975118     -1.3298244      18358.394    
    642000   0.85887118     0.0023323615  -0.0021492142   20.074725      18.799301      1.2754237     -1.634469       18146.546    
    643000   0.92052078     0.0023323615   0.00094325652  20.604643      19.237669      1.3669734     -1.2281205      18201.782    
    644000   0.88563828     0.0023323615   0.00059197777  20.666085      19.350913      1.3151728     -1.2434239      18264.453    
    645000   0.90785422     0.0023323615  -0.0002224106   20.550242      19.202078      1.3481635     -1.2590723      18418.834    
    646000   0.96890443     0.0023323615  -0.0016420622   20.783868      19.345045      1.4388231     -1.3211387      18176.062    
    647000   1.0161927      0.0023323615   0.00052288819  20.476953      18.967907      1.5090462     -1.4702946      18309.102    
    648000   1.0291498      0.0023323615  -0.00088808141  20.734544      19.206256      1.5282875     -1.2698007      18342.217    
    649000   0.96052628     0.0023323615   0.0050703584   20.259082      18.832701      1.4263815     -1.6362632      18219.268    
    650000   0.8796203      0.0023323615  -0.00081950307  20.480577      19.174341      1.3062361     -1.4135065      18085.267    
    651000   0.98781965     0.0023323615   0.00030386284  20.615712      19.148799      1.4669122     -1.3767963      18152.75     
    652000   1.0299583      0.0023323615   0.00068534837  20.505014      18.975526      1.529488      -1.5802183      18201.461    
    653000   1.002516       0.0023323615   0.00089902832  20.349464      18.860728      1.4887363     -1.7177718      18072.398    
    654000   0.90945639     0.0023323615   0.00073797912  20.511979      19.161436      1.3505427     -1.4349624      18178.998    
    655000   1.0960997      0.0023323615  -0.0018194333   20.556256      18.928548      1.627708      -1.5905899      18152.361    
    656000   1.0178167      0.0023323615   0.0011521574   20.431872      18.920414      1.5114578     -1.4612764      18560.145    
    657000   1.0231493      0.0023323615   0.0007717752   20.428919      18.909542      1.5193767     -1.6603633      18633.591    
    658000   1.1742458      0.0023323615   0.0024328223   20.479076      18.735321      1.7437551     -1.6949131      18593.946    
    659000   1.0320196      0.0023323615   0.0011028303   20.579313      19.046764      1.5325491     -1.3788073      18539.357    
    660000   1.0469057      0.0023323615   0.001162732    20.511047      18.956392      1.5546549     -1.5460929      18626.876    
    661000   1.0057379      0.0023323615   0.00078147745  20.266705      18.773184      1.4935207     -1.7302426      18260.486    
    662000   0.89762346     0.0023323615  -0.00098194028  20.329095      18.996124      1.3329708     -1.6853028      18604.25     
    663000   0.84150549     0.0023323615  -0.0015331644   20.15473       18.905095      1.2496356     -1.5771004      18523.132    
    664000   1.1278948      0.0023323615   0.0047239481   20.655654      18.98073       1.6749237     -1.577018       18195.594    
    665000   1.0926068      0.0023323615  -0.0010693949   20.468118      18.845597      1.622521      -1.7500807      18273.424    
    666000   1.0101778      0.0023323615  -0.00057882742  20.377757      18.877643      1.5001141     -1.6279213      18186.258    
    667000   1.0011971      0.0023323615   0.0014355389   20.581581      19.094804      1.4867777     -1.3758115      18133.411    
    668000   0.96695204     0.0023323615   0.0033317425   20.620662      19.184739      1.4359238     -1.4021688      18283.292    
    669000   0.84341955     0.0023323615   0.0033131544   20.324501      19.072023      1.252478      -1.556497       18268.822    
    670000   0.99044723     0.0023323615   0.00068905452  20.599833      19.129019      1.4708141     -1.3942823      18311.289    
    671000   1.0638337      0.0023323615  -0.0018834053   20.899123      19.31933       1.5797931     -1.2089712      18266.535    
    672000   1.0549003      0.0023323615   0.0013408246   20.786473      19.219947      1.5665269     -1.3204877      18231.675    
    673000   1.0534513      0.0023323615   0.00025895884  20.995797      19.431422      1.5643751     -1.3266662      18088.086    
    674000   1.078186       0.0023323615   1.3886056e-05  20.662291      19.061185      1.6011062     -1.4930715      18274.822    
    675000   1.0623421      0.0023323615   0.00196171     20.526686      18.949108      1.577578      -1.5287642      18521.197    
    676000   0.95011242     0.0023323615  -0.0031703729   20.475651      19.064734      1.4109169     -1.412953       18571.129    
    677000   1.0028237      0.0023323615   0.0044401732   20.629952      19.140759      1.4891931     -1.3374982      18574.631    
    678000   0.98516818     0.0023323615  -0.00074890882  20.513106      19.050131      1.4629748     -1.404141       18403.019    
    679000   0.93288365     0.0023323615  -8.8567917e-05  20.315013      18.929681      1.3853322     -1.6843739      18353.37     
    680000   0.80668864     0.0023323615  -0.0025809193   20.384712      19.186779      1.1979326     -1.3045031      18188.266    
    681000   0.90671456     0.0023323615  -0.0014145133   20.398913      19.052442      1.3464711     -1.5519161      18150.453    
    682000   1.0245758      0.0023323615   0.0040840366   20.372456      18.85096       1.5214951     -1.6816698      18137.688    
    683000   0.97310366     0.0023323615   0.0028551162   20.495608      19.050549      1.4450589     -1.4130834      18374.02     
    684000   0.93304271     0.0023323615  -0.00055304943  20.404208      19.018639      1.3855684     -1.3807014      18583.169    
    685000   1.0907699      0.0023323615  -0.0033499873   20.73712       19.117327      1.6197934     -1.4178505      18464.717    
    686000   0.9474956      0.0023323615   0.0027467366   20.749701      19.34267       1.407031      -1.299794       18504.44     
    687000   0.94497512     0.0023323615   0.0011787557   20.551172      19.147884      1.403288      -1.3354368      18445.803    
    688000   0.93406742     0.0023323615   0.00015247367  20.632404      19.245314      1.3870901     -1.3190295      18560.107    
    689000   1.1342119      0.0023323615  -0.0017677814   20.848787      19.164482      1.6843047     -1.3916789      18313.527    
    690000   1.049233       0.0023323615  -1.6599771e-05  20.829608      19.271497      1.558111      -1.3605143      18378.334    
    691000   0.90692029     0.0023323615   5.5163495e-05  20.38514       19.038364      1.3467766     -1.5073337      18148.997    
    692000   1.0442816      0.0023323615  -0.0023474442   20.560781      19.010023      1.5507582     -1.5717122      18313.248    
    693000   1.0554286      0.0023323615   0.0044523868   20.754767      19.187455      1.5673115     -1.2431231      18257.798    
    694000   0.9559965      0.0023323615   5.6980092e-05  20.633366      19.213711      1.4196548     -1.4235173      18308.733    
    695000   0.95871577     0.0023323615  -0.0033519993   20.417133      18.99344       1.4236929     -1.4229272      18251.401    
    696000   0.82876837     0.0023323615   0.001970529    20.333123      19.102402      1.230721      -1.3711955      18700.028    
    697000   0.97060619     0.0023323615  -0.0020411503   20.66435       19.223         1.4413502     -1.359048       18728.565    
    698000   0.92681545     0.0023323615  -0.0018622871   20.559067      19.182746      1.3763209     -1.397068       18676.403    
    699000   0.92653213     0.0023323615  -8.166272e-05   20.196695      18.820795      1.3759002     -1.5878789      18649.508    
    700000   0.89657552     0.0023323615  -0.0019857536   20.481082      19.149668      1.3314146     -1.3691762      18715.569    
    701000   1.1200102      0.0023323615   0.0026683829   20.89429       19.231075      1.6632151     -1.2271477      18422.495    
    702000   0.90203917     0.0023323615   0.0031389843   20.301189      18.961661      1.3395282     -1.5463478      18383.672    
    703000   1.0080635      0.0023323615  -0.0015881333   20.550233      19.053258      1.4969743     -1.4401265      18490.458    
    704000   1.0443412      0.0023323615   0.0036665534   20.544781      18.993934      1.5508467     -1.6356797      18389.514    
    705000   1.0604182      0.0023323615   0.0010778577   20.335559      18.760839      1.574721      -1.6190156      18350.631    
    706000   0.98144254     0.0023323615  -0.0042904219   20.592637      19.135194      1.4574422     -1.4469572      18408.144    
    707000   0.85946152     0.0023323615   0.00017696078  20.378591      19.102291      1.2763004     -1.4324133      18430.316    
    708000   1.133792       0.0023323615  -0.0047631204   20.788371      19.10469       1.6836811     -1.5336173      18431.065    
    709000   0.99943431     0.0023323615   0.00020227478  20.626931      19.142771      1.48416       -1.390574       18414.236    
    710000   0.96805092     0.0023323615  -0.0019019461   20.737907      19.300352      1.4375556     -1.1579215      18494.864    
    711000   0.95960993     0.0023323615  -0.0022933588   20.358198      18.933177      1.4250207     -1.6683859      18543.211    
    712000   0.89489018     0.0023323615  -0.0011504493   20.12383       18.794918      1.3289119     -1.6785793      18444.105    
    713000   0.97171701     0.0023323615  -0.0029387331   20.472576      19.029576      1.4429998     -1.464179       18441.989    
    714000   1.0016094      0.0023323615   0.00066684896  20.654186      19.166796      1.4873899     -1.4174124      18478.826    
    715000   1.024104       0.0023323615   0.00020695175  20.732561      19.211766      1.5207944     -1.2696548      18378.5      
    716000   0.93597688     0.0023323615  -0.00047056576  20.265207      18.875281      1.3899257     -1.6486948      18433.784    
    717000   0.92177501     0.0023323615   0.0014934473   20.499446      19.13061       1.3688359     -1.3626566      18467.598    
    718000   0.99840128     0.0023323615  -0.0021210299   20.343736      18.86111       1.4826259     -1.6213201      18439.921    
    719000   1.0029616      0.0023323615  -0.0027620247   20.3599        18.870502      1.489398      -1.602584       18453.422    
    720000   0.84390578     0.0023323615  -0.00098128423  20.200053      18.946853      1.2532001     -1.5976933      18275.428    
    721000   0.88852977     0.0023323615  -0.0024341512   20.330983      19.011517      1.3194667     -1.6023216      18280.147    
    722000   1.0091767      0.0023323615  -0.00054912013  20.040766      18.542138      1.4986273     -1.8802314      18275.586    
    723000   0.98180123     0.0023323615   0.0028841828   20.340045      18.88207       1.4579748     -1.652782       18354.234    
    724000   1.0537268      0.0023323615   0.0027265203   20.371692      18.806908      1.5647843     -1.636707       18301.744    
    725000   1.1022998      0.0023323615   0.0035221748   20.701488      19.064573      1.6369152     -1.4390577      18338.412    
    726000   1.1280813      0.0023323615   0.0033527739   20.535273      18.860072      1.6752007     -1.517971       18467.731    
    727000   1.0404531      0.0023323615   0.0045180584   20.591278      19.046205      1.5450729     -1.6932102      18391.991    
    728000   1.0234849      0.0023323615   0.00093418593  20.395757      18.875881      1.519875      -1.6919466      18313.301    
    729000   0.99171597     0.0023323615  -0.002021504    20.488988      19.01629       1.4726982     -1.5139149      18313.598    
    730000   1.06904        0.0023323615  -0.0030698024   20.468373      18.880849      1.5875244     -1.7177658      18169.947    
    731000   0.96117718     0.0023323615  -0.0042581239   20.435012      19.007664      1.4273481     -1.5516204      18257.854    
    732000   0.86748977     0.0023323615   0.001521087    20.538457      19.250235      1.2882223     -1.2640391      18437.258    
    733000   1.0438073      0.0023323615  -0.0019063161   20.463461      18.913407      1.5500538     -1.4973769      18362.642    
    734000   0.90624927     0.0023323615  -0.0013584524   20.074952      18.729172      1.3457802     -1.7376144      18259.868    
    735000   1.0634712      0.0023323615   0.0029993662   20.739038      19.159783      1.5792548     -1.3388052      18342.901    
    736000   0.92637816     0.0023323615  -0.0017602568   20.509994      19.134322      1.3756716     -1.2874839      18464.431    
    737000   0.91520731     0.0023323615  -0.0022184198   20.39099       19.031908      1.3590828     -1.4656805      18399.779    
    738000   1.0104598      0.0023323615  -0.0047498971   20.652945      19.152412      1.5005328     -1.5078682      18365.058    
    739000   1.018856       0.0023323615   0.0018110678   20.33988       18.826879      1.5130012     -1.6966592      18316.884    
    740000   0.8136936      0.0023323615  -0.0035327452   20.288443      19.080108      1.208335      -1.405907       18208.304    
    741000   0.89009114     0.0023323615   0.0027458479   20.313583      18.991798      1.3217853     -1.5867347      18081.467    
    742000   0.99775438     0.0023323615   0.0010875728   20.533147      19.051482      1.4816653     -1.6046738      18173.321    
    743000   0.91152614     0.0023323615   0.00012737536  20.221653      18.868037      1.3536163     -1.6405387      18220.506    
    744000   0.8935293      0.0023323615  -0.00018509023  20.128171      18.80128       1.326891      -1.6535941      18097.547    
    745000   1.1191773      0.0023323615   0.004934291    20.760448      19.09847       1.6619782     -1.5739048      18128.639    
    746000   1.0104548      0.0023323615   0.0025231479   20.357667      18.857142      1.5005254     -1.649513       18064.345    
    747000   0.90088416     0.0023323615  -0.00083073566  20.293247      18.955434      1.337813      -1.6153377      17986.824    
    748000   1.0172265      0.0023323615  -0.0047858989   20.686712      19.17613       1.5105814     -1.4671761      18256.211    
    749000   1.1056899      0.0023323615  -0.00089158901  20.346906      18.704957      1.6419495     -1.7302547      18230.999    
    750000   1.0114542      0.0023323615   0.0035898511   20.539379      19.03737       1.5020096     -1.5105039      18340.353    
    751000   0.94561226     0.0023323615  -0.0018834418   20.75909       19.354856      1.4042342     -1.2870519      18275.813    
    752000   0.99962939     0.0023323615  -1.8222539e-05  20.513972      19.029523      1.4844497     -1.5435295      18370.821    
    753000   1.1655739      0.0023323615  -0.0032892967   20.665101      18.934223      1.7308772     -1.6018948      18304.388    
    754000   0.9678319      0.0023323615  -0.0017891697   20.454833      19.017603      1.4372304     -1.5363796      18328.69     
    755000   0.84598928     0.0023323615  -0.0057393341   20.270333      19.014039      1.2562941     -1.501811       18358.204    
    756000   0.9493716      0.0023323615   0.0018453121   20.507509      19.097692      1.4098168     -1.4018141      18441.669    
    757000   1.0547074      0.0023323615   0.00032947464  20.711417      19.145176      1.5662404     -1.3157358      18730.016    
    758000   0.88239292     0.0023323615   0.0013441143   20.439286      19.128932      1.3103535     -1.3957741      18534.235    
    759000   0.82667413     0.0023323615  -0.0012346294   20.195535      18.967924      1.2276111     -1.5340041      18336.522    
    760000   1.0071584      0.0023323615  -0.003330792    20.730618      19.234987      1.4956302     -1.3088979      18486.201    
    761000   1.0402595      0.0023323615   0.0013392288   20.677979      19.133194      1.5447853     -1.4357372      18475.761    
    762000   1.0473254      0.0023323615  -0.00039082908  20.556657      19.001378      1.5552782     -1.4437637      18211.846    
    763000   1.0708181      0.0023323615  -0.0016224695   20.736818      19.146653      1.5901649     -1.3314366      18307.178    
    764000   1.0833355      0.0023323615  -0.0028566182   20.726614      19.117861      1.6087532     -1.390137       18443.547    
    765000   1.1412402      0.0023323615  -0.00089454095  20.968866      19.274125      1.6947417     -1.176814       18438.995    
    766000   1.1529015      0.0023323615  -0.00063523864  20.923611      19.211553      1.7120587     -1.3776613      18541.696    
    767000   1.0273985      0.0023323615   0.0031593713   20.552018      19.026331      1.5256868     -1.4715057      18502.31     
    768000   1.0674138      0.0023323615   0.0014455623   20.750928      19.165819      1.5851094     -1.4321033      18547.663    
    769000   1.0910641      0.0023323615   0.0020933911   20.977865      19.357635      1.6202302     -1.2256081      18436.379    
    770000   1.0305945      0.0023323615  -0.00034724029  20.642885      19.112453      1.5304328     -1.3706484      18304.644    
    771000   0.92477581     0.0023323615  -0.0019518416   20.657796      19.284504      1.3732921     -1.3376936      18219.385    
    772000   1.0159532      0.0023323615  -0.0024898279   20.602253      19.093562      1.5086905     -1.5150468      18371.264    
    773000   0.9161827      0.0023323615  -0.0016141205   20.426936      19.066405      1.3605313     -1.5287142      15057.573    
    774000   0.88185248     0.0023323615  -0.001921618    20.217115      18.907565      1.3095509     -1.6685198      18134.581    
    775000   0.92065293     0.0023323615   0.0018101279   20.438565      19.071396      1.3671696     -1.3863306      18245.509    
    776000   1.0034923      0.0023323615  -0.0018965417   20.295742      18.805556      1.490186      -1.7607755      18312.344    
    777000   0.84482805     0.0023323615  -0.00033946629  20.361866      19.107296      1.2545697     -1.5308576      18244.488    
    778000   1.1401314      0.0023323615   0.0043627202   20.442357      18.749262      1.6930951     -1.6822869      18326.876    
    779000   0.99067771     0.0023323615   0.00053601819  20.462351      18.991195      1.4711564     -1.5938752      18164.501    
    780000   0.97470332     0.0023323615  -0.00097001423  20.323088      18.875654      1.4474344     -1.6783858      18379.637    
    781000   1.0336924      0.0023323615  -0.00071438509  20.473049      18.938016      1.5350332     -1.5237146      18327.929    
    782000   1.0130316      0.0023323615   0.00069230688  20.319698      18.815346      1.5043519     -1.7198226      18244.498    
    783000   1.0886596      0.0023323615   0.0037433662   20.589751      18.973092      1.6166596     -1.4959949      18268.488    
    784000   1.2626308      0.0023323615  -0.0031155716   20.952206      19.077199      1.8750067     -1.4550249      18418.994    
    785000   1.0275758      0.0023323615  -0.001286665    20.546523      19.020573      1.52595       -1.6264214      18265.991    
    786000   0.96358238     0.0023323615  -0.0031577423   20.529792      19.098872      1.4309198     -1.379261       18554.418    
    787000   1.0698748      0.0023323615  -0.0026293359   20.480785      18.89202       1.5887641     -1.711207       18555.966    
    788000   1.0847367      0.0023323615   0.0020841342   21.043738      19.432904      1.610834      -1.3061257      18516.009    
    789000   1.0546209      0.0023323615   0.0057010721   20.230019      18.663907      1.5661121     -1.8290024      18501.978    
    790000   0.9595085      0.0023323615  -0.00225264     20.67914       19.254269      1.4248701     -1.3303846      18386.862    
    791000   0.97730616     0.0023323615   0.0017238388   20.98679       19.53549       1.4512996     -1.0280861      18623.146    
    792000   1.0769128      0.0023323615   0.00069053868  20.885728      19.286512      1.5992155     -1.2689972      18490.865    
    793000   1.0035478      0.0023323615  -0.0025317697   20.597402      19.107133      1.4902685     -1.4419671      18428.482    
    794000   1.0921316      0.0023323615   0.0031186684   20.531952      18.910137      1.6218154     -1.4238317      18369.901    
    795000   1.0241472      0.0023323615  -0.0012352933   20.539279      19.01842       1.5208586     -1.4123377      18442.122    
    796000   1.035249       0.0023323615   0.00089841507  20.466215      18.92887       1.5373447     -1.4631719      18623.306    
    797000   0.93951491     0.0023323615   0.0036462225   20.466846      19.071667      1.3951796     -1.4919428      18462.498    
    798000   1.0046772      0.0023323615  -0.0012178061   20.492836      19.00089       1.4919457     -1.4917027      18285.298    
    799000   1.0810445      0.0023323615   0.0014867167   20.600976      18.995625      1.6053511     -1.4855063      18151.878    
    800000   0.92237189     0.0023323615   0.0019336798   20.566725      19.197003      1.3697223     -1.3532949      18359.494    
    801000   1.0198114      0.0023323615   0.0021645437   20.559968      19.045548      1.5144199     -1.3797863      18329.646    
    802000   1.0575048      0.0023323615   0.0045646221   20.511963      18.941568      1.5703946     -1.4165596      18371.805    
    803000   1.0196135      0.0023323615  -0.0022700767   20.328611      18.814485      1.514126      -1.6215249      18425.447    
    804000   1.2331288      0.0023323615   0.0018483533   20.987759      19.156563      1.8311963     -1.3398544      18314.952    
    805000   1.1125412      0.0023323615   0.00025635383  21.07818       19.426057      1.6521236     -1.1295063      18369.543    
    806000   1.0943433      0.0023323615  -0.00069285109  20.609879      18.984779      1.6250998     -1.4242458      18279.153    
    807000   0.98443581     0.0023323615  -0.00091264274  20.608873      19.146986      1.4618872     -1.4442572      18287.865    
    808000   0.96812304     0.0023323615   0.0030997773   20.433679      18.996016      1.4376627     -1.5538828      18339.022    
    809000   1.1227339      0.0023323615   0.0025878087   20.626123      18.958864      1.6672598     -1.5715199      18379.024    
    810000   1.0239057      0.0023323615   0.0014642574   20.582752      19.062252      1.5205        -1.5077494      18640.874    
    811000   0.98432984     0.0023323615   0.0016120168   20.301273      18.839544      1.4617298     -1.6291545      18560.763    
    812000   0.91685562     0.0023323615  -0.0023790035   20.043758      18.682227      1.3615306     -1.7574049      18321.79     
    813000   1.0210559      0.0023323615   0.0013431068   20.394151      18.877883      1.5162681     -1.5884907      18185.079    
    814000   1.0279733      0.0023323615   0.001665351    20.552279      19.025739      1.5265404     -1.4801768      18337.014    
    815000   1.1283503      0.0023323615  -0.0033944815   20.707531      19.031931      1.6756002     -1.4540133      18175.916    
    816000   0.92544462     0.0023323615  -0.00025574781  20.255586      18.8813        1.3742853     -1.7747041      18529.476    
    817000   0.99005901     0.0023323615  -0.0020046674   20.16673       18.696493      1.4702376     -1.8266261      18449.891    
    818000   0.93302366     0.0023323615   0.0019237548   20.195487      18.809947      1.3855401     -1.6605082      18458.953    
    819000   1.0729804      0.0023323615  -0.0054816451   20.699927      19.106551      1.5933759     -1.4794973      18568.466    
    820000   1.1252918      0.0023323615   0.00067122446  20.776516      19.105458      1.6710583     -1.3941989      18643.294    
    821000   1.0305017      0.0023323615  -0.0020716349   20.655498      19.125203      1.5302951     -1.4614624      18408.27     
    822000   0.97056469     0.0023323615  -0.0036654156   20.394209      18.95292       1.4412886     -1.5601052      18213.091    
    823000   1.1376443      0.0023323615  -0.0024478909   20.628523      18.939121      1.6894018     -1.5106578      18085.559    
    824000   1.1605831      0.0023323615  -0.0010797763   20.600696      18.87723       1.7234659     -1.6051726      18047.276    
    825000   1.0678594      0.0023323615   0.0014740387   20.443785      18.858014      1.5857712     -1.6332484      18194.748    
    826000   1.0950107      0.0023323615   0.00067729566  20.413301      18.78721       1.6260909     -1.7188468      18239.564    
    827000   1.1678292      0.0023323615  -0.0047169941   20.511441      18.777215      1.7342264     -1.8474649      18304.17     
    828000   1.0538797      0.0023323615  -0.0043711034   20.546492      18.981481      1.5650114     -1.5597939      18339.601    
    829000   1.0223579      0.0023323615  -0.0058940691   20.768527      19.250325      1.5182015     -1.4925683      18377.924    
    830000   1.0553153      0.0023323615  -0.0026033387   20.340096      18.772952      1.5671433     -1.7319077      18194.596    
    831000   0.89474673     0.0023323615  -0.0052816534   20.179044      18.850345      1.3286989     -1.637003       18254.846    
    832000   0.9358531      0.0023323615  -0.0031957532   20.207856      18.818114      1.3897418     -1.6347821      18248.888    
    833000   0.9609112      0.0023323615  -0.0025621034   20.409516      18.982562      1.4269531     -1.508658       18234.153    
    834000   0.91683091     0.0023323615   0.0011904869   20.463125      19.101631      1.3614939     -1.3601925      18310.601    
    835000   1.080479       0.0023323615  -0.00020667729  20.500647      18.896136      1.6045112     -1.5505205      18371.748    
    836000   1.0933732      0.0023323615   0.0020663259   20.642331      19.018672      1.6236592     -1.510201       18287.265    
    837000   1.071542       0.0023323615   0.0018356765   20.286218      18.694979      1.5912399     -1.7159807      18305.302    
    838000   0.8903875      0.0023323615  -0.0034640566   20.13235       18.810125      1.3222254     -1.6715358      18332.332    
    839000   1.0393161      0.0023323615  -0.0023780389   20.741314      19.19793       1.5433845     -1.4476473      18370.929    
    840000   1.167691       0.0023323615  -0.00052516624  20.685984      18.951963      1.7340212     -1.4548044      18486.636    
    841000   1.1811855      0.0023323615  -0.0037772943   20.615631      18.86157       1.7540604     -1.7421229      18399.939    
    842000   0.97440855     0.0023323615  -0.00038562737  20.269368      18.822371      1.4469967     -1.6857493      18268.287    
    843000   1.1083281      0.0023323615   0.001267968    20.551414      18.905547      1.6458672     -1.7689029      18179.766    
    844000   0.69037799     0.0023323615  -0.00084906195  19.847723      18.822512      1.0252113     -1.7461462      18059.43     
    845000   1.0673251      0.0023323615  -0.00050868916  20.546689      18.961711      1.5849778     -1.5288446      18072.66     
    846000   0.99457609     0.0023323615   0.0008631915   20.693641      19.216696      1.4769455     -1.300591       18200.096    
    847000   0.95886963     0.0023323615   0.0017506243   20.296093      18.872171      1.4239214     -1.5901418      18321.44     
    848000   1.0761616      0.0023323615  -0.0022207183   20.687246      19.089146      1.5981        -1.4244876      18294.585    
    849000   1.1246574      0.0023323615  -0.0046474318   20.495012      18.824896      1.6701163     -1.7113721      18276.278    
    850000   0.89916561     0.0023323615   8.6681422e-06  20.146697      18.811436      1.3352609     -1.690362       18307.984    
    851000   0.99922214     0.0023323615  -0.0057194696   20.573025      19.08918       1.4838449     -1.4814079      18355.48     
    852000   0.91517145     0.0023323615   0.0014802348   20.254801      18.895771      1.3590296     -1.6353137      18334.181    
    853000   0.96137554     0.0023323615   0.0025714658   20.522385      19.094742      1.4276427     -1.4168588      18368.427    
    854000   1.0180771      0.0023323615   0.0034725026   20.171071      18.659227      1.5118445     -1.8003774      18313.177    
    855000   1.0074187      0.0023323615  -0.0014187858   20.624761      19.128744      1.4960168     -1.4230331      18254.576    
    856000   1.0527695      0.0023323615  -0.0016426316   20.472035      18.908673      1.5633626     -1.5436341      18264.76     
    857000   0.99375042     0.0023323615   0.0010629511   20.455357      18.979637      1.4757194     -1.5059287      18248.114    
    858000   0.89695755     0.0023323615  -0.0033882978   20.136509      18.804527      1.331982      -1.7601505      18505.641    
    859000   0.97458174     0.0023323615  -0.00065125728  20.59857       19.151316      1.4472539     -1.5692345      18482.022    
    860000   0.89567201     0.0023323615  -0.0018264166   20.411804      19.081731      1.3300729     -1.4602486      18562.847    
    861000   0.84934767     0.0023323615  -0.0039428844   20.284222      19.022941      1.2612813     -1.5156827      18667.202    
    862000   0.97975337     0.0023323615  -0.0033190132   20.326952      18.872018      1.4549337     -1.7221917      18576.435    
    863000   0.94246283     0.0023323615  -0.0017302951   20.370349      18.970791      1.3995573     -1.5204139      18556.222    
    864000   0.98410198     0.0023323615   0.00040051325  20.534702      19.07331       1.4613914     -1.5626143      18583.975    
    865000   1.2013947      0.0023323615  -0.0025342886   21.027069      19.242998      1.7840711     -1.3524841      18595.203    
    866000   1.0527333      0.0023323615   0.0025230673   20.424873      18.861564      1.5633089     -1.6145863      18484.315    
    867000   1.0032279      0.0023323615  -0.0040627691   20.432382      18.942588      1.4897934     -1.6352758      18460.172    
    868000   1.0823579      0.0023323615  -0.00077542084  20.487615      18.880313      1.6073015     -1.6010266      18139.353    
    869000   0.89155251     0.0023323615  -0.0044932885   20.384976      19.06102       1.3239555     -1.6457537      18167.109    
    870000   1.0007641      0.0023323615  -0.0018749425   20.528222      19.042087      1.4861347     -1.4654663      18304.419    
    871000   0.8680914      0.0023323615   0.00095508232  20.205591      18.916475      1.2891157     -1.7258961      18243.705    
    872000   0.98460051     0.0023323615   0.00027834663  20.613463      19.151331      1.4621318     -1.4178756      18328.468    
    873000   0.89052363     0.0023323615  -0.0007693838   20.475777      19.153349      1.3224276     -1.4195085      18223.856    
    874000   1.0439048      0.0023323615   0.0011962301   20.548483      18.998285      1.5501986     -1.5556004      18284.3      
    875000   0.93618096     0.0023323615  -0.0025105898   20.335115      18.944887      1.3902287     -1.5612808      18316.807    
    876000   1.0828671      0.0023323615  -0.0015000299   20.515953      18.907896      1.6080576     -1.6615421      18217.353    
    877000   0.85178786     0.0023323615  -0.0022509338   20.412229      19.147324      1.264905      -1.4046285      18328.862    
    878000   0.93619989     0.0023323615  -0.00023233311  20.285579      18.895322      1.3902568     -1.6757408      18414.546    
    879000   0.89292238     0.0023323615  -0.0033666528   20.387904      19.061914      1.3259897     -1.420859       18254.275    
    880000   0.98059165     0.0023323615  -0.00022404578  20.531229      19.07505       1.4561786     -1.3425104      18367.934    
    881000   0.94307794     0.0023323615   0.0021759966   20.391466      18.990996      1.4004707     -1.4823489      18319.567    
    882000   1.113635       0.0023323615   0.0034968111   20.69406       19.040312      1.6537479     -1.4911451      18533.402    
    883000   1.1157059      0.0023323615   0.00083896199  20.702654      19.045831      1.6568232     -1.3827964      18296.721    
    884000   1.0750554      0.0023323615  -0.00016861694  20.783731      19.187273      1.5964572     -1.2829127      18373.841    
    885000   1.0539708      0.0023323615   0.0011642492   20.530245      18.965099      1.5651467     -1.4431483      18246.283    
    886000   0.97673516     0.0023323615  -0.0014054101   20.468712      19.01826       1.4504517     -1.5188462      18218.145    
    887000   1.0424848      0.0023323615   0.0012357126   20.848168      19.300078      1.5480899     -1.3547467      18246.443    
    888000   1.1083794      0.0023323615  -0.0024776624   20.700316      19.054372      1.6459435     -1.4029236      18415.83     
    889000   1.202695       0.0023323615   0.0021927767   20.631475      18.845473      1.786002      -1.6948813      18419.504    
    890000   1.1846286      0.0023323615   0.0019736223   20.823869      19.064696      1.7591735     -1.4871452      18305.607    
    891000   1.0920024      0.0023323615   0.0036928908   20.628542      19.006919      1.6216235     -1.5539965      18246.887    
    892000   0.976306       0.0023323615   0.0019810772   19.882916      18.433102      1.4498144     -1.9861547      18351.572    
    893000   1.0195816      0.0023323615  -1.526171e-05   20.439448      18.925369      1.5140786     -1.4713847      18234.706    
    894000   1.0806228      0.0023323615  -0.00014587013  20.472429      18.867704      1.6047249     -1.6637456      18284.866    
    895000   0.98159899     0.0023323615   0.00033367993  20.411227      18.953552      1.4576745     -1.5664656      18286.507    
    896000   0.99918028     0.0023323615   0.005712831    20.599239      19.115456      1.4837827     -1.4035784      18220.842    
    897000   0.96721525     0.0023323615   0.0036519906   20.394388      18.958073      1.4363146     -1.4672225      18207.696    
    898000   1.1083392      0.0023323615  -0.0031493339   20.941493      19.295609      1.6458837     -1.3212811      18316.289    
    899000   0.90258012     0.0023323615   0.00067232834  20.427869      19.087537      1.3403315     -1.485499       18313.308    
    900000   1.1247846      0.0023323615  -0.0027005517   20.477827      18.807522      1.6703052     -1.5761294      18316.864    
    901000   1.011178       0.0023323615  -0.0041037304   20.887608      19.386009      1.5015994     -1.0677192      18419.939    
    902000   0.99289601     0.0023323615  -0.00031128675  20.315673      18.841222      1.4744506     -1.5073733      18411.597    
    903000   0.93353657     0.0023323615   0.00090791068  20.171782      18.78548       1.3863018     -1.6374683      18242.424    
    904000   1.0728158      0.0023323615   0.000858466    20.646402      19.05327       1.5931315     -1.5204441      18390.331    
    905000   0.96851064     0.0023323615  -0.0022186014   20.343557      18.905319      1.4382383     -1.5803315      18279.431    
    906000   1.163034       0.0023323615   0.00059423274  20.808229      19.081124      1.7271055     -1.4363375      18313.154    
    907000   1.1418945      0.0023323615   0.00024663546  20.783859      19.088146      1.6957133     -1.3723692      18302.203    
    908000   0.98855138     0.0023323615  -0.0024865769   20.472569      19.00457       1.4679988     -1.6203029      18260.403    
    909000   1.0710726      0.0023323615  -0.0021314983   20.406305      18.815763      1.5905429     -1.696387       18297.654    
    910000   0.89807688     0.0023323615  -0.0016084933   20.680265      19.346621      1.3336442     -1.2126697      18288.18     
    911000   1.0198514      0.0023323615  -0.00056479017  20.41919       18.904711      1.5144794     -1.6134252      18361.777    
    912000   0.92777445     0.0023323615   0.0019847879   20.571102      19.193357      1.3777451     -1.2930039      18310.664    
    913000   1.037996       0.0023323615   0.0029200293   20.588109      19.046685      1.5414241     -1.4518279      18381.972    
    914000   0.98924291     0.0023323615  -0.00046288376  20.467579      18.998553      1.4690257     -1.4928406      18265.679    
    915000   1.0501076      0.0023323615  -0.00026000439  20.648184      19.088774      1.5594098     -1.4603         18333.013    
    916000   0.95416631     0.0023323615  -0.0034234958   20.551156      19.134219      1.416937      -1.4070016      18354.396    
    917000   0.86982777     0.0023323615  -0.0019862338   20.160309      18.868614      1.2916942     -1.5541456      18237.025    
    918000   1.0230117      0.0023323615  -0.0039341154   20.490835      18.971662      1.5191724     -1.5480817      18268.217    
    919000   0.91370577     0.0023323615   0.0037279468   20.451018      19.094165      1.3568531     -1.4045118      18295.179    
    920000   0.95428171     0.0023323615   0.0035748878   20.306102      18.888993      1.4171083     -1.5725852      18306.151    
    921000   0.94215058     0.0023323615  -0.00072637341  20.350751      18.951657      1.3990936     -1.6241218      18290.703    
    922000   0.86816415     0.0023323615   0.0016000331   20.31308       19.023857      1.2892238     -1.4903089      18216.864    
    923000   0.97467909     0.0023323615  -0.00044181653  20.458126      19.010727      1.4473984     -1.566181       18121.336    
    924000   0.99666128     0.0023323615  -0.0008919914   20.435078      18.955036      1.480042      -1.4921519      18224.212    
    925000   1.0331116      0.0023323615  -0.0030266358   20.299359      18.765188      1.5341707     -1.699699       18589.039    
    926000   1.0391107      0.0023323615   0.00088033099  20.50418       18.9611        1.5430795     -1.5522076      18575.091    
    927000   1.1191378      0.0023323615  -0.0023876163   20.374614      18.712694      1.6619196     -1.7148717      18715.435    
    928000   0.9778309      0.0023323615  -0.0016774913   20.551317      19.099238      1.4520789     -1.3983721      18512.307    
    929000   0.93990639     0.0023323615   0.00077112134  20.586919      19.191158      1.395761      -1.3109769      18337.816    
    930000   1.0610756      0.0023323615  -0.0036935196   20.82857       19.252872      1.5756972     -1.3113315      18224.871    
    931000   0.87552412     0.0023323615   0.00061969685  20.567748      19.267594      1.3001533     -1.2287099      18701.472    
    932000   1.0052473      0.0023323615   0.00014933755  20.528266      19.035474      1.4927922     -1.4162428      18561.505    
    933000   1.0911592      0.0023323615  -0.0019181765   20.797903      19.177532      1.6203714     -1.4933983      18384.576    
    934000   1.0750231      0.0023323615  -0.00016264795  20.665005      19.068596      1.5964093     -1.4936419      18568.501    
    935000   0.96653348     0.0023323615  -0.0024604399   20.465453      19.03015       1.4353022     -1.5017645      18542.433    
    936000   1.015727       0.0023323615   0.0021451705   20.473229      18.964874      1.5083546     -1.520143       18502.945    
    937000   0.86453732     0.0023323615   0.0021249699   20.22608       18.942242      1.2838379     -1.5365489      18275.419    
    938000   1.013715       0.0023323615  -0.0015218557   20.758487      19.25312       1.5053668     -1.4101352      18284.986    
    939000   1.2028537      0.0023323615  -0.0014796833   21.217406      19.431168      1.7862378     -1.065721       18264.376    
    940000   0.86116236     0.0023323615  -0.00092805732  20.30627       19.027443      1.2788261     -1.441727       18499.138    
    941000   0.9073726      0.0023323615  -0.00084059527  20.438974      19.091526      1.3474483     -1.3844892      18639.572    
    942000   0.97401        0.0023323615  -0.00034452028  20.605433      19.159028      1.4464049     -1.4337764      18634.683    
    943000   1.0351163      0.0023323615  -0.0019086057   20.827323      19.290176      1.5371476     -1.2993929      18566.449    
    944000   1.0984462      0.0023323615   0.0012290753   20.846276      19.215083      1.6311926     -1.3384922      18621.826    
    945000   0.99797419     0.0023323615   0.0052472448   20.852059      19.370067      1.4819917     -1.3387601      18553.273    
    946000   1.0105874      0.0023323615  -0.0010420434   20.908379      19.407657      1.5007223     -1.2625194      18703.003    
    947000   1.1061664      0.0023323615   0.0015977326   20.857925      19.215268      1.6426571     -1.3855286      18609.321    
    948000   0.85917515     0.0023323615  -0.0024928643   20.542512      19.266637      1.2758751     -1.2391706      18416.448    
    949000   1.0550926      0.0023323615  -0.0022550592   20.609496      19.042684      1.5668125     -1.4730123      18613.946    
    950000   0.99837355     0.0023323615   0.0013216872   20.466242      18.983658      1.4825847     -1.5209651      18519.341    
    951000   1.0183914      0.0023323615   0.0029100718   20.477814      18.965503      1.5123112     -1.5213884      18447.787    
    952000   1.0348985      0.0023323615   0.00025696425  20.672168      19.135344      1.5368243     -1.3325857      18449.154    
    953000   1.0163863      0.0023323615   0.0010000453   20.441961      18.932627      1.5093337     -1.6041561      18453.531    
    954000   0.99883551     0.0023323615  -0.00085140715  20.284556      18.801285      1.4832707     -1.7183139      18284.729    
    955000   1.0517532      0.0023323615   0.0019322026   20.44759       18.885737      1.5618535     -1.6700102      18275.525    
    956000   1.0691536      0.0023323615  -0.00072631835  19.967952      18.380259      1.5876931     -1.985873       18281.309    
    957000   1.0221287      0.0023323615   0.0044651449   20.419265      18.901404      1.517861      -1.6782605      18241.931    
    958000   0.96903702     0.0023323615   0.00017944626  20.349177      18.910157      1.43902       -1.6429033      18121.092    
    959000   0.99664858     0.0023323615   0.0030143925   20.471282      18.991259      1.4800231     -1.6245576      18342.84     
    960000   0.93112457     0.0023323615   0.0011884204   20.159832      18.777112      1.38272       -1.6912366      18348.893    
    961000   1.0081052      0.0023323615  -0.0031173296   20.546738      19.049701      1.4970362     -1.5688018      18255.36     
    962000   1.1384687      0.0023323615   0.0023163702   20.502486      18.81186       1.690626      -1.6736121      18259.491    
    963000   1.0743275      0.0023323615  -0.0011507672   20.500387      18.905011      1.5953764     -1.6645246      18246.103    
    964000   1.1117072      0.0023323615  -0.0020410492   20.792134      19.141249      1.6508852     -1.4473063      18222.931    
    965000   0.81847284     0.0023323615  -0.0025145497   20.058806      18.843374      1.2154322     -1.5657948      18481.542    
    966000   1.0868741      0.0023323615  -0.0023995664   20.498559      18.884551      1.6140081     -1.5067823      18538.786    
    967000   0.96117519     0.0023323615  -0.0018422809   20.32786       18.900515      1.4273452     -1.5513266      18500.894    
    968000   1.0645345      0.0023323615  -0.0015634798   20.694867      19.114033      1.5808337     -1.3600091      18507.518    
    969000   0.97408337     0.0023323615   0.0014955843   20.485026      19.038512      1.4465138     -1.4746312      18281.54     
    970000   0.961778       0.0023323615  -7.0707426e-05  20.55855       19.13031       1.4282403     -1.4013813      18307.618    
    971000   0.94260787     0.0023323615  -0.0023425128   20.243475      18.843703      1.3997727     -1.6642517      18227.503    
    972000   0.97660261     0.0023323615   0.00074183407  20.147769      18.697514      1.4502549     -1.7401957      17985.625    
    973000   1.0570299      0.0023323615   0.00097356279  20.341655      18.771966      1.5696894     -1.7503213      18017.894    
    974000   0.99996781     0.0023323615   0.0029241137   20.321794      18.836842      1.4849522     -1.6861142      18239.971    
    975000   1.0849972      0.0023323615   0.00060587565  20.459057      18.847836      1.6112209     -1.6300056      18238.054    
    976000   0.95326547     0.0023323615   0.0037479888   20.428399      19.0128        1.4155992     -1.4804849      18246.139    
    977000   1.015725       0.0023323615   0.0016166804   20.769369      19.261017      1.5083516     -1.3488275      18274.157    
    978000   1.063661       0.0023323615  -0.0025768509   20.796666      19.21713       1.5795365     -1.3328814      18432.841    
    979000   0.8612899      0.0023323615   0.0035288166   20.461349      19.182333      1.2790155     -1.4259484      18279.227    
    980000   0.90041271     0.0023323615  -0.00092775643  20.344425      19.007312      1.3371129     -1.4683079      18257.23     
    981000   1.0027283      0.0023323615   9.351296e-05   20.674819      19.185767      1.4890515     -1.5152035      18522.974    
    982000   1.1850712      0.0023323615  -0.00037262273  21.042924      19.283093      1.7598307     -1.2921409      18642.465    
    983000   1.0139935      0.0023323615   0.0002500296   20.948019      19.442239      1.5057804     -1.1821904      18560.186    
    984000   1.0662279      0.0023323615   0.00034204749  20.741748      19.1584        1.5833484     -1.2464705      18390.541    
    985000   0.83361084     0.0023323615  -0.0034257508   20.131418      18.893505      1.2379121     -1.4757009      18345.224    
    986000   1.0842617      0.0023323615  -0.003179993    20.718522      19.108393      1.6101286     -1.4955677      18298.996    
    987000   1.0079029      0.0023323615   0.0038006308   20.618334      19.121598      1.4967358     -1.3083299      18180.074    
    988000   0.94333188     0.0023323615   0.0027118806   20.469242      19.068394      1.4008478     -1.4511251      18306.554    
    989000   1.0359148      0.0023323615  -0.0010845083   20.636609      19.098275      1.5383335     -1.401252       18146.189    
    990000   1.0841892      0.0023323615   0.0026050916   20.661786      19.051766      1.6100209     -1.5339822      18330.333    
    991000   0.90022283     0.0023323615   0.0014030735   20.28841       18.951579      1.3368309     -1.5253175      18239.701    
    992000   0.96917203     0.0023323615   0.0045338485   20.535304      19.096084      1.4392205     -1.4744544      18288.28     
    993000   1.0254435      0.0023323615  -0.0046189831   20.422799      18.900016      1.5227836     -1.5563762      18271.126    
    994000   1.0799854      0.0023323615  -0.0029212164   20.734744      19.130965      1.6037783     -1.4964715      18292.808    
    995000   1.1266759      0.0023323615  -0.0012914039   20.638646      18.965532      1.6731137     -1.5615432      18506.801    
    996000   1.0124763      0.0023323615   6.7763238e-05  20.43708       18.933553      1.5035272     -1.5045948      18397.602    
    997000   1.0273179      0.0023323615   0.0027486983   20.371765      18.846197      1.5255671     -1.6620796      18403.772    
    998000   0.8740723      0.0023323615  -0.00024945393  20.296164      18.998166      1.2979974     -1.4612883      18451.955    
    999000   1.1308737      0.0023323615  -0.00049614785  20.579775      18.900428      1.6793475     -1.5835388      18164.517    
   1000000   0.97408152     0.0023323615  -0.00030242697  20.392652      18.946141      1.4465111     -1.6863489      18160.217    
Loop time of 54.6078 on 1 procs for 1000000 steps with 100 atoms

Performance: 7910950.899 tau/day, 18312.386 timesteps/s
99.1% CPU use with 1 MPI tasks x 1 OpenMP threads

MPI task timing breakdown:
Section |  min time  |  avg time  |  max time  |%varavg| %total
---------------------------------------------------------------
Pair    | 45.487     | 45.487     | 45.487     |   0.0 | 83.30
Bond    | 1.2572     | 1.2572     | 1.2572     |   0.0 |  2.30
Neigh   | 3.7915     | 3.7915     | 3.7915     |   0.0 |  6.94
Comm    | 1.369      | 1.369      | 1.369      |   0.0 |  2.51
Output  | 0.40083    | 0.40083    | 0.40083    |   0.0 |  0.73
Modify  | 1.9447     | 1.9447     | 1.9447     |   0.0 |  3.56
Other   |            | 0.3577     |            |       |  0.66

Nlocal:            100 ave         100 max         100 min
Histogram: 1 0 0 0 0 0 0 0 0 0
Nghost:            290 ave         290 max         290 min
Histogram: 1 0 0 0 0 0 0 0 0 0
Neighs:           4851 ave        4851 max        4851 min
Histogram: 1 0 0 0 0 0 0 0 0 0

Total # of neighbors = 4851
Ave neighs/atom = 48.51
Ave special neighs/atom = 1.98
Neighbor list builds = 97852
Dangerous builds = 79736

write_data      ${outputfile_assembled} nofix nocoeff
write_data      7_assembled.data nofix nocoeff
System init for write_data ...
Generated 0 of 6 mixed pair_coeff terms from geometric mixing rule

Total wall time: 0:00:55
