LAMMPS (23 Jun 2022 - Update 1)
OMP_NUM_THREADS environment is not set. Defaulting to 1 thread. (src/comm.cpp:98)
  using 1 OpenMP thread(s) per MPI task


variable        runtime equal 1000000
variable		subsample_rate equal 1000

variable		outputfile_created string '3_created.data'
variable		outputfile_relaxed string '5_relaxed.data'
variable		outputfile_selfasb string '6_a_self_assemble.lammpstrj'
variable		outputfile_trajlin string '6_b_trajlin.data'
variable		outputfile_assembled string '7_assembled.data'

units           lj
atom_style      full
dimension       3
boundary        p p p
timestep        0.005

read_data       ${outputfile_created}
read_data       3_created.data
Reading data file ...
  orthogonal box = (0 0 0) to (35 35 35)
  1 by 1 by 1 MPI processor grid
  reading atoms ...
  100 atoms
  reading velocities ...
  100 velocities
  scanning bonds ...
  1 = max bonds/atom
  reading bonds ...
  99 bonds
Finding 1-2 1-3 1-4 neighbors ...
  special bond factors lj:    0        0        0       
  special bond factors coul:  0        0        0       
     2 = max # of 1-2 neighbors
     2 = max # of 1-3 neighbors
     4 = max # of 1-4 neighbors
     6 = max # of special neighbors
  special bonds CPU = 0.000 seconds
  read_data CPU = 0.008 seconds

bond_style      fene
bond_coeff      * 30.0 1.5 1.0 1.0
special_bonds   fene
Finding 1-2 1-3 1-4 neighbors ...
  special bond factors lj:    0        1        1       
  special bond factors coul:  0        1        1       
     2 = max # of 1-2 neighbors
     6 = max # of special neighbors
  special bonds CPU = 0.000 seconds

variable        Temp equal 1.0
variable        velSeed equal 926458

velocity        all create ${Temp} ${velSeed}
velocity        all create 1 ${velSeed}
velocity        all create 1 926458

### Output
thermo_style    custom step temp density press etotal pe ke epair spcpu
thermo          1000

###########################################################################
# Soft relaxation (to remove overlaps of particles)
######################################################################

pair_style      soft 1.0
pair_coeff      * * 0.0
variable        prefactor equal ramp(0,300)
fix             rampSoft all adapt 1 pair soft a * * v_prefactor

minimize        0.0 1.0e-8 1000 100000
WARNING: Using 'neigh_modify every 1 delay 0 check yes' setting during minimization (src/min.cpp:187)
Generated 0 of 6 mixed pair_coeff terms from geometric mixing rule
Neighbor list info ...
  update every 1 steps, delay 0 steps, check yes
  max neighbors/atom: 2000, page size: 100000
  master list distance cutoff = 1.3
  ghost atom cutoff = 1.3
  binsize = 0.65, bins = 54 54 54
  1 neighbor lists, perpetual/occasional/extra = 1 0 0
  (1) pair soft, perpetual
      attributes: half, newton on
      pair build: half/bin/newton
      stencil: half/bin/3d
      bin: standard
WARNING: Communication cutoff 1.3 is shorter than a bond length based estimate of 1.7550000000000001. This may lead to errors. (src/comm.cpp:727)
Per MPI rank memory allocation (min/avg/max) = 8.346 | 8.346 | 8.346 Mbytes
   Step          Temp         Density         Press          TotEng         PotEng         KinEng         E_pair         S/CPU     
         0   1              0.0023323615  -0.0039617958   21.524174      20.039174      1.485          0              0            
       362   1              0.0023323615   0.0023090379   21.485548      20.000548      1.485          0              60975.795    
Loop time of 0.00595118 on 1 procs for 362 steps with 100 atoms

85.2% CPU use with 1 MPI tasks x 1 OpenMP threads

Minimization stats:
  Stopping criterion = force tolerance
  Energy initial, next-to-last, final = 
      20.0391741078675   20.0005480767337   20.0005480767337
  Force two-norm initial, final = 11.878422 7.9509778e-09
  Force max component initial, final = 6.6117807 1.3572772e-09
  Final line search alpha, max atom move = 1 1.3572772e-09
  Iterations, force evaluations = 362 738

MPI task timing breakdown:
Section |  min time  |  avg time  |  max time  |%varavg| %total
---------------------------------------------------------------
Pair    | 0.00026109 | 0.00026109 | 0.00026109 |   0.0 |  4.39
Bond    | 0.0028447  | 0.0028447  | 0.0028447  |   0.0 | 47.80
Neigh   | 0.0015412  | 0.0015412  | 0.0015412  |   0.0 | 25.90
Comm    | 0.00027401 | 0.00027401 | 0.00027401 |   0.0 |  4.60
Output  | 0          | 0          | 0          |   0.0 |  0.00
Modify  | 0          | 0          | 0          |   0.0 |  0.00
Other   |            | 0.00103    |            |       | 17.31

Nlocal:            100 ave         100 max         100 min
Histogram: 1 0 0 0 0 0 0 0 0 0
Nghost:             20 ave          20 max          20 min
Histogram: 1 0 0 0 0 0 0 0 0 0
Neighs:              0 ave           0 max           0 min
Histogram: 1 0 0 0 0 0 0 0 0 0

Total # of neighbors = 0
Ave neighs/atom = 0
Ave special neighs/atom = 1.98
Neighbor list builds = 17
Dangerous builds = 0

fix             nvtSoft all nvt temp ${Temp} ${Temp} 0.5
fix             nvtSoft all nvt temp 1 ${Temp} 0.5
fix             nvtSoft all nvt temp 1 1 0.5
run             100000
Generated 0 of 6 mixed pair_coeff terms from geometric mixing rule
WARNING: Communication cutoff 1.3 is shorter than a bond length based estimate of 1.7550000000000001. This may lead to errors. (src/comm.cpp:727)
Per MPI rank memory allocation (min/avg/max) = 7.221 | 7.221 | 7.221 Mbytes
   Step          Temp         Density         Press          TotEng         PotEng         KinEng         E_pair         S/CPU     
       362   1              0.0023323615   0.0023090379   21.485548      20.000548      1.485          0              0            
      1000   0.90989032     0.0023323615  -0.0021940042   21.776974      20.425787      1.3511871      0.00036425437  66311.088    
      2000   0.86546688     0.0023323615   0.0034714157   21.677128      20.39191       1.2852183      0.0025814786   65338.953    
      3000   0.98199538     0.0023323615   0.0028144228   21.866132      20.407869      1.4582631      0.0011756043   61879.385    
      4000   1.004495       0.0023323615  -0.0014058211   21.945624      20.453949      1.4916751      0.011986179    62784.476    
      5000   1.1222705      0.0023323615   0.0044495116   21.986385      20.319813      1.6665718      0.0050317639   62999.622    
      6000   1.0538243      0.0023323615   0.0023957538   21.985713      20.420784      1.564929       0.012100514    64860.109    
      7000   1.0210598      0.0023323615  -0.00038820026  21.904665      20.388391      1.5162738      0              68717.169    
      8000   0.94819751     0.0023323615   0.0024943091   21.747889      20.339816      1.4080733      0              65416.775    
      9000   0.92364502     0.0023323615   0.0020053029   21.724166      20.352554      1.3716129      1.7780894e-05  66693.78     
     10000   0.86685188     0.0023323615   0.00078277366  21.644879      20.357604      1.287275       0.0098636418   66902.95     
     11000   1.0057103      0.0023323615   0.00010113276  21.8558        20.362321      1.4934798      0.020705341    64089.643    
     12000   0.97901664     0.0023323615  -0.0026996968   21.871206      20.417366      1.4538397      0.0052928539   63684.082    
     13000   0.97718436     0.0023323615  -6.1641422e-06  21.963706      20.512587      1.4511188      0.025022446    64172.426    
     14000   1.0530014      0.0023323615  -0.0009993112   21.947994      20.384287      1.5637071      0.0020860456   62875.56     
     15000   0.99094527     0.0023323615   0.0011068478   21.895146      20.423592      1.4715537      0.0015091113   63969.831    
     16000   0.91285091     0.0023323615  -0.00025424173  21.87524       20.519657      1.3555836      0.0047853639   63675.347    
     17000   0.82806978     0.0023323615  -0.00054698156  21.701984      20.472301      1.2296836      0              62735.899    
     18000   1.043278       0.0023323615  -6.6143919e-05  22.003299      20.454031      1.5492679      0.0034319132   64281.283    
     19000   1.0879249      0.0023323615  -0.0017804642   21.998985      20.383416      1.6155685      0.015376175    62679.958    
     20000   1.1144506      0.0023323615   0.0025198298   22.190904      20.535944      1.6549592      0              63972.736    
     21000   1.0427751      0.0023323615   0.0011345349   22.099492      20.550971      1.548521       0.00040047813  64449.43     
     22000   1.0586695      0.0023323615   0.0017882747   22.05673       20.484606      1.5721242      0              64093.632    
     23000   1.0058426      0.0023323615  -0.0055245362   21.954628      20.460951      1.4936763      0.0027619031   63070.719    
     24000   0.98273442     0.0023323615   0.0015147357   21.862067      20.402707      1.4593606      0              63202.835    
     25000   0.95835343     0.0023323615   0.0017808774   21.937761      20.514606      1.4231548      0.00020839942  63317.139    
     26000   0.93993778     0.0023323615  -0.0021777292   21.884849      20.489042      1.3958076      0.0088889834   64235.647    
     27000   0.9308188      0.0023323615  -0.00011239942  21.842252      20.459986      1.3822659      0.021612409    62840.809    
     28000   1.0149581      0.0023323615   0.0041996387   21.906846      20.399633      1.5072129      0.0064059022   63532.922    
     29000   0.92841138     0.0023323615  -2.5398808e-05  21.987185      20.608494      1.3786909      0.0046112484   63741.79     
     30000   1.021043       0.0023323615   0.001589158    22.097958      20.581709      1.5162489      0.016799508    63760.887    
     31000   1.0465985      0.0023323615  -0.0021744286   22.037917      20.483718      1.5541987      0.0057879149   63987.911    
     32000   0.98907108     0.0023323615  -0.0015558606   22.044089      20.575318      1.4687705      0.009448173    62477.352    
     33000   1.0918536      0.0023323615  -0.0025643847   22.039275      20.417873      1.6214025      0              62705.042    
     34000   0.99801543     0.0023323615   0.0016279766   21.932339      20.450286      1.4820529      0.017384617    64685.078    
     35000   1.0352271      0.0023323615  -0.0052971711   22.076004      20.538692      1.5373122      0.00010473809  64095.53     
     36000   1.1141579      0.0023323615  -0.00093279925  22.222491      20.567966      1.6545245      0.00033678641  64762.309    
     37000   1.0369415      0.0023323615   0.00013065175  22.217841      20.677983      1.5398581      0.013788831    63865.941    
     38000   1.0515596      0.0023323615   0.0021717558   22.070766      20.5092        1.561566       0.0067894678   64008.021    
     39000   1.0238495      0.0023323615   0.00026414509  22.040141      20.519725      1.5204165      0.00044464649  63307.255    
     40000   1.0749111      0.0023323615  -0.0026849368   22.039327      20.443084      1.596243       0.012651334    61784.356    
     41000   0.99070886     0.0023323615  -0.0030385564   22.03241       20.561207      1.4712027      0.00092855646  64251.698    
     42000   0.95315224     0.0023323615   0.0019788197   21.965263      20.549832      1.4154311      0.020233689    63359.058    
     43000   1.0644183      0.0023323615  -0.0011168725   22.287172      20.706511      1.5806611      0.039694129    63550.603    
     44000   1.0253747      0.0023323615  -0.006676522    22.066233      20.543552      1.5226814      0              56949.239    
     45000   0.94179556     0.0023323615  -0.0047206018   21.970644      20.572077      1.3985664      0.019869988    57016.84     
     46000   1.0083495      0.0023323615  -0.0017646918   21.972114      20.474715      1.497399       0.00026040605  63094.998    
     47000   0.98767959     0.0023323615  -0.00080218158  22.091674      20.62497       1.4667042      0.024266258    62576.57     
     48000   1.1473449      0.0023323615  -0.0025885687   22.080512      20.376705      1.7038072      0.00065962995  62902.466    
     49000   1.0679312      0.0023323615   0.0017688272   21.970482      20.384604      1.5858779      0.014142422    64366.264    
     50000   0.9581935      0.0023323615   0.0014398836   21.955202      20.532284      1.4229173      0.0055011948   64299.088    
     51000   1.0215759      0.0023323615  -0.00093292688  21.934681      20.41764       1.5170402      0              64027.279    
     52000   0.98079591     0.0023323615   0.0040701936   21.977374      20.520892      1.4564819      0.0020862422   64715.314    
     53000   1.0090927      0.0023323615   0.0013324753   22.095438      20.596935      1.4985027      0              63885.117    
     54000   0.97519627     0.0023323615   0.0013260734   22.070151      20.621984      1.4481665      0.026885444    64731.937    
     55000   1.1805087      0.0023323615  -0.001586238    22.424088      20.671033      1.7530554      0.024690954    64622.602    
     56000   0.98387121     0.0023323615   0.0037155145   22.104425      20.643376      1.4610487      0.01435493     64134.611    
     57000   1.0723812      0.0023323615  -0.0037916262   22.122726      20.53024       1.592486       0.013635549    64448.471    
     58000   1.0152349      0.0023323615   0.00021908047  22.082827      20.575203      1.5076238      0.00077375639  63985.205    
     59000   1.1424502      0.0023323615  -0.0052108657   22.30072       20.604182      1.6965385      0.013308184    65150.281    
     60000   1.0359703      0.0023323615  -0.00097887545  22.188218      20.649802      1.538416       0.00011346294  63086.03     
     61000   1.1646839      0.0023323615  -0.002085017    22.239945      20.51039       1.7295556      0.012918477    65449.665    
     62000   1.101836       0.0023323615   0.0010338878   22.171386      20.53516       1.6362265      0.001396566    64605.243    
     63000   0.96616435     0.0023323615   0.00097550571  21.903821      20.469067      1.4347541      0.013027663    65540.214    
     64000   1.0068907      0.0023323615  -0.0020278726   22.061652      20.566419      1.4952327      0.013750276    63926.765    
     65000   0.98723233     0.0023323615   0.0022441476   22.031073      20.565033      1.46604        0.0066686189   64498.203    
     66000   1.0273881      0.0023323615  -0.0003515278   22.183579      20.657908      1.5256713      0              62879.521    
     67000   0.96528212     0.0023323615  -0.00014822656  21.9396        20.506156      1.4334439      0.010365557    64177.252    
     68000   1.069702       0.0023323615   9.4754668e-05  22.081119      20.492611      1.5885075      0.00049153926  62465.23     
     69000   1.1229502      0.0023323615   0.0011504079   22.200329      20.532748      1.6675811      0.0068454249   53676.416    
     70000   1.0062775      0.0023323615  -0.00085311964  22.094021      20.599699      1.4943221      0.013222355    61931.83     
     71000   1.0906935      0.0023323615   0.00015260357  22.145362      20.525682      1.6196798      0.018338513    63202.152    
     72000   1.010401       0.0023323615  -6.0487182e-06  22.154105      20.653659      1.5004455      0.0013793953   63084.712    
     73000   1.1177599      0.0023323615  -0.0034084797   22.254435      20.594562      1.6598735      0.00011231735  65554.551    
     74000   0.9768019      0.0023323615   0.00016143893  22.07312       20.622569      1.4505508      0.0084515956   63781.217    
     75000   1.1360996      0.0023323615   0.002159116    22.161595      20.474487      1.6871079      0.0089909162   64284.518    
     76000   0.97379329     0.0023323615  -0.00068458621  21.988928      20.542845      1.446083       0              63323.807    
     77000   0.94876793     0.0023323615  -0.0016073976   21.923496      20.514575      1.4089204      0.017745108    61334.224    
     78000   0.83947996     0.0023323615  -0.00062768559  21.726727      20.480099      1.2466277      0.0054510099   63115.745    
     79000   1.0090614      0.0023323615  -0.00080262643  22.068192      20.569736      1.4984562      0.00023011166  64841.991    
     80000   1.1217643      0.0023323615  -0.0038177864   22.367902      20.702082      1.66582        0.032902439    63339.839    
     81000   1.0240158      0.0023323615   0.00023547123  22.031597      20.510933      1.5206635      0.0068767308   62936.575    
     82000   1.003236       0.0023323615  -0.0022802982   21.894199      20.404393      1.4898055      0.019136282    61531.983    
     83000   1.0554159      0.0023323615   0.004011718    22.104562      20.537269      1.5672927      0.0080869707   61755.834    
     84000   0.83527346     0.0023323615  -0.0034122221   21.874648      20.634267      1.2403811      0.0030083664   62245.796    
     85000   1.036002       0.0023323615   0.0013573923   21.962923      20.42446       1.5384629      0.015709144    63697.935    
     86000   0.9432002      0.0023323615  -0.0032183248   21.913588      20.512936      1.4006523      0.013730309    63857.16     
     87000   0.95566008     0.0023323615  -0.00049614223  21.91653       20.497375      1.4191552      0.0035862035   63402.447    
     88000   0.93373351     0.0023323615  -0.00097093893  21.870485      20.483891      1.3865943      0.0018212145   63086.304    
     89000   0.9684944      0.0023323615  -0.00047342045  21.973429      20.535215      1.4382142      0.00087524744  63216.004    
     90000   0.98293324     0.0023323615  -0.0032204602   22.050919      20.591263      1.4596559      0.015353933    64661.275    
     91000   1.0832827      0.0023323615   0.0048517083   22.11977       20.511095      1.6086749      0.0052867789   65671.14     
     92000   0.85899662     0.0023323615  -0.0013049519   21.765697      20.490087      1.27561        0.0024124001   64580.618    
     93000   0.96176266     0.0023323615  -4.4223672e-05  21.874222      20.446004      1.4282176      0.0045653365   65003.428    
     94000   0.96019503     0.0023323615   0.00024459347  21.944954      20.519064      1.4258896      3.8053462e-05  64625.78     
     95000   0.94702149     0.0023323615  -0.0033658915   21.86315       20.456823      1.4063269      0              65383.259    
     96000   0.91119348     0.0023323615  -0.0013197298   21.825018      20.471896      1.3531223      0.00043282989  64219.324    
     97000   1.0016687      0.0023323615  -0.0019514304   22.013024      20.525546      1.487478       0.0048369955   63190.47     
     98000   1.02143        0.0023323615  -0.0057874974   22.177965      20.661142      1.5168235      0              63046.578    
     99000   1.032786       0.0023323615   0.0018228259   21.975336      20.441649      1.5336871      7.1595851e-05  65392.122    
    100000   1.0594928      0.0023323615   0.0036169719   22.011024      20.437677      1.5733468      0.00032948157  63725.225    
    100362   1.1904942      0.0023323615  -0.00089755607  22.316856      20.548972      1.7678839      0.00063845255  62329.755    
Loop time of 1.57275 on 1 procs for 100000 steps with 100 atoms

Performance: 27467881.682 tau/day, 63583.059 timesteps/s
100.0% CPU use with 1 MPI tasks x 1 OpenMP threads

MPI task timing breakdown:
Section |  min time  |  avg time  |  max time  |%varavg| %total
---------------------------------------------------------------
Pair    | 0.05824    | 0.05824    | 0.05824    |   0.0 |  3.70
Bond    | 0.14591    | 0.14591    | 0.14591    |   0.0 |  9.28
Neigh   | 0.89976    | 0.89976    | 0.89976    |   0.0 | 57.21
Comm    | 0.078726   | 0.078726   | 0.078726   |   0.0 |  5.01
Output  | 0.0022862  | 0.0022862  | 0.0022862  |   0.0 |  0.15
Modify  | 0.35118    | 0.35118    | 0.35118    |   0.0 | 22.33
Other   |            | 0.03664    |            |       |  2.33

Nlocal:            100 ave         100 max         100 min
Histogram: 1 0 0 0 0 0 0 0 0 0
Nghost:             60 ave          60 max          60 min
Histogram: 1 0 0 0 0 0 0 0 0 0
Neighs:             36 ave          36 max          36 min
Histogram: 1 0 0 0 0 0 0 0 0 0

Total # of neighbors = 36
Ave neighs/atom = 0.36
Ave special neighs/atom = 1.98
Neighbor list builds = 9821
Dangerous builds = 8265
unfix           nvtSoft
unfix           rampSoft
reset_timestep  0

write_data      ${outputfile_relaxed}
write_data      5_relaxed.data
System init for write_data ...
Generated 0 of 6 mixed pair_coeff terms from geometric mixing rule
WARNING: Communication cutoff 1.3 is shorter than a bond length based estimate of 1.7550000000000001. This may lead to errors. (src/comm.cpp:727)
WARNING: Not all mixed pair coeffs generated from mixing. Use write_data with 'pair ij' option to store all pair coeffs. (src/write_data.cpp:309)

###########################################################################
# Full LJ with Coulomb
######################################################################

# Cutoffs and parameters:
# - Values: Marcel Verkade's Bachelor Thesis
# - Mapping to atom groups: Patrick Onck's paper
# - 1: aliphatic, 2: aromatic, 3: anion, 4: cation
# pair_style	lj/cut/coul/cut <lj_cut_global> <coul_cut_global>
# pair_coeff	<type_1>  <type_2>  <eps>  <sigma>  <r_cut_lj>  <r_cut_coul>

# Problem: Onck's model is much more complex, and Marcel has no sigma reported
# Using sigma=1 randomly

variable		glob_ljeps equal 1.0
variable		glob_ljsig 	equal 1.0
variable		glob_coulcut equal 10.0
variable		att_ljcut equal 2.50
variable		rep_ljcut equal 1.12

pair_style		lj/cut/coul/cut 						${att_ljcut} 	${glob_coulcut}
pair_style		lj/cut/coul/cut 						2.5 	${glob_coulcut}
pair_style		lj/cut/coul/cut 						2.5 	10
pair_coeff		1 1 	${glob_ljeps} 	${glob_ljsig}	${att_ljcut} 	${glob_coulcut}
pair_coeff		1 1 	1 	${glob_ljsig}	${att_ljcut} 	${glob_coulcut}
pair_coeff		1 1 	1 	1	${att_ljcut} 	${glob_coulcut}
pair_coeff		1 1 	1 	1	2.5 	${glob_coulcut}
pair_coeff		1 1 	1 	1	2.5 	10
pair_coeff		1 2 	${glob_ljeps} 	${glob_ljsig}	${att_ljcut} 	${glob_coulcut}
pair_coeff		1 2 	1 	${glob_ljsig}	${att_ljcut} 	${glob_coulcut}
pair_coeff		1 2 	1 	1	${att_ljcut} 	${glob_coulcut}
pair_coeff		1 2 	1 	1	2.5 	${glob_coulcut}
pair_coeff		1 2 	1 	1	2.5 	10
pair_coeff		1 3 	${glob_ljeps} 	${glob_ljsig}	${rep_ljcut} 	${glob_coulcut}
pair_coeff		1 3 	1 	${glob_ljsig}	${rep_ljcut} 	${glob_coulcut}
pair_coeff		1 3 	1 	1	${rep_ljcut} 	${glob_coulcut}
pair_coeff		1 3 	1 	1	1.12 	${glob_coulcut}
pair_coeff		1 3 	1 	1	1.12 	10
pair_coeff		1 4 	${glob_ljeps} 	${glob_ljsig}	${rep_ljcut} 	${glob_coulcut}
pair_coeff		1 4 	1 	${glob_ljsig}	${rep_ljcut} 	${glob_coulcut}
pair_coeff		1 4 	1 	1	${rep_ljcut} 	${glob_coulcut}
pair_coeff		1 4 	1 	1	1.12 	${glob_coulcut}
pair_coeff		1 4 	1 	1	1.12 	10
pair_coeff		2 2 	${glob_ljeps} 	${glob_ljsig}	${att_ljcut} 	${glob_coulcut}
pair_coeff		2 2 	1 	${glob_ljsig}	${att_ljcut} 	${glob_coulcut}
pair_coeff		2 2 	1 	1	${att_ljcut} 	${glob_coulcut}
pair_coeff		2 2 	1 	1	2.5 	${glob_coulcut}
pair_coeff		2 2 	1 	1	2.5 	10
pair_coeff		2 3 	${glob_ljeps} 	${glob_ljsig}	${rep_ljcut} 	${glob_coulcut}
pair_coeff		2 3 	1 	${glob_ljsig}	${rep_ljcut} 	${glob_coulcut}
pair_coeff		2 3 	1 	1	${rep_ljcut} 	${glob_coulcut}
pair_coeff		2 3 	1 	1	1.12 	${glob_coulcut}
pair_coeff		2 3 	1 	1	1.12 	10
pair_coeff		2 4 	${glob_ljeps} 	${glob_ljsig}	${att_ljcut} 	${glob_coulcut}
pair_coeff		2 4 	1 	${glob_ljsig}	${att_ljcut} 	${glob_coulcut}
pair_coeff		2 4 	1 	1	${att_ljcut} 	${glob_coulcut}
pair_coeff		2 4 	1 	1	2.5 	${glob_coulcut}
pair_coeff		2 4 	1 	1	2.5 	10
pair_coeff		3 3 	${glob_ljeps} 	${glob_ljsig}	${rep_ljcut} 	${glob_coulcut}
pair_coeff		3 3 	1 	${glob_ljsig}	${rep_ljcut} 	${glob_coulcut}
pair_coeff		3 3 	1 	1	${rep_ljcut} 	${glob_coulcut}
pair_coeff		3 3 	1 	1	1.12 	${glob_coulcut}
pair_coeff		3 3 	1 	1	1.12 	10
pair_coeff		3 4 	${glob_ljeps} 	${glob_ljsig}	${att_ljcut} 	${glob_coulcut}
pair_coeff		3 4 	1 	${glob_ljsig}	${att_ljcut} 	${glob_coulcut}
pair_coeff		3 4 	1 	1	${att_ljcut} 	${glob_coulcut}
pair_coeff		3 4 	1 	1	2.5 	${glob_coulcut}
pair_coeff		3 4 	1 	1	2.5 	10
pair_coeff		4 4 	${glob_ljeps} 	${glob_ljsig}	${rep_ljcut} 	${glob_coulcut}
pair_coeff		4 4 	1 	${glob_ljsig}	${rep_ljcut} 	${glob_coulcut}
pair_coeff		4 4 	1 	1	${rep_ljcut} 	${glob_coulcut}
pair_coeff		4 4 	1 	1	1.12 	${glob_coulcut}
pair_coeff		4 4 	1 	1	1.12 	10


fix             noDrift 	all momentum 10 linear 1 1 1
fix             nvt1 		all nvt temp ${Temp} ${Temp} 0.5
fix             nvt1 		all nvt temp 1 ${Temp} 0.5
fix             nvt1 		all nvt temp 1 1 0.5

# dump          assemble 	all custom 1000 				${outputfile_selfasb} id type xu yu zu vx vy vz
dump            lindump 	all custom ${subsample_rate} 	${outputfile_trajlin} id type xu yu zu vx vy vz
dump            lindump 	all custom 1000 	${outputfile_trajlin} id type xu yu zu vx vy vz
dump            lindump 	all custom 1000 	6_b_trajlin.data id type xu yu zu vx vy vz

run             ${runtime}
run             1000000
Generated 0 of 6 mixed pair_coeff terms from geometric mixing rule
Neighbor list info ...
  update every 1 steps, delay 10 steps, check yes
  max neighbors/atom: 2000, page size: 100000
  master list distance cutoff = 10.3
  ghost atom cutoff = 10.3
  binsize = 5.15, bins = 7 7 7
  1 neighbor lists, perpetual/occasional/extra = 1 0 0
  (1) pair lj/cut/coul/cut, perpetual
      attributes: half, newton on
      pair build: half/bin/newton
      stencil: half/bin/3d
      bin: standard
Per MPI rank memory allocation (min/avg/max) = 7.712 | 7.712 | 7.712 Mbytes
   Step          Temp         Density         Press          TotEng         PotEng         KinEng         E_pair         S/CPU     
         0   1.1904942      0.0023323615  -0.0015237583   21.905769      20.137885      1.7678839     -0.41044927     0            
      1000   1.0305758      0.0023323615  -0.0021989641   21.264452      19.734047      1.5304051     -0.7829108      24821.796    
      2000   0.99993408     0.0023323615  -0.0014853031   21.073307      19.588405      1.4849021     -0.87950783     22234.98     
      3000   1.0081938      0.0023323615   8.0697651e-05  20.640954      19.143786      1.4971678     -1.248511       19696.365    
      4000   0.87566787     0.0023323615  -0.0019992941   20.743996      19.443629      1.3003668     -1.016927       15866.268    
      5000   0.82409085     0.0023323615  -0.0015165574   20.162941      18.939166      1.2237749     -1.4186911      13879.268    
      6000   0.90435326     0.0023323615  -0.0023834916   20.273981      18.931017      1.3429646     -1.5774193      14010.488    
      7000   1.0106816      0.0023323615   0.0031561617   20.739919      19.239056      1.5008622     -1.2492475      15939.181    
      8000   1.1593046      0.0023323615   0.0016781797   20.763763      19.042195      1.7215673     -1.3993779      18505.564    
      9000   1.0868266      0.0023323615  -0.0023491785   20.995426      19.381488      1.6139375     -1.0581357      19469.378    
     10000   0.93177827     0.0023323615  -0.0032495427   20.699204      19.315514      1.3836907     -1.2615503      19821.559    
     11000   1.0196846      0.0023323615   0.00053746582  21.122437      19.608205      1.5142317     -1.0387592      19010.754    
     12000   1.0736764      0.0023323615   0.00035831369  21.007785      19.413376      1.5944095     -1.072678       18058.664    
     13000   0.86883018     0.0023323615   0.0020858642   20.373758      19.083545      1.2902128     -1.4160823      16947.746    
     14000   1.0158628      0.0023323615  -0.0014912149   20.493526      18.98497       1.5085563     -1.423038       16533.641    
     15000   0.98176659     0.0023323615  -0.0014921924   20.691251      19.233328      1.4579234     -1.2348637      17485.119    
     16000   0.99629925     0.0023323615   0.00052108529  20.81739       19.337885      1.4795044     -1.1579468      18369.155    
     17000   1.0513054      0.0023323615  -0.0036616614   20.822878      19.261689      1.5611885     -1.3473674      18878.83     
     18000   1.1270303      0.0023323615   0.0009279734   20.855762      19.182122      1.67364       -1.3583156      19774.177    
     19000   1.0445194      0.0023323615  -0.00035121851  21.132665      19.581554      1.5511113     -1.092584       19892.144    
     20000   0.99665343     0.0023323615   0.003076617    20.940047      19.460017      1.4800303     -1.0723189      18917.681    
     21000   0.83292752     0.0023323615  -0.0036983462   20.427544      19.190646      1.2368974     -1.2306524      18340.024    
     22000   1.0705744      0.0023323615  -0.00045436567  20.889816      19.300013      1.5898029     -1.1049922      18912.773    
     23000   0.9804691      0.0023323615   0.0011045087   20.795851      19.339855      1.4559966     -1.1013071      19688.587    
     24000   1.1724951      0.0023323615  -0.0028476889   21.303893      19.562738      1.7411552     -1.0132478      20225.233    
     25000   1.0984078      0.0023323615  -0.003903117    20.832813      19.201677      1.6311356     -1.2545422      19607.45     
     26000   1.0380981      0.0023323615  -0.0057192465   21.205573      19.663998      1.5415757     -0.94662408     20216.512    
     27000   0.93374907     0.0023323615   0.0021652028   20.567069      19.180451      1.3866174     -1.3225683      19511.246    
     28000   0.96016253     0.0023323615   0.0008388834   20.657761      19.23192       1.4258414     -1.1869913      18369.527    
     29000   1.2017616      0.0023323615  -0.001108316    21.068991      19.284375      1.784616      -1.2763307      17647.574    
     30000   0.97573705     0.0023323615  -0.0041324978   20.950497      19.501527      1.4489695     -1.0913621      18239.765    
     31000   1.1842124      0.0023323615  -0.0022033934   21.222793      19.464238      1.7585554     -1.0011914      19664.572    
     32000   0.98824824     0.0023323615  -0.0040452675   20.984247      19.516699      1.4675486     -1.0397784      21375.939    
     33000   1.1405915      0.0023323615  -0.0010829433   20.843835      19.150057      1.6937783     -1.3030639      22096.562    
     34000   0.89933086     0.0023323615   0.00093416757  20.91782       19.582313      1.3355063     -0.99521892     22499.903    
     35000   0.99732632     0.0023323615   0.00067190071  20.889542      19.408513      1.4810296     -1.1556818      21307.326    
     36000   0.96964964     0.0023323615  -0.0035687024   20.942811      19.502882      1.4399297     -1.0724177      20748.175    
     37000   1.137473       0.0023323615   0.0031487464   20.894478      19.205331      1.6891474     -1.29074        19049.951    
     38000   1.2107656      0.0023323615  -0.00062880859  20.969013      19.171026      1.797987      -1.3371583      17193.992    
     39000   0.92033187     0.0023323615   0.0027803341   20.392223      19.025531      1.3666928     -1.3760499      15915.648    
     40000   0.9221391      0.0023323615   0.00035577915  20.822547      19.453171      1.3693766     -1.2130329      16079.947    
     41000   1.0075523      0.0023323615   7.3796687e-05  20.693271      19.197056      1.4962152     -1.2153218      16772.684    
     42000   0.90004695     0.0023323615  -0.0017283759   20.458648      19.122078      1.3365697     -1.330634       18221.793    
     43000   0.96262179     0.0023323615   0.0022101264   20.802882      19.373389      1.4294934     -1.0636205      18669.15     
     44000   1.0333265      0.0023323615  -0.001270723    20.511731      18.977241      1.5344898     -1.4072831      18036.142    
     45000   1.0214018      0.0023323615   0.0033844073   20.630065      19.113284      1.5167817     -1.3543915      16962.3      
     46000   0.92135707     0.0023323615  -0.0023383408   20.646375      19.27816       1.3682153     -1.3222284      16799.112    
     47000   1.0276536      0.0023323615   0.0015618293   20.46392       18.937855      1.5260656     -1.481685       17164.829    
     48000   1.054416       0.0023323615  -0.0039471269   20.654682      19.088874      1.5658077     -1.3352381      17310.912    
     49000   0.93598027     0.0023323615  -0.0017659173   20.671424      19.281493      1.3899307     -1.1993182      17646.984    
     50000   1.0223893      0.0023323615  -0.00012894271  20.734628      19.21638       1.5182481     -1.235199       18763.896    
     51000   0.98115301     0.0023323615   0.0009294717   20.587464      19.130452      1.4570122     -1.3239723      19592.429    
     52000   0.98483416     0.0023323615   0.0019050458   20.545507      19.083029      1.4624787     -1.4557269      19681.668    
     53000   1.0073023      0.0023323615  -0.0024840592   20.727242      19.231398      1.4958439     -1.2703276      18115.514    
     54000   1.0289648      0.0023323615   0.0031772068   20.375366      18.847354      1.5280127     -1.5379183      16735.419    
     55000   0.84032271     0.0023323615   0.0001155699   20.336321      19.088442      1.2478792     -1.4274988      16504.568    
     56000   0.88306965     0.0023323615   0.0029072579   20.615019      19.303661      1.3113584     -1.2976068      16877.445    
     57000   0.96114964     0.0023323615   0.0014321272   20.673144      19.245837      1.4273072     -1.3437123      18237.988    
     58000   0.89926956     0.0023323615  -0.0035178445   20.48278       19.147365      1.3354153     -1.3709065      18528.233    
     59000   1.0480861      0.0023323615  -0.001987314    20.946978      19.39057       1.5564079     -1.276493       19457.134    
     60000   1.1024447      0.0023323615  -0.0010670684   20.8529        19.215769      1.6371304     -1.3037212      18958.169    
     61000   0.98209281     0.0023323615  -0.0021057193   20.372545      18.914137      1.4584078     -1.4670168      17572.182    
     62000   0.98876066     0.0023323615   2.3284139e-05  20.536695      19.068385      1.4683096     -1.4265589      15892.286    
     63000   0.95280575     0.0023323615  -0.0052326291   20.608749      19.193832      1.4149165     -1.4490798      15331.91     
     64000   1.068179       0.0023323615  -0.0014167862   20.867916      19.28167       1.5862457     -1.2515906      15881.671    
     65000   1.0075628      0.0023323615  -0.0020780476   20.608388      19.112157      1.4962307     -1.4797429      17050.488    
     66000   1.0673928      0.0023323615  -0.00032692196  20.784443      19.199365      1.5850783     -1.2849981      17841.756    
     67000   0.92905473     0.0023323615  -0.00084342212  20.301047      18.921401      1.3796463     -1.5235361      18622.635    
     68000   0.94369269     0.0023323615  -0.001153673    20.460789      19.059405      1.4013836     -1.3689485      17368.532    
     69000   1.0452397      0.0023323615   0.00066948034  20.906763      19.354582      1.552181      -1.2437022      16664.304    
     70000   0.89428056     0.0023323615   0.0016241623   20.58182       19.253813      1.3280066     -1.3276934      17142.377    
     71000   0.92531747     0.0023323615  -0.0016166513   20.468433      19.094336      1.3740964     -1.4138715      17326.162    
     72000   0.9453983      0.0023323615   0.0035441015   20.548337      19.14442       1.4039165     -1.2991413      16809.68     
     73000   0.95498472     0.0023323615   0.0063452469   20.561605      19.143453      1.4181523     -1.3345933      18207.909    
     74000   0.94259488     0.0023323615  -0.0044426718   20.804411      19.404657      1.3997534     -1.1414552      18849.697    
     75000   0.96731198     0.0023323615   0.00078345401  20.698805      19.262347      1.4364583     -1.2652133      19044.358    
     76000   0.99112014     0.0023323615  -5.9106041e-05  20.827258      19.355445      1.4718134     -1.3252924      18972.598    
     77000   1.083302       0.0023323615   0.0011116432   20.611042      19.002339      1.6087035     -1.473042       17345.812    
     78000   0.86795696     0.0023323615   0.0017627717   20.341827      19.052911      1.2889161     -1.3684393      15975.604    
     79000   0.96495081     0.0023323615  -0.0025692999   20.562416      19.129465      1.4329519     -1.2803129      16792.496    
     80000   0.96671266     0.0023323615   7.6087552e-05  20.713313      19.277744      1.4355683     -1.2941912      18472.23     
     81000   0.83732959     0.0023323615   0.0012260811   20.565388      19.321954      1.2434344     -1.1872883      18535.417    
     82000   1.055911       0.0023323615  -0.0027336847   20.791486      19.223458      1.5680278     -1.3046804      17513.179    
     83000   1.0505108      0.0023323615   0.0029146637   20.87153       19.311521      1.5600086     -1.2640084      16859.174    
     84000   1.0544053      0.0023323615  -0.00072904759  20.767688      19.201896      1.5657919     -1.2184665      16844.249    
     85000   1.029851       0.0023323615  -0.00069253243  20.658953      19.129625      1.5293288     -1.3154186      16348.695    
     86000   0.90014182     0.0023323615  -0.00065189137  20.513267      19.176556      1.3367106     -1.1817144      16162.048    
     87000   1.0865506      0.0023323615   0.001177057    20.856862      19.243334      1.6135277     -1.075043       17401.395    
     88000   0.87045648     0.0023323615  -0.00092184985  20.514678      19.22205       1.2926279     -1.2324845      18879.808    
     89000   1.0852669      0.0023323615   0.0022391942   21.153998      19.542377      1.6116213     -1.1250384      19708.876    
     90000   1.0672357      0.0023323615  -0.00071231201  20.852146      19.267301      1.584845      -1.1826199      19624.44     
     91000   1.0540385      0.0023323615  -0.00010153525  20.894179      19.328932      1.5652472     -1.2239192      20112.745    
     92000   1.1104937      0.0023323615  -0.0026037448   20.842075      19.192992      1.6490831     -1.2452005      20152.322    
     93000   1.0972749      0.0023323615   0.0010780888   20.735754      19.106301      1.6294532     -1.2624553      19110.38     
     94000   0.91318989     0.0023323615   0.0017989496   20.587093      19.231006      1.356087      -1.2711928      17629.729    
     95000   1.0145244      0.0023323615  -0.002145712    20.687057      19.180488      1.5065688     -1.2182904      17013.447    
     96000   0.95518828     0.0023323615   0.0011522015   20.598999      19.180544      1.4184546     -1.306953       17029.244    
     97000   0.97861469     0.0023323615   0.0012495785   20.394884      18.941641      1.4532428     -1.4577119      17502.369    
     98000   1.0016693      0.0023323615   0.003293692    20.793912      19.306433      1.487479      -1.2352349      18414.394    
     99000   1.1130876      0.0023323615   0.00024534926  20.683064      19.030128      1.6529351     -1.4110635      19938.915    
    100000   0.92910434     0.0023323615  -0.0021072749   20.657534      19.277814      1.3797199     -1.2102768      19705.402    
    101000   0.97937178     0.0023323615   0.0018009954   20.650121      19.195754      1.4543671     -1.2453524      19344.555    
    102000   1.0147078      0.0023323615  -0.00069097545  20.764015      19.257174      1.5068411     -1.1272199      18888.286    
    103000   1.1572963      0.0023323615  -0.0060014786   21.238103      19.519518      1.718585      -1.1369226      19421.64     
    104000   1.0104905      0.0023323615   0.0018363637   20.867267      19.366689      1.5005784     -1.2325629      19901.977    
    105000   0.99221147     0.0023323615  -0.00098710986  20.788243      19.314809      1.473434      -1.1485492      19326.931    
    106000   1.0396978      0.0023323615   0.0068739798   20.568327      19.024376      1.5439512     -1.3325418      17511.381    
    107000   0.86719976     0.0023323615  -0.00023825674  20.473606      19.185814      1.2877916     -1.1963918      16260.796    
    108000   0.96366746     0.0023323615  -0.00094506592  20.59825       19.167204      1.4310462     -1.3968415      15503.118    
    109000   1.0925247      0.0023323615   0.001051562    20.576081      18.953681      1.6223992     -1.4249378      15946.772    
    110000   1.1209227      0.0023323615  -0.0037512626   20.888546      19.223976      1.6645702     -1.2096714      17740.993    
    111000   1.1309324      0.0023323615  -0.00093531041  20.795823      19.116388      1.6794345     -1.423375       18799.152    
    112000   0.94707242     0.0023323615   0.0029244774   20.474027      19.067625      1.4064025     -1.3533543      18424.024    
    113000   0.89569735     0.0023323615  -0.00040700078  20.386946      19.056836      1.3301106     -1.3525572      15821.684    
    114000   0.94584344     0.0023323615  -1.5192923e-05  20.733412      19.328834      1.4045775     -1.2014744      14967.21     
    115000   1.1037143      0.0023323615  -0.0022357865   20.931278      19.292262      1.6390158     -1.0532461      16845.377    
    116000   0.94024497     0.0023323615  -0.0032374811   20.269223      18.872959      1.3962638     -1.4593371      18987.963    
    117000   0.89288343     0.0023323615  -0.00021246355  20.529495      19.203563      1.3259319     -1.2408725      20434.203    
    118000   1.0670807      0.0023323615  -0.0039092061   20.990139      19.405524      1.5846148     -1.093441       20776.222    
    119000   0.92297825     0.0023323615   0.00056622292  20.912569      19.541946      1.3706227     -1.149806       21070.204    
    120000   0.87751083     0.0023323615  -0.00062163369  20.716313      19.413209      1.3031036     -1.113843       19965.437    
    121000   1.0039827      0.0023323615  -0.0017840108   20.978034      19.48712       1.4909144     -1.0365581      18810.812    
    122000   1.0330879      0.0023323615   0.0026008265   21.010932      19.476797      1.5341356     -1.1138055      17415.453    
    123000   1.1477464      0.0023323615   0.0025628236   21.135572      19.431169      1.7044034     -1.1536993      17056.823    
    124000   0.96163945     0.0023323615   0.0022875568   20.771816      19.343781      1.4280346     -1.1935516      17341.928    
    125000   1.140112       0.0023323615   0.00086722539  20.863815      19.170749      1.6930663     -1.2407886      17979.147    
    126000   0.98266988     0.0023323615  -0.0020014968   20.62897       19.169706      1.4592648     -1.2705075      18612.62     
    127000   0.90976485     0.0023323615   0.0022744649   20.516087      19.165086      1.3510008     -1.2049589      17476.849    
    128000   1.0131986      0.0023323615   0.00086060155  20.564789      19.060189      1.5045999     -1.4562148      16971.044    
    129000   1.0862541      0.0023323615  -0.0019530631   20.959353      19.346266      1.6130874     -1.2613216      16999.397    
    130000   1.005738       0.0023323615  -0.00039200312  20.641976      19.148455      1.4935209     -1.3387983      17921.167    
    131000   0.99567108     0.0023323615  -0.00029002023  20.507755      19.029184      1.4785716     -1.4743419      18565.674    
    132000   0.86908804     0.0023323615  -2.5132933e-05  20.512463      19.221868      1.2905957     -1.3201603      18237.005    
    133000   0.93752874     0.0023323615  -0.0026703128   20.530571      19.138341      1.3922302     -1.3160478      18781.699    
    134000   1.0790226      0.0023323615  -0.0034590169   21.005686      19.403337      1.6023486     -1.0815096      19172.973    
    135000   1.0611824      0.0023323615   0.0036877459   20.774372      19.198516      1.5758559     -1.3245293      18036.937    
    136000   0.95650798     0.0023323615   0.0043461244   20.625617      19.205202      1.4204144     -1.2550296      17162.438    
    137000   1.0122808      0.0023323615   0.0017944918   20.756538      19.253301      1.503237      -1.1916226      17103.228    
    138000   0.9886742      0.0023323615   0.0037025204   20.632823      19.164642      1.4681812     -1.3321284      18382.847    
    139000   1.1244176      0.0023323615  -0.00082219842  20.947451      19.277691      1.6697602     -1.3147685      19456.731    
    140000   0.93158262     0.0023323615  -0.0023647112   20.668021      19.284621      1.3834002     -1.2144639      20968.775    
    141000   0.81242893     0.0023323615  -0.004175462    20.702687      19.49623       1.206457      -1.1201339      21385.932    
    142000   0.94642342     0.0023323615  -0.0013051599   20.8579        19.452461      1.4054388     -1.1422687      21707.517    
    143000   1.0338307      0.0023323615   0.0010035998   20.897572      19.362333      1.5352386     -1.1150319      21255.381    
    144000   1.1508296      0.0023323615   0.0013334625   21.003603      19.294621      1.7089819     -1.2706687      19960.83     
    145000   1.0606029      0.0023323615  -0.00067597983  20.93725       19.362255      1.5749953     -1.2438978      18961.108    
    146000   1.0329124      0.0023323615  -0.0016992636   20.645843      19.111968      1.533875      -1.3224554      17085.474    
    147000   1.1536018      0.0023323615  -0.0035679924   20.778404      19.065305      1.7130986     -1.4013152      16091.413    
    148000   0.89540501     0.0023323615  -0.0032652508   20.48196       19.152283      1.3296764     -1.3585684      16202.017    
    149000   0.95830692     0.0023323615   0.00085048104  20.422504      18.999419      1.4230858     -1.4268573      17870.573    
    150000   1.0009039      0.0023323615  -0.00070488686  20.830873      19.344531      1.4863423     -1.1251873      19809.522    
    151000   0.89875743     0.0023323615   0.0012907331   20.809374      19.474719      1.3346548     -1.0331544      21197.807    
    152000   1.0366114      0.0023323615   0.00099430907  20.80926       19.269892      1.5393679     -1.1792333      20717.014    
    153000   1.0489996      0.0023323615   0.0032696017   20.782397      19.224633      1.5577643     -1.205096       20527.001    
    154000   0.97107265     0.0023323615  -0.0045263634   20.713885      19.271842      1.4420429     -1.1719589      18842.477    
    155000   0.9560052      0.0023323615   0.0011997839   20.312052      18.892384      1.4196677     -1.5308983      15841.223    
    156000   0.96377742     0.0023323615  -0.0013252678   20.348317      18.917107      1.4312095     -1.5792369      14517.336    
    157000   1.0910294      0.0023323615  -0.0012873382   20.659313      19.039134      1.6201786     -1.360567       14645.566    
    158000   0.9114195      0.0023323615  -0.0029605377   20.581865      19.228407      1.353458      -1.2598031      16365.438    
    159000   0.84771836     0.0023323615  -0.0017319687   20.291424      19.032562      1.2588618     -1.3710093      18432.642    
    160000   1.0440359      0.0023323615   0.0044103614   20.819759      19.269366      1.5503933     -1.2075935      18747.853    
    161000   0.99233942     0.0023323615   0.00054986862  20.809433      19.335809      1.473624      -1.3357579      18077.294    
    162000   1.041093       0.0023323615  -0.0022516264   20.686482      19.140459      1.5460231     -1.3127431      17103.98     
    163000   0.98267002     0.0023323615  -0.0040528931   20.744394      19.285129      1.459265      -1.208183       16387.584    
    164000   1.1236083      0.0023323615  -0.0010142346   21.136039      19.467481      1.6685583     -0.99022744     16822.383    
    165000   0.96278466     0.0023323615   0.0013420085   20.589444      19.159708      1.4297352     -1.3021771      18373.233    
    166000   0.86704771     0.0023323615   0.0010591366   20.496633      19.209067      1.2875658     -1.2997895      18185.066    
    167000   0.96958519     0.0023323615  -0.00040538831  20.649618      19.209784      1.439834      -1.2215944      18064.269    
    168000   1.1132609      0.0023323615  -0.00086486516  20.593523      18.940331      1.6531924     -1.4770895      17020.16     
    169000   0.89387787     0.0023323615  -0.0034771983   20.20141       18.874002      1.3274086     -1.614205       15365.388    
    170000   0.91470054     0.0023323615  -0.0034018083   20.603194      19.244864      1.3583303     -1.365597       15083.126    
    171000   1.0043328      0.0023323615  -0.0011651186   20.799996      19.308562      1.4914342     -1.3492412      16403.853    
    172000   0.99522441     0.0023323615   0.00016849417  20.719626      19.241717      1.4779083     -1.3639413      17276.538    
    173000   1.0560418      0.0023323615   0.0027343935   20.994226      19.426004      1.5682221     -1.1623307      18305.232    
    174000   0.85909173     0.0023323615  -0.0013796055   20.446706      19.170955      1.2757512     -1.1633026      18774.308    
    175000   1.0606866      0.0023323615   0.001131544    20.829782      19.254663      1.5751196     -1.2567831      18996.361    
    176000   0.99392441     0.0023323615   0.0027629855   20.81028       19.334302      1.4759777     -1.1874981      19181.33     
    177000   1.0749247      0.0023323615  -0.00094886582  20.693631      19.097367      1.5962631     -1.2398391      18376.535    
    178000   1.043971       0.0023323615  -3.8999209e-05  20.77711       19.226813      1.5502969     -1.2880324      16618.98     
    179000   1.0636657      0.0023323615  -0.0001412343   20.699309      19.119765      1.5795436     -1.2903992      15805.782    
    180000   1.0541874      0.0023323615   0.0033670207   20.640319      19.074851      1.5654684     -1.4053929      14844.364    
    181000   1.0317751      0.0023323615  -0.00026468158  20.345197      18.813011      1.5321861     -1.531339       14679.933    
    182000   0.85437721     0.0023323615   5.0022459e-05  20.3752        19.10645       1.2687502     -1.294528       15981.408    
    183000   1.0030457      0.0023323615  -0.0015775602   20.675904      19.186381      1.4895229     -1.2974465      16849.356    
    184000   0.93853206     0.0023323615  -0.0028038404   20.71249       19.31877       1.3937201     -1.2571073      17743.942    
    185000   1.1435258      0.0023323615   0.0016243211   20.965717      19.267581      1.6981358     -1.3136803      19149.498    
    186000   0.98227673     0.0023323615  -0.00047402941  20.805513      19.346832      1.4586809     -1.1320638      20063.543    
    187000   1.1249273      0.0023323615  -8.9355033e-06  20.968892      19.298375      1.670517      -1.2523826      20131.491    
    188000   0.87819162     0.0023323615  -0.0063494919   20.585702      19.281587      1.3041146     -1.3232843      20566.615    
    189000   1.0263243      0.0023323615   0.0037541805   20.930075      19.405984      1.5240916     -1.2142621      20369.977    
    190000   1.3226338      0.0023323615  -0.00043097803  21.395198      19.431086      1.9641111     -1.0335541      20589.746    
    191000   0.96800028     0.0023323615  -0.0029653415   20.897204      19.459723      1.4374804     -1.0891125      19812.986    
    192000   1.0700655      0.0023323615  -0.00053400948  20.911978      19.32293       1.5890472     -1.1201123      19692.184    
    193000   1.0286378      0.0023323615  -0.0037226016   20.806871      19.279344      1.5275271     -1.2334739      18763.65     
    194000   1.1066892      0.0023323615  -0.0038374738   20.971189      19.327756      1.6434334     -1.2719839      18023.235    
    195000   0.98454255     0.0023323615  -0.00033402617  20.812178      19.350132      1.4620457     -1.186882       16224.147    
    196000   0.95983911     0.0023323615  -0.00044358396  20.537143      19.111782      1.4253611     -1.4575967      15895.369    
    197000   0.99298827     0.0023323615  -0.0012620273   20.766893      19.292305      1.4745876     -1.2119921      16632.957    
    198000   0.98381951     0.0023323615   0.0017579511   20.836051      19.375079      1.460972      -1.205657       18183.972    
    199000   0.92868499     0.0023323615   0.00099345959  20.813522      19.434425      1.3790972     -1.1597774      19464.764    
    200000   1.1036587      0.0023323615   0.0055167645   21.043153      19.404219      1.6389332     -1.1966167      19855.92     
    201000   1.0231058      0.0023323615   0.00045528538  21.0249        19.505588      1.519312      -1.1228116      19616.927    
    202000   1.1152871      0.0023323615   0.00038143382  20.952173      19.295972      1.6562014     -1.2705119      18201.627    
    203000   0.89062519     0.0023323615   0.0020057748   20.460938      19.13836       1.3225784     -1.3340597      17032.707    
    204000   1.0066362      0.0023323615  -0.00071618822  20.67097       19.176116      1.4948548     -1.3459849      16387.116    
    205000   1.0701782      0.0023323615  -0.0018035533   20.47621       18.886996      1.5892146     -1.544885       16151.72     
    206000   0.97083917     0.0023323615   0.0015050362   20.608559      19.166863      1.4416962     -1.3341839      16582.826    
    207000   0.97049839     0.0023323615   0.001590759    20.816298      19.375107      1.4411901     -1.0938023      17662.68     
    208000   0.95907823     0.0023323615   0.0024832348   20.693695      19.269464      1.4242312     -1.1762297      18403.746    
    209000   0.96833279     0.0023323615  -0.0024895377   20.847576      19.409602      1.4379742     -1.0371195      18920.754    
    210000   1.0223318      0.0023323615   0.0053963282   20.994622      19.47646       1.5181627     -0.99012139     19714.038    
    211000   0.98684431     0.0023323615   0.0029190938   20.903692      19.438228      1.4654638     -1.0178296      20839.223    
    212000   1.1098249      0.0023323615   9.9990728e-05  20.998704      19.350614      1.64809       -1.1203543      21292.139    
    213000   1.0264029      0.0023323615  -0.001531811    21.058552      19.534343      1.5242083     -1.1108163      20275.484    
    214000   0.96922305     0.0023323615   0.0014460624   20.726177      19.286881      1.4392962     -1.2435771      18726.242    
    215000   1.0433785      0.0023323615  -0.00070730681  20.729241      19.179824      1.5494171     -1.298735       17264.041    
    216000   0.93823211     0.0023323615  -0.00029106993  20.531973      19.138698      1.3932747     -1.3381465      16215.844    
    217000   1.0961002      0.0023323615  -0.00071592054  21.103776      19.476067      1.6277088     -1.023679       16499.436    
    218000   1.0195404      0.0023323615   0.0029506816   20.978667      19.464649      1.5140176     -0.92808673     17548.628    
    219000   1.0987318      0.0023323615   0.0020912232   21.017237      19.38562       1.6316168     -1.1315022      19056.36     
    220000   1.089086       0.0023323615   0.00096413675  20.957052      19.33976       1.6172927     -1.0847208      20412.205    
    221000   1.0309785      0.0023323615  -0.00030783402  20.899093      19.36809       1.5310031     -1.2063433      21035.465    
    222000   0.9886918      0.0023323615   0.0019489664   20.924873      19.456666      1.4682073     -1.0852738      21462.692    
    223000   0.95013415     0.0023323615   0.0019686528   20.740241      19.329291      1.4109492     -1.1976397      20802.323    
    224000   0.94587789     0.0023323615   0.0033832809   20.657445      19.252816      1.4046287     -1.2602226      18938.899    
    225000   1.0326528      0.0023323615   0.0022455137   20.685003      19.151513      1.5334895     -1.3338262      15955.549    
    226000   1.1989593      0.0023323615   0.0024379937   20.652538      18.872084      1.7804546     -1.5305143      14430.56     
    227000   0.97517008     0.0023323615   0.0046412207   20.549077      19.100949      1.4481276     -1.3548906      15422.22     
    228000   0.95949942     0.0023323615  -0.0010941581   20.894301      19.469444      1.4248566     -1.0247035      18378.294    
    229000   0.95908531     0.0023323615  -0.0033856385   20.806033      19.381792      1.4242417     -1.1336976      20098.445    
    230000   1.0576929      0.0023323615  -0.0025857429   20.87287       19.302196      1.570674      -1.1721618      20884.698    
    231000   0.97583254     0.0023323615  -0.0022138711   20.759102      19.309991      1.4491113     -1.1940756      20850.332    
    232000   1.0444367      0.0023323615   0.00037942279  20.731276      19.180288      1.5509885     -1.3190037      20578.374    
    233000   1.1255246      0.0023323615   0.00070442094  20.91476       19.243356      1.671404      -1.2958958      18924.671    
    234000   0.89666937     0.0023323615   0.0035109433   20.754866      19.423312      1.331554      -1.0875092      17935.997    
    235000   1.0473924      0.0023323615  -0.0013957688   20.892475      19.337098      1.5553777     -1.1874516      17956.209    
    236000   1.0966202      0.0023323615  -0.0010571735   21.069415      19.440934      1.628481      -1.0710798      18317.957    
    237000   0.931126       0.0023323615  -0.0039664086   20.897864      19.515142      1.3827221     -1.1511472      18738.92     
    238000   1.042969       0.0023323615   0.0025557446   20.892111      19.343302      1.548809      -1.167843       18643.23     
    239000   0.9708397      0.0023323615  -0.0025876798   20.564134      19.122437      1.4416969     -1.2197376      19158.79     
    240000   0.96484741     0.0023323615  -9.4683811e-05  20.919997      19.487199      1.4327984     -1.0704906      19636.018    
    241000   1.0866017      0.0023323615   5.5431841e-06  21.148094      19.53449       1.6136035     -0.9941787      20642.689    
    242000   1.0658775      0.0023323615   0.0028544927   20.978107      19.395279      1.5828281     -1.08994        19503.235    
    243000   1.2184946      0.0023323615  -0.00050975039  21.041569      19.232104      1.8094645     -1.2936211      18775.174    
    244000   1.0375642      0.0023323615  -0.0016038177   20.895266      19.354483      1.5407828     -1.1841611      20022.859    
    245000   1.0181547      0.0023323615   0.0012281518   20.839369      19.327409      1.5119597     -1.0532737      20866.016    
    246000   0.92967864     0.0023323615   0.0011025089   20.635114      19.254541      1.3805728     -1.2494415      21543.943    
    247000   1.1319949      0.0023323615  -0.0038581275   20.993614      19.312602      1.6810125     -1.1661333      20356.438    
    248000   1.090043       0.0023323615  -0.0011115683   20.979862      19.361148      1.6187138     -1.148834       16898.458    
    249000   1.0183393      0.0023323615  -0.0041608769   20.766129      19.253895      1.5122338     -1.3153011      15011.316    
    250000   1.0610462      0.0023323615   0.00032162758  20.889293      19.313639      1.5756537     -1.1242549      15363.858    
    251000   0.93239757     0.0023323615  -0.0024056194   20.554217      19.169606      1.3846104     -1.3237152      17491.706    
    252000   1.0185229      0.0023323615   8.7157165e-05  20.859022      19.346516      1.5125065     -1.2008318      18954.14     
    253000   1.0323023      0.0023323615  -0.0022434543   20.869168      19.336199      1.5329689     -1.1061347      20115.684    
    254000   0.90411912     0.0023323615  -0.00050246082  20.654051      19.311434      1.3426169     -1.1632738      21556.562    
    255000   1.030832       0.0023323615   0.0014364365   20.706823      19.176038      1.5307855     -1.2501861      21903.066    
    256000   1.097932       0.0023323615   0.002380757    20.808646      19.178217      1.630429      -1.3343716      21814.134    
    257000   0.99195744     0.0023323615   0.0019560389   20.729913      19.256856      1.4730568     -1.2632853      20595.948    
    258000   1.0593342      0.0023323615   0.00051100425  20.872495      19.299383      1.5731112     -1.1348916      18092.216    
    259000   0.96988957     0.0023323615   0.0016689025   20.663071      19.222785      1.440286      -1.2770407      16550.74     
    260000   0.93304397     0.0023323615  -0.0017566151   20.581438      19.195867      1.3855703     -1.3384652      16338.611    
    261000   1.0334268      0.0023323615   0.0036459688   20.459842      18.925203      1.5346388     -1.48543        17698.392    
    262000   0.9174889      0.0023323615   0.00060612263  20.460441      19.09797       1.362471      -1.2754799      18508.865    
    263000   0.96324561     0.0023323615  -0.0027799311   20.553517      19.123098      1.4304197     -1.301021       17496.938    
    264000   1.0534074      0.0023323615   0.0013468398   20.549338      18.985028      1.5643099     -1.4277271      17154.108    
    265000   0.89339298     0.0023323615   0.0018858698   20.174782      18.848093      1.3266886     -1.5786376      17327.54     
    266000   1.0117356      0.0023323615   0.0032310565   20.423115      18.920688      1.5024274     -1.5414069      17868.829    
    267000   0.98792817     0.0023323615   0.0001981005   20.684654      19.21758       1.4670733     -1.3739088      17511.092    
    268000   1.0464491      0.0023323615   0.0027094536   20.853596      19.299619      1.553977      -1.2671271      16085.454    
    269000   0.99486335     0.0023323615  -0.0007870305   20.659109      19.181737      1.4773721     -1.3715913      14900.387    
    270000   1.0787617      0.0023323615  -0.00030060202  20.660482      19.058521      1.6019611     -1.3618073      15190.658    
    271000   1.0737853      0.0023323615  -0.00013168853  20.838384      19.243813      1.5945711     -1.2739963      15945.157    
    272000   0.98453677     0.0023323615   0.0015222463   20.556806      19.094769      1.4620371     -1.4631538      15396.24     
    273000   1.0962048      0.0023323615   0.0009050255   20.611443      18.983579      1.6278641     -1.4620546      15101.631    
    274000   0.98190744     0.0023323615   0.0014045931   20.468427      19.010295      1.4581325     -1.5041229      15573.103    
    275000   1.0474486      0.0023323615  -0.00093895859  20.505928      18.950467      1.5554612     -1.4875331      15007.245    
    276000   0.85142683     0.0023323615  -0.0035751107   20.374818      19.110449      1.2643688     -1.4574838      16201.893    
    277000   0.90414605     0.0023323615   0.0013480356   20.25514       18.912484      1.3426569     -1.5587113      18173.655    
    278000   1.0378723      0.0023323615   0.00071382257  20.69362       19.15238       1.5412404     -1.3676675      19367.993    
    279000   0.95409132     0.0023323615   0.0025952746   20.801061      19.384235      1.4168256     -1.1983168      19992.732    
    280000   0.96008613     0.0023323615   0.0032096396   20.664246      19.238518      1.4257279     -1.2650769      20149.193    
    281000   0.96182886     0.0023323615   0.00073101944  20.578166      19.14985       1.4283159     -1.332976       19224.726    
    282000   1.1025384      0.0023323615  -0.0030908425   20.818397      19.181127      1.6372695     -1.3158894      17656.121    
    283000   1.0887428      0.0023323615  -0.0020591571   20.7468        19.130017      1.6167831     -1.4006766      16357.304    
    284000   1.0090316      0.0023323615  -0.0031541454   20.639882      19.14147       1.4984119     -1.4233294      15797.119    
    285000   0.93125536     0.0023323615  -0.0063771454   20.418034      19.03512       1.3829142     -1.4505122      16409.371    
    286000   0.96725377     0.0023323615  -0.00057789493  20.546352      19.10998       1.4363718     -1.3549529      16971.431    
    287000   1.1323581      0.0023323615  -0.0018773423   20.849436      19.167884      1.6815518     -1.3800226      17860.279    
    288000   1.0304226      0.0023323615  -0.0028775252   20.71725       19.187072      1.5301776     -1.2301547      18596.231    
    289000   0.90556266     0.0023323615   0.0043822255   20.547715      19.202954      1.3447606     -1.184985       18347.906    
    290000   1.0126587      0.0023323615  -0.0024080109   20.648352      19.144554      1.5037982     -1.2693253      16683.255    
    291000   0.99197322     0.0023323615  -0.0010103439   20.732113      19.259032      1.4730802     -1.3243624      16149.295    
    292000   0.97477317     0.0023323615   0.00041211082  20.653815      19.206277      1.4475382     -1.250005       16984.791    
    293000   0.98116674     0.0023323615  -0.00040601534  20.659765      19.202733      1.4570326     -1.222315       18456.886    
    294000   1.0411831      0.0023323615   0.0029304113   20.790674      19.244517      1.5461569     -1.2960178      19640.184    
    295000   0.95001014     0.0023323615   0.00094765239  20.501927      19.091162      1.4107651     -1.3718027      19020.34     
    296000   0.92697609     0.0023323615  -0.003323398    20.793114      19.416555      1.3765595     -1.1378907      18923.911    
    297000   0.91821456     0.0023323615  -0.0014482185   20.776753      19.413205      1.3635486     -1.0954314      18934.857    
    298000   0.98455595     0.0023323615   0.0031132008   20.756543      19.294477      1.4620656     -1.2473083      19730.012    
    299000   0.91324912     0.0023323615   0.00032639241  20.725143      19.368968      1.356175      -1.1462198      19152.062    
    300000   0.88621972     0.0023323615  -0.0010095112   20.785136      19.4691        1.3160363     -0.96795882     19438.619    
    301000   0.99694593     0.0023323615  -0.00043215065  20.742581      19.262116      1.4804647     -1.2186638      18551.547    
    302000   0.91439487     0.0023323615  -0.00092017347  20.685711      19.327835      1.3578764     -1.124502       18792.714    
    303000   0.90893686     0.0023323615   0.0030562985   20.840244      19.490473      1.3497712     -1.0620683      18824.502    
    304000   1.076949       0.0023323615  -0.0024875665   20.92076       19.321491      1.5992692     -1.1451679      19456.747    
    305000   1.0196956      0.0023323615  -0.002760482    20.807862      19.293614      1.514248      -1.2442128      19117.789    
    306000   1.0929262      0.0023323615   0.00098843573  20.960247      19.337251      1.6229954     -1.2271573      18496.788    
    307000   0.99659593     0.0023323615  -4.7683269e-05  20.547358      19.067413      1.479945      -1.3044303      18698.689    
    308000   1.065879       0.0023323615  -0.0039146829   21.024112      19.441281      1.5828302     -1.0126713      19505.634    
    309000   1.0119787      0.0023323615  -0.0031347286   20.959395      19.456607      1.5027884     -1.1160075      19537.342    
    310000   0.87173243     0.0023323615  -0.00037214143  20.674187      19.379664      1.2945227     -1.1266513      19370.767    
    311000   0.95054309     0.0023323615   0.0030008134   20.597472      19.185915      1.4115565     -1.280197       19963.661    
    312000   0.95634838     0.0023323615  -0.0011153388   20.72711       19.306933      1.4201773     -1.1264194      20109.584    
    313000   1.0148276      0.0023323615  -0.0040224336   20.673614      19.166595      1.507019      -1.3260748      20918.409    
    314000   0.97826023     0.0023323615  -0.0015289229   20.920103      19.467387      1.4527164     -1.0196196      21062.6      
    315000   0.90530483     0.0023323615  -0.0013501293   20.513756      19.169379      1.3443777     -1.1356329      19957.773    
    316000   0.99714522     0.0023323615   0.0015525478   20.75233       19.271569      1.4807607     -1.1936101      18821.713    
    317000   0.9721669      0.0023323615   9.917646e-05   20.661622      19.217954      1.4436678     -1.355232       18510.437    
    318000   1.0789889      0.0023323615   0.00027693014  20.793858      19.191559      1.6022986     -1.327911       19079.162    
    319000   1.0421402      0.0023323615  -0.0011004624   20.886758      19.33918       1.5475782     -1.1478469      19552.851    
    320000   0.94880767     0.0023323615  -0.00011653802  20.779103      19.370123      1.4089794     -1.3362464      19256.017    
    321000   0.99073529     0.0023323615   0.0035852064   20.691614      19.220372      1.4712419     -1.3073311      19171.261    
    322000   0.95742883     0.0023323615  -0.00067144992  20.740082      19.3183        1.4217818     -1.2366349      18615.758    
    323000   1.0041626      0.0023323615   5.0546755e-05  20.746275      19.255094      1.4911814     -1.2689987      18074.076    
    324000   1.1516088      0.0023323615  -0.0024147253   21.06177       19.351631      1.7101391     -1.259414       17551.575    
    325000   1.0650333      0.0023323615   0.0011327194   21.009415      19.42784       1.5815744     -1.0784873      18243.465    
    326000   1.123751       0.0023323615   0.0010909451   20.90178       19.23301       1.6687702     -1.2257556      18984.839    
    327000   1.0421983      0.0023323615  -0.0043449651   20.713599      19.165935      1.5476644     -1.3807336      20118.181    
    328000   1.0128368      0.0023323615   0.00062050468  20.95061       19.446547      1.5040626     -1.078672       19980.477    
    329000   1.0550784      0.0023323615   0.0021802206   21.036731      19.469939      1.5667915     -0.9627072      19530.293    
    330000   1.111056       0.0023323615   0.0010886886   20.761902      19.111984      1.6499182     -1.2783004      20173.147    
    331000   1.0530256      0.0023323615  -0.0045847729   20.657847      19.094104      1.5637431     -1.4559402      20673.324    
    332000   1.0668823      0.0023323615   0.00051956081  20.78352       19.1992        1.5843203     -1.2860296      19440.668    
    333000   1.0973429      0.0023323615   7.4893958e-05  20.828695      19.199141      1.6295542     -1.2460564      17469.994    
    334000   1.0502336      0.0023323615  -0.0012262789   21.0044        19.444803      1.5595968     -1.043335       16443.937    
    335000   0.86651171     0.0023323615  -0.0015109957   20.561366      19.274596      1.2867699     -1.1407541      16835.711    
    336000   1.0576691      0.0023323615   0.0046965201   20.992045      19.421406      1.5706387     -1.0717791      18493.258    
    337000   1.0224094      0.0023323615   0.0025978023   20.886462      19.368184      1.5182779     -1.1259145      19267.269    
    338000   1.0320053      0.0023323615  -0.0010313521   21.016205      19.483677      1.5325279     -1.1972545      20015.183    
    339000   1.0987964      0.0023323615   0.0062563016   20.97359       19.341878      1.6317127     -1.1318653      19741.113    
    340000   0.97795611     0.0023323615   0.0022020158   20.819306      19.367041      1.4522648     -1.1561263      19700.746    
    341000   0.95924682     0.0023323615   0.00055492794  20.848217      19.423735      1.4244815     -1.12205        18956.354    
    342000   0.93695326     0.0023323615   0.0012089915   20.535469      19.144094      1.3913756     -1.2899454      18435.322    
    343000   1.056209       0.0023323615  -0.0030284949   21.101996      19.533526      1.5684704     -1.1275126      16505.111    
    344000   1.1323236      0.0023323615   7.8993115e-05  20.987008      19.305508      1.6815006     -1.2170257      15434.965    
    345000   0.99136438     0.0023323615  -0.0025021549   20.562186      19.090009      1.4721761     -1.4280967      15669.733    
    346000   0.92236153     0.0023323615   0.0023669434   20.391925      19.022218      1.3697069     -1.4552996      16379.999    
    347000   1.0133526      0.0023323615  -0.00046651596  20.462367      18.957538      1.5048286     -1.4736216      17570.728    
    348000   1.0063989      0.0023323615   0.00072033439  20.700569      19.206067      1.4945024     -1.3376722      18860.593    
    349000   1.162279       0.0023323615   2.1902804e-05  21.19078       19.464796      1.7259843     -1.0475367      18898.059    
    350000   0.85601895     0.0023323615   0.0028634325   20.393468      19.12228       1.2711881     -1.3348896      17083.635    
    351000   0.99883562     0.0023323615  -0.001638834    20.501228      19.017957      1.4832709     -1.4778282      15199.934    
    352000   0.9929364      0.0023323615   0.00036306742  20.558352      19.083841      1.4745106     -1.3151196      14497.885    
    353000   1.0030118      0.0023323615   0.0018872731   20.576186      19.086714      1.4894726     -1.3184973      14427.589    
    354000   1.1013251      0.0023323615  -0.0010909822   20.670824      19.035356      1.6354678     -1.4167327      15607.905    
    355000   0.95427946     0.0023323615   0.0019553347   20.581333      19.164228      1.417105      -1.3199931      15905.303    
    356000   0.98059738     0.0023323615   0.0010552488   20.518769      19.062582      1.4561871     -1.3257513      14863.688    
    357000   0.9043024      0.0023323615  -0.003777712    20.114602      18.771713      1.3428891     -1.7889487      13962.34     
    358000   1.0253481      0.0023323615  -0.00053839375  20.485757      18.963115      1.5226419     -1.5865847      14443.994    
    359000   1.0526066      0.0023323615   0.0020987029   20.836101      19.27298       1.5631208     -1.3475913      16146.408    
    360000   1.021622       0.0023323615  -0.0024208649   20.524535      19.007426      1.5171087     -1.4607164      18004.817    
    361000   0.94849405     0.0023323615  -0.0049769165   20.43029       19.021776      1.4085137     -1.4669114      19117.222    
    362000   1.0028188      0.0023323615  -0.00018758604  20.843309      19.354123      1.4891859     -1.2802714      19690.879    
    363000   0.98051283     0.0023323615   0.0010779356   20.552798      19.096736      1.4560616     -1.3308895      18486.35     
    364000   0.92590661     0.0023323615   0.0012960785   20.731129      19.356158      1.3749713     -1.0926242      16468.388    
    365000   1.1021697      0.0023323615   0.00025484429  20.965537      19.328815      1.636722      -1.2118545      15651.253    
    366000   1.1086264      0.0023323615   7.1770323e-05  20.980111      19.333801      1.6463103     -1.2168291      16152.564    
    367000   1.030598       0.0023323615   0.0003504434   20.974257      19.443819      1.530438      -1.1365689      17201.893    
    368000   1.0607243      0.0023323615   0.0010707138   20.842008      19.266832      1.5751757     -1.205651       18215.654    
    369000   1.0173888      0.0023323615   0.0032392277   20.865778      19.354956      1.5108223     -1.1936552      17904.242    
    370000   0.96751924     0.0023323615  -0.00075603577  20.794302      19.357536      1.4367661     -1.2429707      17510.748    
    371000   0.98125862     0.0023323615   0.00089984013  20.755546      19.298377      1.4571691     -1.2921177      16339.887    
    372000   1.0873021      0.0023323615  -3.4681653e-05  20.525738      18.911094      1.6146436     -1.4728471      16441.25     
    373000   1.0126846      0.0023323615   0.0021892501   20.460444      18.956608      1.5038366     -1.4738377      17095.968    
    374000   1.0584193      0.0023323615  -0.00087021398  20.748318      19.176566      1.5717526     -1.363685       16705.305    
    375000   0.9692697      0.0023323615   0.00078141124  20.606499      19.167134      1.4393655     -1.3594932      15662.504    
    376000   0.88258682     0.0023323615  -0.0033061371   20.304089      18.993448      1.3106414     -1.4228738      15430.834    
    377000   1.1083464      0.0023323615   0.0024776711   20.676216      19.030322      1.6458945     -1.3723837      16905.247    
    378000   0.94217864     0.0023323615   0.0014624351   20.612355      19.21322       1.3991353     -1.2193751      19005.114    
    379000   0.96266271     0.0023323615   0.00032229629  20.676873      19.247319      1.4295541     -1.1963673      20371.744    
    380000   0.99973423     0.0023323615   0.00069381492  20.635935      19.151329      1.4846053     -1.2882137      21299.078    
    381000   1.0405501      0.0023323615  -0.0019598485   20.660744      19.115527      1.5452169     -1.3058956      21599.207    
    382000   0.87336318     0.0023323615   0.00087073285  20.819322      19.522378      1.2969443     -1.0179877      21062.192    
    383000   0.98587087     0.0023323615  -0.0010199993   20.861822      19.397804      1.4640182     -1.0997608      19680.737    
    384000   1.205084       0.0023323615   0.0016567867   21.039533      19.249983      1.7895497     -1.3138739      18662.49     
    385000   1.1369866      0.0023323615   0.0026689097   20.832995      19.144569      1.6884251     -1.2978013      17708.849    
    386000   1.0000408      0.0023323615   0.0044109007   20.495309      19.010248      1.4850607     -1.4249526      16011.433    
    387000   0.95093704     0.0023323615   0.0019246321   20.358563      18.946421      1.4121415     -1.4465001      16340.877    
    388000   1.106631       0.0023323615   0.0017528902   20.760788      19.117441      1.643347      -1.2402653      17878.037    
    389000   1.0370435      0.0023323615   0.001064676    20.744365      19.204356      1.5400096     -1.2379451      20133.03     
    390000   1.0512363      0.0023323615  -0.0033667274   20.774417      19.213331      1.561086      -1.3350101      21957.016    
    391000   1.1223411      0.0023323615   0.00010050935  20.942443      19.275767      1.6666765     -1.1898041      21731.536    
    392000   1.0647402      0.0023323615  -0.00024124021  21.178991      19.597852      1.5811393     -1.0275326      21106.043    
    393000   0.89438722     0.0023323615  -0.0018120022   20.779902      19.451737      1.328165      -1.0695649      20127.2      
    394000   1.0415731      0.0023323615   0.004581722    20.816877      19.270141      1.546736      -1.3051238      17966.733    
    395000   1.0463754      0.0023323615  -0.0015981531   20.962022      19.408154      1.5538675     -1.2028835      17013.424    
    396000   0.95126927     0.0023323615  -0.0028581319   20.949649      19.537014      1.4126349     -1.0098811      16931.814    
    397000   0.93294771     0.0023323615   0.0021242665   20.759327      19.3739        1.3854273     -1.1061164      17731.541    
    398000   0.87017108     0.0023323615  -0.00044695022  20.594879      19.302675      1.2922041     -1.1801718      19304.896    
    399000   1.0418217      0.0023323615   0.00086498271  20.853622      19.306516      1.5471053     -1.1507775      20452.936    
    400000   1.0354339      0.0023323615   0.00027862488  21.003837      19.466218      1.5376193     -1.0313247      20370.384    
    401000   1.0677692      0.0023323615  -0.0012217867   20.83513       19.249493      1.5856372     -1.3084903      19994.35     
    402000   1.0059114      0.0023323615  -0.00081449761  20.751168      19.257389      1.4937784     -1.2051877      19798.519    
    403000   0.94122977     0.0023323615   0.00098349328  20.517499      19.119772      1.3977262     -1.3484314      19307.45     
    404000   0.99420105     0.0023323615   0.0026454775   20.538684      19.062295      1.4763886     -1.3596968      18768.335    
    405000   1.0611235      0.0023323615  -0.00058811441  20.743463      19.167694      1.5757684     -1.2627725      18101.715    
    406000   0.80786046     0.0023323615  -4.0759964e-05  20.240077      19.040404      1.1996728     -1.3714999      17044.971    
    407000   1.0613658      0.0023323615  -0.0012666527   20.928574      19.352446      1.5761282     -1.278148       17898.253    
    408000   0.87713679     0.0023323615  -0.005475234    20.607247      19.304699      1.3025481     -1.2755587      18245.817    
    409000   0.93612459     0.0023323615  -0.00049067822  20.648979      19.258834      1.390145      -1.1982354      19706.97     
    410000   1.0528939      0.0023323615  -0.00044411182  20.997876      19.434328      1.5635475     -1.0414591      19751.2      
    411000   0.99962533     0.0023323615   0.00089802431  21.097166      19.612722      1.4844436     -0.96441171     20603.831    
    412000   0.97133312     0.0023323615  -0.0028987836   20.656699      19.214269      1.4424297     -1.1634504      20834.204    
    413000   0.9659647      0.0023323615  -0.0022420925   20.860186      19.425729      1.4344576     -1.1333074      20925.733    
    414000   0.89360699     0.0023323615  -0.0036906055   20.753316      19.42631       1.3270064     -1.1953609      20058.435    
    415000   1.0070675      0.0023323615   0.00054966721  20.930591      19.435096      1.4954952     -1.146523       19377.849    
    416000   1.0846782      0.0023323615  -0.00080553213  20.664932      19.054185      1.6107471     -1.4078372      18175.85     
    417000   1.0154494      0.0023323615   0.0014771549   20.592903      19.084961      1.5079423     -1.4129075      16957.516    
    418000   0.98349581     0.0023323615   0.0034935267   20.519765      19.059273      1.4604913     -1.325061       16135.737    
    419000   1.1230129      0.0023323615  -0.00097103146  20.821276      19.153602      1.6676741     -1.4055483      15885.308    
    420000   1.1648859      0.0023323615   0.0012833455   20.857483      19.127627      1.7298555     -1.2094473      15215.92     
    421000   1.1275163      0.0023323615   0.00038053941  20.892738      19.218376      1.6743617     -1.2635493      16366.369    
    422000   0.89724107     0.0023323615  -0.00080538251  20.647872      19.315469      1.332403      -1.2475901      17940.113    
    423000   1.028948       0.0023323615  -0.001725112    20.741705      19.213717      1.5279877     -1.2437366      18953        
    424000   1.0752424      0.0023323615  -0.00033669939  20.930158      19.333423      1.5967349     -1.2620049      19259.61     
    425000   0.95708641     0.0023323615  -0.001186886    20.632825      19.211552      1.4212733     -1.3863205      18168.637    
    426000   1.0182212      0.0023323615   0.00032469519  20.685963      19.173904      1.5120585     -1.3007033      16364.796    
    427000   0.91432958     0.0023323615  -0.0014463088   20.387084      19.029305      1.3577794     -1.4504462      14826.505    
    428000   1.03441        0.0023323615   0.0045077465   20.7729        19.236801      1.5360989     -1.2447281      14736.449    
    429000   0.91754223     0.0023323615  -0.0029186147   20.496123      19.133572      1.3625502     -1.3926458      16137.814    
    430000   0.94513622     0.0023323615  -0.0014845862   20.87697       19.473443      1.4035273     -1.1625273      18084.172    
    431000   0.98882781     0.0023323615  -0.0019484075   20.792944      19.324535      1.4684093     -1.1786         20104.133    
    432000   1.0018821      0.0023323615   0.00032976643  20.949979      19.462184      1.4877949     -1.0493901      20701.262    
    433000   1.0392215      0.0023323615  -0.00018705892  20.819646      19.276402      1.5432439     -1.1448623      21632.838    
    434000   1.0075688      0.0023323615   0.00029947459  20.931418      19.435179      1.4962397     -1.1517277      21467.419    
    435000   1.1646652      0.0023323615   0.00249796     20.956546      19.227018      1.7295277     -1.3173727      20336.065    
    436000   1.0024007      0.0023323615   0.0009015513   20.671875      19.18331       1.4885651     -1.3446722      18759.206    
    437000   0.94767018     0.0023323615   0.0019607053   20.615354      19.208064      1.4072902     -1.3317575      17370.448    
    438000   0.99606129     0.0023323615  -0.0022305485   20.566041      19.08689       1.479151      -1.3916693      17196.818    
    439000   0.97805086     0.0023323615   0.00021236358  20.642143      19.189737      1.4524055     -1.2958791      17375.94     
    440000   1.0195644      0.0023323615  -0.0018568015   20.670688      19.156635      1.5140531     -1.3829803      18674.99     
    441000   0.94236536     0.0023323615  -0.0013777773   20.731013      19.331601      1.3994126     -1.155885       19088.883    
    442000   1.0345727      0.0023323615  -0.00027487477  20.875033      19.338692      1.5363404     -1.2008568      20047.565    
    443000   1.1149611      0.0023323615   0.0036504843   20.967859      19.312142      1.6557172     -1.1777226      20766.69     
    444000   0.99852331     0.0023323615  -0.0023930289   20.821511      19.338703      1.4828071     -1.0866187      21053.346    
    445000   0.96573414     0.0023323615  -0.0013457464   20.741148      19.307033      1.4341152     -1.2657446      20649.658    
    446000   1.0964311      0.0023323615   0.00097765837  20.835547      19.207347      1.6282001     -1.250921       19082.836    
    447000   0.90372507     0.0023323615  -0.0036121927   20.584854      19.242822      1.3420317     -1.2736608      18726.559    
    448000   0.96050298     0.0023323615   0.0010775404   20.46468       19.038333      1.4263469     -1.3918231      17727.692    
    449000   1.121159       0.0023323615   0.0018806647   21.007284      19.342363      1.6649212     -1.247058       16578.954    
    450000   1.0896259      0.0023323615  -0.0015393838   20.839654      19.22156       1.6180944     -1.3172678      16263.43     
    451000   0.99539866     0.0023323615   0.0023959344   20.850065      19.371898      1.478167      -1.1291283      17068.989    
    452000   0.94723894     0.0023323615   0.003275564    21.070497      19.663847      1.4066498     -0.90714294     18076.835    
    453000   1.0566981      0.0023323615  -0.0012314043   20.86645       19.297253      1.5691967     -1.1676808      19301.155    
    454000   1.2129203      0.0023323615   0.0020687306   21.27246       19.471274      1.8011867     -1.1094979      20195.123    
    455000   1.0981463      0.0023323615  -0.0024738674   20.948004      19.317257      1.6307472     -1.2024548      20585.258    
    456000   1.0107536      0.0023323615  -0.0052080769   20.610219      19.10925       1.5009691     -1.3793199      20321.325    
    457000   1.1353766      0.0023323615   0.0014865756   20.83694       19.150906      1.6860343     -1.3300121      19142.737    
    458000   1.0173469      0.0023323615   0.00052746175  20.648791      19.138031      1.5107602     -1.307576       18024.842    
    459000   1.143414       0.0023323615  -0.00058183471  20.866869      19.168899      1.6979698     -1.2846104      18070.195    
    460000   1.0467729      0.0023323615  -0.00025501519  20.684341      19.129883      1.5544577     -1.4414805      18390.512    
    461000   0.9444247      0.0023323615  -0.0029035283   20.491385      19.088915      1.4024707     -1.4382985      18376.745    
    462000   0.85131245     0.0023323615   0.0024674684   20.476471      19.212272      1.264199      -1.2447598      18630.425    
    463000   1.02075        0.0023323615   7.8853245e-05  20.715983      19.20017       1.5158138     -1.2291423      18495.507    
    464000   0.90437318     0.0023323615  -0.0020207276   20.787386      19.444392      1.3429942     -1.1180131      19585.124    
    465000   1.1218437      0.0023323615   0.0008553107   20.860378      19.19444       1.6659379     -1.2555299      20468.434    
    466000   0.99981514     0.0023323615  -0.0040212766   20.731473      19.246748      1.4847255     -1.2922736      21123.643    
    467000   0.97048033     0.0023323615  -0.0023706936   20.934438      19.493275      1.4411633     -1.0119403      21941.715    
    468000   1.1984831      0.0023323615  -0.0012849772   21.220842      19.441094      1.7797474     -1.0493175      22076.231    
    469000   0.91107459     0.0023323615  -0.0044320763   20.699023      19.346077      1.3529458     -1.2744067      21373.022    
    470000   0.93593617     0.0023323615  -0.0016393879   20.865006      19.475141      1.3898652     -1.0222547      20658.177    
    471000   1.0437371      0.0023323615   0.0031814527   20.891718      19.341768      1.5499496     -1.2347819      18852.211    
    472000   1.1505779      0.0023323615   0.0030142972   20.837402      19.128794      1.7086082     -1.348157       16726.032    
    473000   0.96586875     0.0023323615  -0.00074836947  20.516632      19.082317      1.4343151     -1.3611913      15501.284    
    474000   0.99817593     0.0023323615   1.5298939e-05  20.549853      19.067561      1.4822913     -1.4790274      15342.895    
    475000   0.95073373     0.0023323615  -0.0016649816   20.43397       19.02213       1.4118396     -1.4523379      16911.632    
    476000   0.94476366     0.0023323615   0.0029716901   20.694682      19.291708      1.402974      -1.2671591      18381.31     
    477000   1.0582329      0.0023323615  -0.0027643022   20.828802      19.257326      1.5714758     -1.25423        17970.368    
    478000   1.0573684      0.0023323615  -0.004247283    20.39019       18.819998      1.5701921     -1.6450244      17425.322    
    479000   1.0397408      0.0023323615   0.0010562287   20.716929      19.172914      1.5440151     -1.3070242      16703.469    
    480000   1.1467557      0.0023323615  -0.00045940041  20.799231      19.096299      1.7029322     -1.283032       16354.355    
    481000   1.0020203      0.0023323615  -0.0036164101   20.917599      19.429599      1.4880001     -1.2058569      15831.024    
    482000   1.0335588      0.0023323615   0.0010097862   20.721744      19.186909      1.5348348     -1.2689078      15499.563    
    483000   1.0065393      0.0023323615   0.0013072151   20.482262      18.987551      1.4947108     -1.4917119      15444.456    
    484000   0.86754151     0.0023323615  -0.0019451898   20.395923      19.107624      1.2882991     -1.3000066      15752.689    
    485000   0.86200503     0.0023323615  -0.00067889325  20.491374      19.211296      1.2800775     -1.1991337      16759.017    
    486000   0.94501714     0.0023323615  -0.001369541    20.728284      19.324934      1.4033505     -1.1743797      17655.999    
    487000   0.91648044     0.0023323615   0.0011924852   20.494645      19.133672      1.3609735     -1.3166802      19700.964    
    488000   0.94887925     0.0023323615   0.0022649413   20.441421      19.032335      1.4090857     -1.3959191      19030.058    
    489000   0.93738239     0.0023323615  -0.0084573595   20.610563      19.21855       1.3920128     -1.4303776      17080.346    
    490000   0.97485848     0.0023323615   0.0020423967   20.563718      19.116053      1.4476649     -1.3079242      16395.867    
    491000   0.88009066     0.0023323615  -0.0021803281   20.488475      19.181541      1.3069346     -1.3027851      16412.14     
    492000   1.046794       0.0023323615   0.0035177571   20.823368      19.268879      1.5544891     -1.2080967      17007.715    
    493000   0.95970978     0.0023323615   0.00088646661  20.638952      19.213783      1.425169      -1.3210725      17755.358    
    494000   1.1941218      0.0023323615   0.001008381    20.951226      19.177955      1.7732709     -1.2684194      18204.501    
    495000   0.9931126      0.0023323615  -0.00083361169  20.365344      18.890571      1.4747722     -1.4360967      17819.128    
    496000   0.87296652     0.0023323615   0.00041221712  20.548457      19.252102      1.2963553     -1.2960206      16576.855    
    497000   0.98519772     0.0023323615   0.0038927326   20.594409      19.131391      1.4630186     -1.3470224      15992.383    
    498000   0.94046789     0.0023323615   0.00018475067  20.727934      19.331339      1.3965948     -1.2303361      16289.365    
    499000   1.0935929      0.0023323615   0.00031426887  20.687134      19.063148      1.6239855     -1.3164296      16594.88     
    500000   1.0314896      0.0023323615  -0.0036495464   20.855554      19.323792      1.531762      -1.0864139      16833.672    
    501000   0.95645492     0.0023323615   0.00010566631  21.018274      19.597938      1.4203356     -0.93755044     18208.158    
    502000   1.1121325      0.0023323615   0.0015277606   21.068014      19.416497      1.6515168     -1.122203       19307.054    
    503000   1.0767474      0.0023323615   0.00058611286  20.99632       19.39735       1.5989699     -1.0972216      20248.489    
    504000   1.0680522      0.0023323615   0.0045177563   20.911037      19.32498       1.5860576     -1.3534855      19555.746    
    505000   0.98762071     0.0023323615  -0.00016586169  21.018967      19.55235       1.4666168     -0.97597936     18874.242    
    506000   1.1395222      0.0023323615  -0.0025530521   21.001921      19.309731      1.6921904     -1.2649601      18032.877    
    507000   0.97417638     0.0023323615   0.0019222065   20.525315      19.078663      1.4466519     -1.4324454      16906.922    
    508000   1.0757225      0.0023323615  -0.0013527266   20.87324       19.275792      1.5974479     -1.2006641      16131.575    
    509000   1.0091759      0.0023323615  -0.0039168812   20.685648      19.187022      1.4986262     -1.267275       16661.82     
    510000   1.0353073      0.0023323615  -0.0052361615   20.678814      19.141383      1.5374314     -1.4607307      18010.704    
    511000   1.0798211      0.0023323615  -0.0010883657   20.747718      19.144184      1.6035344     -1.3490306      17665.937    
    512000   1.0672841      0.0023323615  -0.00031844346  20.617777      19.03286       1.5849168     -1.4519895      17129.339    
    513000   1.2179679      0.0023323615  -0.0010772183   20.963074      19.154391      1.8086823     -1.3787686      16506.145    
    514000   0.89502145     0.0023323615  -0.0017427251   20.520787      19.19168       1.3291069     -1.4341311      16770.658    
    515000   1.1661162      0.0023323615   0.00064364794  20.79699       19.065308      1.7316826     -1.4484432      16765.37     
    516000   0.87330056     0.0023323615  -0.00085975775  20.243075      18.946224      1.2968513     -1.5328435      16911.082    
    517000   0.95015511     0.0023323615   0.0022163045   20.501895      19.090915      1.4109803     -1.3966441      17103.23     
    518000   1.0584155      0.0023323615  -0.001501475    20.839041      19.267294      1.571747      -1.2961503      18006.275    
    519000   1.0731882      0.0023323615  -0.0023564925   20.853977      19.260293      1.5936844     -1.3058658      17904.935    
    520000   0.84758147     0.0023323615  -0.0022936051   20.201408      18.942749      1.2586585     -1.5386942      17933.731    
    521000   0.99055177     0.0023323615  -0.0017737671   20.729761      19.258792      1.4709694     -1.286571       18471.184    
    522000   0.90726109     0.0023323615   0.0053422021   20.212513      18.865231      1.3472827     -1.5526623      19008.126    
    523000   1.1555637      0.0023323615   0.0045744002   20.722305      19.006293      1.7160121     -1.4877185      17804.237    
    524000   0.97126784     0.0023323615  -0.00072925187  20.499437      19.057104      1.4423327     -1.4706855      15983.304    
    525000   1.0251972      0.0023323615   9.7573844e-05  20.64255       19.120132      1.5224179     -1.5285122      15841.62     
    526000   1.0830985      0.0023323615  -0.0011924012   20.974598      19.366196      1.6084012     -1.2438751      16157.32     
    527000   1.0151394      0.0023323615  -0.0014354255   20.886782      19.3793        1.5074821     -1.1593845      17746.872    
    528000   1.0938959      0.0023323615   0.0011397374   20.965287      19.340851      1.6244354     -1.1919644      18923.347    
    529000   1.0795304      0.0023323615   0.0050154858   20.92679       19.323688      1.6031027     -1.2645535      19667.218    
    530000   0.99814541     0.0023323615  -0.0028933736   21.004275      19.522029      1.4822459     -1.0643475      19501.658    
    531000   1.0362412      0.0023323615  -9.2715945e-05  20.803452      19.264634      1.5388182     -1.2240186      18806.113    
    532000   0.97225898     0.0023323615   0.0025571825   20.605024      19.161219      1.4438046     -1.2466161      17262.187    
    533000   1.14274        0.0023323615   0.0038365221   20.76712       19.070151      1.6969689     -1.3961216      15306.559    
    534000   1.0115415      0.0023323615   0.0013617127   20.618136      19.115997      1.5021391     -1.326643       15330.622    
    535000   1.0651484      0.0023323615   0.0041756938   20.785021      19.203276      1.5817453     -1.2502004      17119.03     
    536000   0.98899577     0.0023323615  -0.0070130067   20.889398      19.420739      1.4686587     -1.195352       18502.693    
    537000   1.1380009      0.0023323615  -0.00039985168  21.053616      19.363684      1.6899313     -1.1814987      19200.891    
    538000   0.90169194     0.0023323615  -0.00047850973  20.683984      19.344972      1.3390125     -1.1267985      19249.67     
    539000   0.92569025     0.0023323615   0.0038557486   20.721133      19.346483      1.37465       -1.1305965      18055.587    
    540000   0.99628602     0.0023323615  -0.0041528884   20.566715      19.08723       1.4794847     -1.3554144      16957.021    
    541000   0.91962612     0.0023323615  -0.0028296279   20.515636      19.149991      1.3656448     -1.4158001      16608.124    
    542000   0.9651179      0.0023323615   0.0033800085   20.592876      19.159676      1.4332001     -1.3231144      16958.571    
    543000   0.98466715     0.0023323615  -0.0010005502   20.534203      19.071973      1.4622307     -1.4419843      17941.729    
    544000   0.88280322     0.0023323615   0.0021026668   20.424727      19.113765      1.3109628     -1.4904397      18520.793    
    545000   1.1986071      0.0023323615   0.0022210231   20.967238      19.187306      1.7799316     -1.3575737      16530.669    
    546000   1.0510623      0.0023323615   0.0021112015   20.64455       19.083723      1.5608276     -1.3991361      14574.913    
    547000   0.89252018     0.0023323615   0.0021384122   20.360336      19.034943      1.3253925     -1.4810621      14300.117    
    548000   0.98073563     0.0023323615  -8.6095559e-05  20.48495       19.028558      1.4563924     -1.3818817      15459.349    
    549000   1.2006252      0.0023323615   0.0036660993   20.987371      19.204443      1.7829284     -1.2920787      16292.374    
    550000   1.0457618      0.0023323615  -0.00029608996  20.390819      18.837862      1.5529562     -1.5851985      15357.388    
    551000   0.94804832     0.0023323615   0.0043316566   20.357202      18.94935       1.4078517     -1.5277627      14606.491    
    552000   1.1577772      0.0023323615   0.00080197923  20.680839      18.96154       1.7192991     -1.5385187      14988.06     
    553000   0.92382707     0.0023323615   0.00084491744  20.657385      19.285502      1.3718832     -1.2363305      16377.081    
    554000   0.97262707     0.0023323615  -0.00072099842  20.630293      19.185942      1.4443512     -1.2687687      18023.791    
    555000   0.88867319     0.0023323615  -0.0043832865   20.643751      19.324072      1.3196797     -1.0576404      18770.051    
    556000   1.0376131      0.0023323615   0.0010542685   20.812376      19.27152       1.5408554     -1.1650326      18588.027    
    557000   1.0357068      0.0023323615   1.768749e-05   20.987943      19.449919      1.5380245     -1.0560933      18696.294    
    558000   1.020646       0.0023323615  -0.0013792221   20.753517      19.237858      1.5156592     -1.2992344      19026.92     
    559000   1.0598324      0.0023323615   0.00044309633  20.881332      19.307481      1.5738511     -1.1943205      18402.111    
    560000   1.0328472      0.0023323615   0.003534477    20.747892      19.214114      1.5337781     -1.2617543      18125.84     
    561000   0.97867536     0.0023323615  -0.00027918376  20.610996      19.157663      1.4533329     -1.2968764      17874.672    
    562000   1.1587182      0.0023323615   0.0028324671   20.859634      19.138938      1.7206966     -1.3683697      17128.327    
    563000   1.1103098      0.0023323615   0.002094193    20.881954      19.233144      1.64881       -1.2599985      16117.847    
    564000   1.1741736      0.0023323615  -0.00091975278  20.777144      19.033496      1.7436477     -1.4171372      15969.183    
    565000   0.96018049     0.0023323615  -0.0012187464   20.550543      19.124675      1.425868      -1.4279763      16370.68     
    566000   1.0264287      0.0023323615   0.00016919777  20.826063      19.301817      1.5242467     -1.2784423      17686.488    
    567000   1.0273608      0.0023323615  -0.0044459505   21.113224      19.587593      1.5256308     -0.88002862     17795.644    
    568000   0.97148267     0.0023323615   0.00099901007  20.794732      19.352081      1.4426518     -1.1507629      18132.254    
    569000   1.1066082      0.0023323615  -0.0010518666   20.811889      19.168576      1.6433131     -1.2596816      19044.306    
    570000   1.1314796      0.0023323615   0.00051382981  20.838343      19.158096      1.6802472     -1.2821295      19092.345    
    571000   1.0053727      0.0023323615  -0.00020662823  20.655244      19.162266      1.4929785     -1.3556344      18677.856    
    572000   0.96442462     0.0023323615   9.9604985e-05  20.658921      19.226751      1.4321706     -1.2686415      17850.923    
    573000   1.0345148      0.0023323615   0.0022755763   20.617513      19.081258      1.5362545     -1.3115509      18087.017    
    574000   1.0548548      0.0023323615  -0.0020731863   20.820556      19.254096      1.5664593     -1.1979125      18144.576    
    575000   1.2387379      0.0023323615   0.0013138552   20.990681      19.151155      1.8395258     -1.3914796      18049.693    
    576000   0.92417996     0.0023323615  -0.0045782338   20.546208      19.173801      1.3724072     -1.3591715      17409.778    
    577000   1.0610376      0.0023323615  -0.0010876772   20.622001      19.04636       1.5756408     -1.3833946      16970.297    
    578000   0.90912983     0.0023323615   0.0027653989   20.470958      19.1209        1.3500578     -1.2676631      16762.566    
    579000   0.9305758      0.0023323615  -0.00040385694  20.48622       19.104315      1.3819051     -1.3641814      17693.821    
    580000   0.86877924     0.0023323615  -0.00077232174  20.452282      19.162145      1.2901372     -1.3436892      18441.694    
    581000   0.9844581      0.0023323615  -0.00064011413  20.710898      19.248978      1.4619203     -1.3177784      18156.623    
    582000   1.2172255      0.0023323615   0.0026726619   20.706311      18.898731      1.8075799     -1.4505188      18250.701    
    583000   1.0281677      0.0023323615  -0.00088933506  20.672158      19.145328      1.5268291     -1.4139609      18946.168    
    584000   1.0837372      0.0023323615   0.00092496004  20.582516      18.973166      1.6093498     -1.4824006      19398.095    
    585000   0.88832317     0.0023323615  -0.00037354974  20.653374      19.334214      1.3191599     -1.1426645      19210.347    
    586000   1.0209698      0.0023323615   0.0017581108   20.739372      19.223232      1.5161402     -1.2814021      18444.837    
    587000   1.1252408      0.0023323615   0.0025908881   21.062725      19.391742      1.6709826     -1.0562617      18374.366    
    588000   1.0927809      0.0023323615  -0.00029082922  20.860306      19.237526      1.6227796     -1.2795321      18122.605    
    589000   1.0649245      0.0023323615   0.0019526974   20.54274       18.961327      1.5814129     -1.4656268      17979.973    
    590000   0.96111882     0.0023323615  -0.001532989    20.383839      18.956578      1.4272614     -1.6262596      15805.342    
    591000   0.92990046     0.0023323615  -0.004083012    20.331557      18.950655      1.3809022     -1.4922923      17956.561    
    592000   1.0023785      0.0023323615  -0.0049242918   20.690038      19.201506      1.488532      -1.3822547      18452.839    
    593000   1.0706495      0.0023323615   0.00097102858  20.676766      19.086851      1.5899146     -1.3290003      17743.162    
    594000   1.0583066      0.0023323615   0.0019101178   20.689506      19.11792       1.5715852     -1.4053148      16760.497    
    595000   1.0108857      0.0023323615  -0.0010747894   20.420023      18.918858      1.5011653     -1.5017748      15954.733    
    596000   0.90870096     0.0023323615  -0.0027404226   20.16963       18.820209      1.3494209     -1.5451743      14638.512    
    597000   1.0307305      0.0023323615   0.0011759107   20.607876      19.077241      1.5306348     -1.4247105      15173.015    
    598000   1.1964721      0.0023323615   0.0017416665   20.730169      18.953408      1.776761      -1.371951       17258.901    
    599000   1.0833308      0.0023323615   0.0041080012   20.719379      19.110633      1.6087462     -1.2763432      19088.485    
    600000   1.0951079      0.0023323615   0.0038548961   20.874654      19.248419      1.6262352     -1.2320462      20511.321    
    601000   1.0083263      0.0023323615   0.002622074    20.766457      19.269092      1.4973646     -1.1670048      20289.65     
    602000   1.0929963      0.0023323615   0.0021685855   20.571521      18.948421      1.6230995     -1.4167448      18996.155    
    603000   1.0728109      0.0023323615   0.0028204075   20.626593      19.033469      1.5931242     -1.4336315      16356.531    
    604000   1.112797       0.0023323615  -0.0001609192   21.012066      19.359563      1.6525036     -1.1922198      14477.341    
    605000   0.99272323     0.0023323615  -0.0018488532   20.661608      19.187414      1.474194      -1.3265305      14866.934    
    606000   1.0472727      0.0023323615  -0.0026836888   20.721865      19.166665      1.5552        -1.2602877      16921.847    
    607000   1.0798859      0.0023323615  -0.0021667723   20.856464      19.252833      1.6036305     -1.2218596      18519.838    
    608000   1.1051256      0.0023323615  -0.00097582131  21.406742      19.76563       1.6411114     -0.93389959     19448.206    
    609000   1.0178073      0.0023323615  -0.00093890026  20.653651      19.142207      1.5114438     -1.3505425      18781.448    
    610000   0.96216504     0.0023323615   0.002183822    20.67933       19.250515      1.4288151     -1.2994697      17539.645    
    611000   1.0017436      0.0023323615   0.0031862987   20.881666      19.394076      1.4875892     -1.077365       16884.979    
    612000   0.98124581     0.0023323615  -0.0011203937   20.894706      19.437556      1.45715       -0.98706584     17140.373    
    613000   0.92402165     0.0023323615   0.0020991177   20.718281      19.346108      1.3721721     -1.0866223      17557.002    
    614000   0.96188736     0.0023323615  -0.00022507683  20.581726      19.153323      1.4284027     -1.2095183      18878.947    
    615000   1.097498       0.0023323615   0.0060004509   21.017269      19.387484      1.6297846     -0.97905372     18978.741    
    616000   0.81571527     0.0023323615  -0.0011213505   20.822952      19.611615      1.2113372     -0.93453225     17958.505    
    617000   0.94054087     0.0023323615   9.7935213e-05  20.860434      19.463731      1.3967032     -0.97209846     17802.509    
    618000   1.0122125      0.0023323615   0.0018235993   20.826272      19.323137      1.5031356     -1.0806766      18944.719    
    619000   1.0431179      0.0023323615  -0.002527906    20.897907      19.348877      1.54903       -1.1560478      18837.908    
    620000   1.0390391      0.0023323615  -0.0020689082   20.835048      19.292075      1.5429731     -1.2544971      19535.327    
    621000   1.1778341      0.0023323615   0.00070601297  21.199854      19.450771      1.7490836     -1.0823128      20651.372    
    622000   0.95144772     0.0023323615   0.0012169504   21.007245      19.594345      1.4128999     -1.0699782      20885.484    
    623000   1.1248466      0.0023323615   0.0055927426   21.134966      19.464569      1.6703973     -1.1036448      20555.391    
    624000   0.95790142     0.0023323615  -0.0014541979   20.740008      19.317524      1.4224836     -1.1769781      20502.212    
    625000   0.98888311     0.0023323615   0.0018445074   20.639244      19.170753      1.4684914     -1.2846061      20766.098    
    626000   1.0428324      0.0023323615  -0.00077290129  20.880629      19.332023      1.5486062     -1.2921507      19370.827    
    627000   0.97251657     0.0023323615  -0.00046985913  20.645568      19.201381      1.4441871     -1.3755162      17833.981    
    628000   1.0241949      0.0023323615  -0.0028181494   20.697252      19.176323      1.5209294     -1.3167793      17074.922    
    629000   0.91239482     0.0023323615  -0.0070119337   20.558266      19.20336       1.3549063     -1.3138307      17268.54     
    630000   1.0905733      0.0023323615  -0.0012759873   20.98424       19.364738      1.6195014     -1.1031062      17656.609    
    631000   1.0672034      0.0023323615  -0.00012721982  20.93669       19.351893      1.5847971     -1.2263995      18027.974    
    632000   0.93090061     0.0023323615   0.00098050325  20.716748      19.334361      1.3823874     -1.199609       18170.952    
    633000   1.0051517      0.0023323615  -0.0042327031   20.74689       19.254239      1.4926503     -1.1970788      18848.487    
    634000   0.96205288     0.0023323615   0.0023201056   20.60686       19.178212      1.4286485     -1.2629728      18447.898    
    635000   0.98603564     0.0023323615   0.00049307549  20.689179      19.224917      1.4642629     -1.2284112      16263.499    
    636000   0.98997265     0.0023323615  -0.0039458588   20.583151      19.113041      1.4701094     -1.3364744      15490.063    
    637000   0.98763826     0.0023323615  -0.001271736    20.509685      19.043042      1.4666428     -1.3114489      16826.078    
    638000   1.0355398      0.0023323615  -0.0011957707   20.738145      19.200369      1.5377765     -1.2910125      17616.539    
    639000   1.09524        0.0023323615  -0.0035345546   20.981235      19.354804      1.6264313     -1.1911445      18380.531    
    640000   1.158484       0.0023323615   0.00038869007  20.848643      19.128295      1.7203487     -1.3264535      19290.867    
    641000   1.1742673      0.0023323615   0.00044893556  21.036053      19.292266      1.743787      -1.1586554      18881.743    
    642000   1.0442962      0.0023323615   0.0033713347   21.002787      19.452007      1.5507798     -1.0490895      18045.174    
    643000   0.90748959     0.0023323615   0.00096803431  21.198831      19.851209      1.347622      -0.71151983     18735.582    
    644000   0.92640957     0.0023323615   0.0012045103   20.952145      19.576427      1.3757182     -0.92353446     18890.249    
    645000   1.119497       0.0023323615  -0.00095727264  21.455385      19.792932      1.6624531     -0.77202811     19913.702    
    646000   0.98495167     0.0023323615  -0.0012896086   21.237201      19.774548      1.4626532     -0.8623453      20898.691    
    647000   1.0049378      0.0023323615   0.00097527371  21.034981      19.542648      1.4923326     -0.93120483     20810.751    
    648000   0.93104112     0.0023323615   0.00032788917  21.148029      19.765433      1.3825961     -0.79594924     20090.519    
    649000   1.0052909      0.0023323615   0.0024180041   20.960917      19.46806       1.4928569     -1.05996        18581.248    
    650000   0.85731503     0.0023323615   0.00300904     20.662915      19.389802      1.2731128     -1.0595162      17093.327    
    651000   0.94452361     0.0023323615   0.00034829789  20.774677      19.372059      1.4026176     -1.122161       16996.108    
    652000   1.0462667      0.0023323615   0.0018923367   20.786943      19.233237      1.5537061     -1.2699871      18396.301    
    653000   0.91421128     0.0023323615  -0.0013936133   20.774852      19.417248      1.3576038     -1.0730114      19802.746    
    654000   0.91649343     0.0023323615  -0.0013494317   20.713761      19.352768      1.3609927     -1.1495653      19581.244    
    655000   0.99980569     0.0023323615   0.0012476251   20.852525      19.367814      1.4847114     -1.0834082      19361.937    
    656000   1.0444072      0.0023323615  -4.4003153e-07  21.059519      19.508574      1.5509446     -1.1126496      20407.364    
    657000   1.0856901      0.0023323615  -0.0034082199   20.969052      19.356802      1.6122498     -1.1309252      21569.452    
    658000   0.99568489     0.0023323615  -0.0011676323   20.823762      19.34517       1.4785921     -1.1707957      21380.201    
    659000   1.0262984      0.0023323615   0.00048593626  20.643379      19.119326      1.5240531     -1.3825053      19843.383    
    660000   0.93502719     0.0023323615   0.001716308    20.43036       19.041845      1.3885154     -1.499459       18236.998    
    661000   0.92173718     0.0023323615   3.6657944e-05  20.575862      19.207082      1.3687797     -1.3468756      17802.376    
    662000   1.0233296      0.0023323615  -0.0041511198   20.909933      19.390288      1.5196444     -1.084527       17325.495    
    663000   1.1163879      0.0023323615  -0.0013753399   21.017919      19.360083      1.657836      -1.1552544      17773.256    
    664000   1.053029       0.0023323615   0.0019502395   20.86819       19.304442      1.563748      -1.1442186      18514.791    
    665000   1.0808296      0.0023323615   0.0030683189   20.780774      19.175742      1.605032      -1.2333486      19857.646    
    666000   0.99112384     0.0023323615   0.00026710336  21.040413      19.568594      1.4718189     -1.0716726      20588.234    
    667000   1.0702541      0.0023323615   0.0030314826   20.947814      19.358486      1.5893274     -1.178004       21254.725    
    668000   1.0467877      0.0023323615  -0.0025320246   20.927471      19.372991      1.5544797     -1.1595942      21223.12     
    669000   0.97772891     0.0023323615  -0.00090784778  20.758956      19.307028      1.4519274     -1.1401788      20387.731    
    670000   1.00185        0.0023323615   0.00031200711  20.647607      19.15986       1.4877472     -1.3803379      19674.409    
    671000   1.0731251      0.0023323615   0.0012860524   20.979274      19.385683      1.5935908     -1.0947149      18176.035    
    672000   0.94313765     0.0023323615  -0.0022329711   20.814125      19.413566      1.4005594     -1.1451607      17178.696    
    673000   0.98257385     0.0023323615  -0.00023851483  20.908517      19.449395      1.4591222     -1.1288765      16836.168    
    674000   0.94864406     0.0023323615  -0.00083611413  20.59835       19.189614      1.4087364     -1.3157479      18261.078    
    675000   1.0396715      0.0023323615   0.00075537443  20.696177      19.152265      1.5439121     -1.2918679      19917.994    
    676000   0.96835842     0.0023323615  -0.00029839456  20.665237      19.227225      1.4380123     -1.240468       20501.98     
    677000   0.87379476     0.0023323615  -0.00036199288  20.619832      19.322247      1.2975852     -1.1780695      20724.83     
    678000   0.86204793     0.0023323615  -0.0033100758   20.497164      19.217023      1.2801412     -1.3760823      20355.212    
    679000   0.94026789     0.0023323615  -0.0019769482   20.703859      19.307561      1.3962978     -1.2148058      18862.25     
    680000   1.0860733      0.0023323615   0.0006036432   20.715404      19.102585      1.6128188     -1.3786778      18565.512    
    681000   1.0231661      0.0023323615   0.0039080619   20.534351      19.01495       1.5194016     -1.3962228      18870.691    
    682000   1.0304426      0.0023323615   0.0022535093   20.76374       19.233532      1.5302073     -1.2844539      19255.858    
    683000   1.040619       0.0023323615   0.0044336159   20.873788      19.328469      1.5453192     -1.1945782      19392.219    
    684000   0.99350811     0.0023323615  -0.0015098326   20.713472      19.238113      1.4753595     -1.2329466      19035.898    
    685000   0.92442124     0.0023323615  -0.0032331592   20.788764      19.415998      1.3727655     -1.0905212      18031.59     
    686000   1.0894335      0.0023323615   0.00091155658  20.862816      19.245007      1.6178088     -1.1738488      16664.359    
    687000   1.1253731      0.0023323615   0.00096256647  20.867512      19.196332      1.6711791     -1.1860164      16223.345    
    688000   0.91571772     0.0023323615  -0.0050012201   20.527891      19.16805       1.3598408     -1.3109194      16174.771    
    689000   1.0630373      0.0023323615   0.00064335614  20.526781      18.94817       1.5786104     -1.4943899      16654.741    
    690000   0.90582784     0.0023323615  -0.00010789447  20.548158      19.203003      1.3451543     -1.3387853      16498.541    
    691000   0.89659855     0.0023323615   0.00011960093  20.526467      19.195018      1.3314488     -1.26726        16743.58     
    692000   0.95190383     0.0023323615  -0.00040350095  20.92675       19.513173      1.4135772     -1.048264       18588.819    
    693000   0.86805979     0.0023323615   0.00378283     20.559281      19.270212      1.2890688     -1.2148232      20144.318    
    694000   1.0751863      0.0023323615   0.0040145816   20.656348      19.059696      1.5966517     -1.4373052      20123.613    
    695000   1.0233519      0.0023323615  -0.0032973103   20.850328      19.33065       1.5196776     -1.1078236      18776.056    
    696000   0.94487801     0.0023323615   0.00010844149  20.318834      18.91569       1.4031439     -1.4792053      17215.719    
    697000   1.0489356      0.0023323615  -0.0047354753   20.699678      19.142009      1.5576693     -1.2628893      17361.32     
    698000   0.99861254     0.0023323615  -0.0025090403   20.714304      19.231365      1.4829396     -1.2712812      18642.583    
    699000   1.0144894      0.0023323615  -0.0011946289   20.8288        19.322284      1.5065167     -1.1864173      20168.304    
    700000   0.98098427     0.0023323615   0.00037052958  20.714178      19.257416      1.4567616     -1.2275165      20026.158    
    701000   0.97041369     0.0023323615   0.0011149333   20.65789       19.216826      1.4410643     -1.2217387      20508.894    
    702000   1.0095198      0.0023323615   0.00027232004  20.610333      19.111196      1.499137      -1.322106       20263.543    
    703000   0.9274996      0.0023323615  -2.200909e-05   20.641284      19.263947      1.3773369     -1.2667006      19521.679    
    704000   0.96755811     0.0023323615   0.0020263971   20.592563      19.155739      1.4368238     -1.2971754      18114.981    
    705000   0.88593971     0.0023323615  -0.0012366538   20.726573      19.410953      1.3156205     -1.0304844      18034.545    
    706000   0.93043476     0.0023323615   0.0027939402   20.725068      19.343372      1.3816956     -1.0711151      17897.679    
    707000   0.88409654     0.0023323615  -0.00020916256  20.64251       19.329626      1.3128834     -1.1808517      18599.1      
    708000   1.0849799      0.0023323615   0.0018176422   20.749043      19.137848      1.6111951     -1.27035        19903.648    
    709000   1.0431985      0.0023323615  -0.0011984809   20.926032      19.376882      1.5491498     -1.0944952      21191.79     
    710000   0.94937698     0.0023323615  -0.0012351097   20.793522      19.383697      1.4098248     -1.0583201      22744.45     
    711000   1.0792501      0.0023323615  -0.002843077    21.088796      19.48611       1.6026864     -1.0882858      22539.412    
    712000   1.0104555      0.0023323615   0.00082977455  20.938392      19.437865      1.5005264     -1.113767       21546.812    
    713000   1.0006904      0.0023323615   0.0010937869   20.745984      19.259958      1.4860252     -1.2517686      20589.555    
    714000   1.140324       0.0023323615   0.0028340657   20.665179      18.971798      1.6933811     -1.4202671      18632.083    
    715000   0.94781305     0.0023323615   0.00076651365  20.572409      19.164906      1.4075024     -1.4152898      16180.831    
    716000   1.0877528      0.0023323615  -0.00012413907  20.540813      18.9255        1.615313      -1.553589       15096.527    
    717000   1.0157044      0.0023323615   4.0598516e-05  20.649878      19.141557      1.5083211     -1.3121992      15750.688    
    718000   0.95770524     0.0023323615   0.00052450595  20.627684      19.205491      1.4221923     -1.2707632      17704.718    
    719000   1.0059886      0.0023323615  -0.0059237086   20.960481      19.466588      1.493893      -1.094252       20010.58     
    720000   1.1811063      0.0023323615  -0.0024871187   21.256693      19.50275       1.7539428     -0.96032251     21636.655    
    721000   0.99807134     0.0023323615   2.6665248e-05  20.928978      19.446842      1.4821359     -0.98705065     22986.022    
    722000   1.1129373      0.0023323615   0.0027145559   20.867197      19.214486      1.6527118     -1.3276681      23031.848    
    723000   1.0390801      0.0023323615   0.0033170823   20.81133       19.268296      1.543034      -1.2227439      22366.123    
    724000   0.91994367     0.0023323615   0.00039725763  20.412764      19.046647      1.3661163     -1.4371755      21131.084    
    725000   0.98323232     0.0023323615  -0.00065623066  20.605154      19.145054      1.4601        -1.2560505      18761.523    
    726000   1.0444965      0.0023323615   0.0046083684   20.831833      19.280756      1.5510772     -1.0895006      15751.327    
    727000   1.1441985      0.0023323615  -0.0022627977   20.940287      19.241153      1.6991348     -1.2770565      15647.739    
    728000   0.95943163     0.0023323615  -0.0018127183   20.941624      19.516868      1.424756      -1.1483978      17427.275    
    729000   0.97924272     0.0023323615   0.00040078372  20.777135      19.322959      1.4541754     -1.2064631      18622.642    
    730000   0.93737317     0.0023323615  -0.0024393788   20.366523      18.974524      1.3919992     -1.4251742      19362.959    
    731000   1.0695918      0.0023323615  -0.0011130367   20.947698      19.359355      1.5883438     -1.1765591      19423.39     
    732000   0.97845172     0.0023323615  -0.0003364149   20.743645      19.290645      1.4530008     -1.2835282      20017.471    
    733000   1.1468633      0.0023323615  -0.0026985176   21.000344      19.297252      1.703092      -1.2035773      19950.867    
    734000   1.0005813      0.0023323615   0.00094052049  20.90698       19.421116      1.4858633     -1.0828996      18663.453    
    735000   1.0120762      0.0023323615  -0.0014481568   20.840153      19.33722       1.5029331     -1.2601751      18221.886    
    736000   1.003833       0.0023323615   0.0039606682   20.510555      19.019863      1.4906921     -1.4676981      17376.064    
    737000   0.95505565     0.0023323615  -0.0032280008   20.439793      19.021535      1.4182576     -1.4078236      16760.441    
    738000   1.0479734      0.0023323615  -0.00083830977  20.764352      19.208112      1.5562404     -1.2843335      16859.741    
    739000   1.1187956      0.0023323615   8.6201046e-05  20.87241       19.210998      1.6614114     -1.3186414      16553.896    
    740000   0.91436369     0.0023323615   0.0029585796   20.464268      19.106438      1.3578301     -1.3195557      16902.25     
    741000   0.94944089     0.0023323615   0.0042024892   20.683036      19.273117      1.4099197     -1.2288571      18723.678    
    742000   1.087582       0.0023323615  -0.0020648915   20.774103      19.159044      1.6150592     -1.2310021      19559.839    
    743000   0.98479633     0.0023323615  -0.0032156811   20.786853      19.32443       1.4624226     -1.179827       19552.651    
    744000   1.0708797      0.0023323615   0.0025023916   20.781009      19.190753      1.5902564     -1.3144915      20085.806    
    745000   1.1923305      0.0023323615  -0.0029244333   21.171134      19.400523      1.7706108     -1.2392599      19391.635    
    746000   1.0564008      0.0023323615  -0.0018804831   20.898935      19.330179      1.5687551     -1.2079617      18659.134    
    747000   0.98846764     0.0023323615  -0.0010653997   20.703005      19.23513       1.4678744     -1.1587001      19074.925    
    748000   1.1241251      0.0023323615   0.0024690256   20.976219      19.306893      1.6693257     -1.1915721      17982.678    
    749000   1.2459813      0.0023323615  -0.00060850225  20.959843      19.109561      1.8502823     -1.4023479      19215.332    
    750000   1.0171937      0.0023323615  -0.00030824164  21.029581      19.519049      1.5105326     -1.0695635      18973.94     
    751000   1.0255285      0.0023323615  -0.00076778588  20.794322      19.271412      1.5229099     -1.1334511      18354.798    
    752000   0.94469269     0.0023323615  -0.0010116948   20.496154      19.093285      1.4028686     -1.2234408      18593.689    
    753000   1.0139607      0.0023323615   0.0017702572   20.749319      19.243587      1.5057317     -1.2607387      18170.787    
    754000   1.0399402      0.0023323615  -0.0020977961   20.881354      19.337043      1.5443112     -1.2196517      18345.208    
    755000   1.0357952      0.0023323615   0.00059633094  20.631806      19.09365       1.5381559     -1.2755364      19841.58     
    756000   1.1137874      0.0023323615   0.002261493    21.152934      19.49896       1.6539742     -0.98966693     19794.746    
    757000   1.096205       0.0023323615  -1.0792391e-05  20.930298      19.302433      1.6278644     -1.0293992      20463.234    
    758000   0.95596039     0.0023323615   0.00079535193  20.661343      19.241742      1.4196012     -1.2405796      20190.004    
    759000   1.0797928      0.0023323615   0.0002571848   20.912496      19.309004      1.6034924     -1.1456292      19643.713    
    760000   0.93559376     0.0023323615   0.0016774493   20.503204      19.113847      1.3893567     -1.3084657      19248.3      
    761000   0.99563027     0.0023323615   0.0028543805   20.63123       19.152719      1.4785109     -1.2228112      19008.683    
    762000   1.0081734      0.0023323615   0.00021871951  20.768563      19.271426      1.4971375     -1.3210936      19316.029    
    763000   0.87836916     0.0023323615   0.00080834272  20.731742      19.427364      1.3043782     -1.1399167      19254.876    
    764000   0.85872363     0.0023323615   0.0009202996   20.475046      19.199841      1.2752046     -1.2555611      20084.597    
    765000   0.94753671     0.0023323615   0.0016871638   20.74519       19.338098      1.407092      -1.0690415      20053.841    
    766000   1.0857892      0.0023323615   0.0022435727   20.956557      19.34416       1.612397      -1.2918546      19851.658    
    767000   1.0537331      0.0023323615  -0.0043626462   21.064153      19.499359      1.5647936     -1.0447074      19692.806    
    768000   1.0460159      0.0023323615  -0.0066262623   21.036515      19.483181      1.5533336     -1.1092698      19119.965    
    769000   1.0237971      0.0023323615   0.0005666328   21.047862      19.527524      1.5203386     -1.1250019      19417.536    
    770000   1.0022762      0.0023323615  -0.00045311296  20.833976      19.345596      1.4883801     -1.0549188      19952.491    
    771000   0.94792721     0.0023323615  -0.0018431487   20.702862      19.29519       1.4076719     -1.1087388      20944.491    
    772000   0.87801174     0.0023323615  -0.00020414532  20.64524       19.341392      1.3038474     -1.0902782      21838.284    
    773000   0.98354085     0.0023323615  -0.00076095623  20.61488       19.154321      1.4605582     -1.2619989      21509.087    
    774000   1.0585131      0.0023323615  -0.001570093    20.870969      19.299077      1.5718919     -1.1228887      20762.051    
    775000   0.94436655     0.0023323615   0.002683455    20.681475      19.279091      1.4023843     -1.2119587      20610.324    
    776000   1.0653643      0.0023323615   0.00034236442  20.729164      19.147098      1.582066      -1.2969843      18859.813    
    777000   1.0957188      0.0023323615   0.00019719197  20.955858      19.328715      1.6271424     -1.1458153      17228.194    
    778000   1.0775467      0.0023323615   0.0011366625   20.807322      19.207165      1.6001569     -1.2087458      17473.471    
    779000   1.0519798      0.0023323615   0.0030765228   20.538874      18.976684      1.56219       -1.4379445      18703.311    
    780000   1.0124954      0.0023323615  -0.0045296382   20.664508      19.160952      1.5035557     -1.3460367      19670.842    
    781000   0.99195922     0.0023323615  -0.00081574104  20.66502       19.191961      1.4730594     -1.2640867      19678.537    
    782000   1.0073915      0.0023323615   0.003559144    20.64536       19.149384      1.4959764     -1.481844       17601.528    
    783000   1.011927       0.0023323615   0.0020252187   20.335433      18.832721      1.5027117     -1.6443874      15053.696    
    784000   0.98812865     0.0023323615  -0.00078627859  20.51692       19.049549      1.467371      -1.4400609      14660.019    
    785000   1.0004096      0.0023323615  -0.0011140397   20.600341      19.114733      1.4856082     -1.2306617      15835.128    
    786000   1.112104       0.0023323615   0.0035573587   20.9086        19.257126      1.6514745     -1.2644328      17103.184    
    787000   1.0530091      0.0023323615  -0.0011280036   21.115395      19.551676      1.5637185     -1.0189844      18910.036    
    788000   1.0491659      0.0023323615  -0.0037250742   20.764098      19.206087      1.5580113     -1.2820729      20752.64     
    789000   1.1117258      0.0023323615  -0.0027126505   20.934309      19.283396      1.6509128     -1.1911207      21929.817    
    790000   0.97829298     0.0023323615  -0.001041621    20.788041      19.335276      1.4527651     -1.1582837      21793.082    
    791000   1.0587046      0.0023323615   0.0071295375   21.025267      19.45309       1.5721763     -1.0123946      21832.457    
    792000   0.95846972     0.0023323615   0.0038857676   20.85779       19.434462      1.4233275     -1.0877628      20980.83     
    793000   1.0453254      0.0023323615  -0.001083977    20.75897       19.206662      1.5523083     -1.250705       18455.351    
    794000   1.0372234      0.0023323615   0.00017727764  20.643777      19.1035        1.5402768     -1.3506066      16343.336    
    795000   0.97855308     0.0023323615  -0.0014794573   20.742068      19.288917      1.4531513     -1.1940199      16000.494    
    796000   0.76964379     0.0023323615  -0.0036287335   20.408703      19.265782      1.142921      -1.2479695      17065.948    
    797000   1.0185988      0.0023323615  -0.0019448776   20.82752       19.314901      1.5126192     -1.2158094      18129.011    
    798000   1.1245993      0.0023323615  -0.0026009075   20.810431      19.140401      1.67003       -1.4769612      19561.901    
    799000   0.98222727     0.0023323615  -0.0013310023   20.502126      19.043519      1.4586075     -1.3246937      19450.862    
    800000   0.95497115     0.0023323615   0.0018441252   20.476665      19.058533      1.4181322     -1.3301576      17758.65     
    801000   1.1255885      0.0023323615  -9.4288655e-05  20.798698      19.127199      1.6714989     -1.4617199      16209.776    
    802000   1.0074741      0.0023323615   0.0036300412   20.44102       18.944921      1.496099      -1.4736129      15451.112    
    803000   0.89480966     0.0023323615  -0.00053270116  20.525781      19.196989      1.3287924     -1.3044094      16246.065    
    804000   0.86772686     0.0023323615  -0.002844039    20.61378       19.325205      1.2885744     -1.22291        15554.969    
    805000   0.94301067     0.0023323615  -0.0016575983   20.622737      19.222366      1.4003708     -1.3992407      15220.206    
    806000   1.0202135      0.0023323615   0.0038537623   20.601101      19.086084      1.5150171     -1.4348754      15798.2      
    807000   0.99409263     0.0023323615   0.0024041892   20.47653       19.000302      1.4762276     -1.5049424      15756.481    
    808000   1.0650287      0.0023323615  -0.00072692613  20.609299      19.027731      1.5815677     -1.4744805      16262.511    
    809000   0.94567066     0.0023323615   0.0002831009   20.237268      18.832947      1.4043209     -1.6341241      15739.727    
    810000   1.129907       0.0023323615  -0.0021305958   20.862981      19.185069      1.677912      -1.3102661      16152.253    
    811000   1.0437385      0.0023323615  -0.0029166121   20.802835      19.252884      1.5499517     -1.2554361      16567.434    
    812000   1.0386403      0.0023323615  -0.0002708035   20.534099      18.991718      1.5423808     -1.4093344      16994.537    
    813000   1.0564503      0.0023323615   0.0050360754   20.96916       19.400331      1.5688287     -1.1042722      18206.324    
    814000   0.93012968     0.0023323615  -0.0020931183   20.597075      19.215833      1.3812426     -1.2808542      19370.508    
    815000   1.02994        0.0023323615   0.0019791255   20.644428      19.114967      1.5294608     -1.3392891      19858.812    
    816000   1.1102019      0.0023323615   0.0016677189   21.339856      19.691206      1.6486498     -1.0239099      19627.824    
    817000   1.0998879      0.0023323615  -0.0042171849   20.864548      19.231214      1.6333335     -1.2815599      19625.921    
    818000   1.0411753      0.0023323615  -0.00031628557  20.671786      19.12564       1.5461453     -1.3082435      19158.245    
    819000   0.8946785      0.0023323615  -0.0016617719   20.318589      18.989991      1.3285976     -1.478742       18527.091    
    820000   1.0758508      0.0023323615   0.00025779395  20.642595      19.044956      1.5976384     -1.423171       17530.591    
    821000   1.1352992      0.0023323615  -0.00076479585  20.7336        19.047681      1.6859193     -1.3909538      16474.536    
    822000   0.97718128     0.0023323615  -1.6794576e-05  20.523686      19.072572      1.4511142     -1.2340305      16496.881    
    823000   0.93219614     0.0023323615   0.0017582249   20.549522      19.165211      1.3843113     -1.394986       17586.551    
    824000   1.1293198      0.0023323615   5.8646071e-05  20.852347      19.175307      1.6770399     -1.2834433      19412.793    
    825000   1.017623       0.0023323615  -0.0030524052   20.81415       19.30298       1.5111702     -1.2782666      20578.23     
    826000   1.0732956      0.0023323615   0.0017966276   20.762403      19.168559      1.593844      -1.3330425      19835.626    
    827000   0.92016939     0.0023323615   9.5437659e-05  20.494991      19.12854       1.3664516     -1.3977266      19592.336    
    828000   0.88350712     0.0023323615  -0.0017416517   20.548622      19.236614      1.3120081     -1.305715       18870.231    
    829000   1.0446982      0.0023323615  -0.002715608    20.761304      19.209927      1.5513769     -1.1616272      16820.971    
    830000   0.98336567     0.0023323615   8.564372e-05   20.392565      18.932267      1.460298      -1.4241427      16159.826    
    831000   1.2400544      0.0023323615   0.00089633699  20.987385      19.145905      1.8414808     -1.3776979      16465.267    
    832000   0.94542847     0.0023323615  -0.0020716314   20.70942       19.305459      1.4039613     -1.2546577      17347.184    
    833000   1.00103        0.0023323615   0.00070108462  20.332616      18.846087      1.4865296     -1.5863375      16770.1      
    834000   0.93234139     0.0023323615   0.00027566004  20.393026      19.0085        1.384527      -1.4323101      16348.122    
    835000   1.1803872      0.0023323615  -0.00052156757  20.984694      19.231819      1.752875      -1.2381649      16697.771    
    836000   1.0540611      0.0023323615  -0.0031489361   20.994912      19.429632      1.5652807     -1.2082755      17565.354    
    837000   1.0535715      0.0023323615   0.0016433936   20.866653      19.3021        1.5645537     -1.2778537      19040.517    
    838000   0.93323922     0.0023323615  -0.0041204291   20.819161      19.433301      1.3858602     -1.206627       20516.469    
    839000   1.1716286      0.0023323615   0.0031984299   21.08041       19.340542      1.7398684     -1.1823344      20049.019    
    840000   0.96697202     0.0023323615   0.0015052409   20.647251      19.211298      1.4359535     -1.2728362      18610.538    
    841000   0.99000665     0.0023323615  -0.0027152439   20.584961      19.114801      1.4701599     -1.2271775      17082.059    
    842000   0.97576002     0.0023323615  -0.0021649344   20.581552      19.132549      1.4490036     -1.3269365      17562.73     
    843000   1.1372775      0.0023323615  -0.0016667305   21.042851      19.353994      1.6888571     -1.1933076      18687.336    
    844000   0.97509291     0.0023323615  -0.000979732    20.751266      19.303253      1.448013      -1.1244432      20124.039    
    845000   1.0008091      0.0023323615  -0.00083772731  20.81555       19.329348      1.4862015     -1.0904178      21706.46     
    846000   0.95058271     0.0023323615  -0.0010431004   20.734728      19.323112      1.4116153     -1.0915096      21484.66     
    847000   1.0420503      0.0023323615   0.00046998649  20.791676      19.244231      1.5474446     -1.1177498      21252.407    
    848000   0.9809217      0.0023323615   0.0045585006   20.86876       19.412091      1.4566687     -1.1616593      20933.505    
    849000   1.0336167      0.0023323615   0.0034228706   20.909545      19.374624      1.5349208     -1.1170717      18845.427    
    850000   1.0329763      0.0023323615  -0.00024528783  20.581631      19.047661      1.5339699     -1.4032111      16167.789    
    851000   1.0635695      0.0023323615  -0.0020867168   20.817017      19.237616      1.5794007     -1.2416804      16108.124    
    852000   1.0506586      0.0023323615   0.0015918386   20.754789      19.194561      1.560228      -1.3656077      18229.447    
    853000   1.1320005      0.0023323615   0.0023263412   20.901883      19.220862      1.6810207     -1.3023918      18589.599    
    854000   1.0488998      0.0023323615   0.0012180144   20.764203      19.206587      1.5576163     -1.2814138      17661.17     
    855000   0.92099675     0.0023323615  -0.00069188542  20.705433      19.337753      1.3676802     -1.1373747      15891.274    
    856000   0.91153421     0.0023323615   0.00054728598  20.87872       19.525092      1.3536283     -0.93280508     15879.419    
    857000   0.99238033     0.0023323615   0.0039368617   20.903493      19.429809      1.4736848     -1.0565921      17185.088    
    858000   0.91145798     0.0023323615   0.00035097006  20.597423      19.243908      1.3535151     -1.2272424      19144.697    
    859000   1.0240216      0.0023323615   0.00085438898  20.747258      19.226586      1.520672      -1.1715978      20280.613    
    860000   0.86419133     0.0023323615  -0.00033311909  20.653711      19.370387      1.2833241     -1.1191948      20340.367    
    861000   1.0369565      0.0023323615  -0.0034764418   21.027508      19.487627      1.5398805     -1.0316147      21136.033    
    862000   0.93930556     0.0023323615   0.00037224246  20.628317      19.233449      1.3948688     -1.162316       21828.054    
    863000   0.91497785     0.0023323615  -0.002188927    20.702315      19.343573      1.3587421     -1.0911685      20659.104    
    864000   0.94034438     0.0023323615   0.00086157946  20.628888      19.232476      1.3964114     -1.2989604      20441.823    
    865000   0.84436314     0.0023323615  -0.0048378519   20.697792      19.443913      1.2538793     -1.109571       19582.899    
    866000   1.0067096      0.0023323615  -0.002225036    20.828792      19.333828      1.4949638     -1.0981046      19446.811    
    867000   0.80801977     0.0023323615  -0.00097961232  20.385513      19.185604      1.1999094     -1.327488       18253.117    
    868000   0.97323738     0.0023323615  -0.0014055883   20.502634      19.057376      1.4452575     -1.3725439      18879.561    
    869000   0.94679419     0.0023323615   0.00088750886  20.51948       19.113491      1.4059894     -1.3971975      18456.818    
    870000   1.0029722      0.0023323615   0.00073055066  20.676011      19.186597      1.4894138     -1.3222162      18991.106    
    871000   1.0406385      0.0023323615   0.0019074654   20.737302      19.191954      1.5453481     -1.256157       18798.172    
    872000   0.91458605     0.0023323615   0.0079878163   20.342619      18.984458      1.3581603     -1.4617307      18482.561    
    873000   1.0308323      0.0023323615   0.00062191556  20.594121      19.063335      1.530786      -1.4720764      18913.977    
    874000   0.94679433     0.0023323615   0.0017365783   20.761864      19.355875      1.4059896     -1.2607476      19670.141    
    875000   0.88387512     0.0023323615  -0.00041458791  20.516267      19.203712      1.3125546     -1.2719788      18991.481    
    876000   1.042071       0.0023323615  -0.0021713883   20.684103      19.136627      1.5474754     -1.294863       18638.141    
    877000   1.00904        0.0023323615   0.00067308219  20.447529      18.949104      1.4984244     -1.4767176      17611.469    
    878000   0.96951708     0.0023323615   0.0016856931   20.563232      19.123499      1.4397329     -1.4130534      17092.315    
    879000   0.912163       0.0023323615   0.0014825777   20.596921      19.242359      1.3545621     -1.3521434      16592.894    
    880000   0.92806947     0.0023323615   0.0041415511   20.572716      19.194533      1.3781832     -1.251344       17116.787    
    881000   0.97045966     0.0023323615   0.0022381532   20.61921       19.178077      1.4411326     -1.2212487      19019.988    
    882000   1.0218375      0.0023323615   0.00061069574  20.442679      18.925251      1.5174287     -1.4337384      19596.737    
    883000   1.0385068      0.0023323615  -0.0014424925   20.798746      19.256563      1.5421826     -1.2795486      18803.431    
    884000   1.0327108      0.0023323615   0.0021467554   20.762236      19.22866       1.5335755     -1.1864882      16986.43     
    885000   1.1020624      0.0023323615   0.0024606788   21.025034      19.388471      1.6365627     -1.1461589      16092.889    
    886000   1.1334844      0.0023323615   0.0029080393   20.990391      19.307167      1.6832243     -1.108204       16204.526    
    887000   0.96540775     0.0023323615   0.0040635427   20.9811        19.547469      1.4336305     -0.91834658     17305.534    
    888000   1.0521108      0.0023323615  -0.0052762467   21.116451      19.554067      1.5623845     -1.0323637      18875.584    
    889000   1.0212986      0.0023323615   0.0016631785   21.054393      19.537764      1.5166284     -1.0829813      19666.192    
    890000   0.90912752     0.0023323615  -0.0015474171   20.714437      19.364383      1.3500544     -1.1336101      19534.276    
    891000   0.99763927     0.0023323615  -0.00012654049  20.831317      19.349823      1.4814943     -1.0988605      18819.54     
    892000   0.88956154     0.0023323615   0.0020249518   20.632203      19.311205      1.3209989     -1.1287003      18696.049    
    893000   1.0190998      0.0023323615   0.001734742    20.754952      19.241588      1.5133632     -1.1657892      19008.502    
    894000   0.96543342     0.0023323615   0.0023209422   20.924         19.490332      1.4336686     -0.97479788     19598.214    
    895000   1.0647614      0.0023323615   0.00075308862  20.902393      19.321222      1.5811707     -1.0934013      19481.123    
    896000   1.0716898      0.0023323615   0.0061790468   20.813438      19.221979      1.5914593     -1.2319717      19032.9      
    897000   1.2532096      0.0023323615   0.0058984088   21.107879      19.246863      1.8610162     -1.2421352      18069.835    
    898000   0.99055763     0.0023323615  -0.0016820025   20.598982      19.128004      1.4709781     -1.3522771      17055.709    
    899000   0.85219659     0.0023323615   0.00055430258  20.147828      18.882316      1.2655119     -1.5147067      16141.561    
    900000   1.1764107      0.0023323615   0.002014489    20.815306      19.068336      1.7469698     -1.307398       15211.118    
    901000   0.91866681     0.0023323615   0.00032113597  20.469539      19.105319      1.3642202     -1.2922641      15119.598    
    902000   1.0260096      0.0023323615   0.0025894148   20.927882      19.404258      1.5236243     -1.0784077      15887.042    
    903000   1.0664513      0.0023323615   0.00050611605  20.778906      19.195226      1.5836802     -1.3307532      17002.584    
    904000   0.97878512     0.0023323615  -0.0011036311   20.624708      19.171212      1.4534959     -1.2965148      17708.918    
    905000   1.0354985      0.0023323615  -0.00066323669  20.843955      19.30624       1.5377153     -1.1698626      16872.948    
    906000   0.91986452     0.0023323615   0.0014565047   20.764322      19.398323      1.3659988     -1.2041581      16981.566    
    907000   0.93058858     0.0023323615  -0.00014863818  20.550805      19.168881      1.381924      -1.3560236      18005.07     
    908000   0.97445985     0.0023323615   0.00033505462  20.626836      19.179763      1.4470729     -1.3475186      18554.865    
    909000   0.87804268     0.0023323615   0.001927357    20.769411      19.465517      1.3038934     -1.0474429      18130.463    
    910000   0.92044404     0.0023323615  -0.0014451617   20.551691      19.184832      1.3668594     -1.2888086      17910.705    
    911000   0.96843846     0.0023323615   0.0036770501   20.504402      19.066271      1.4381311     -1.3892167      17156.586    
    912000   1.0464602      0.0023323615  -0.0018895409   20.555541      19.001547      1.5539934     -1.4550946      15608.769    
    913000   1.0268871      0.0023323615   0.0041386487   20.58168       19.056753      1.5249274     -1.4668506      15253.143    
    914000   0.91067039     0.0023323615   0.0018817295   20.562307      19.209962      1.3523455     -1.3041         15222.922    
    915000   0.95897613     0.0023323615   0.0020081626   20.593366      19.169287      1.4240796     -1.3099675      16669.23     
    916000   1.1039353      0.0023323615  -0.0024322546   20.811647      19.172303      1.639344      -1.3576334      18849.669    
    917000   1.076364       0.0023323615  -0.0044059716   20.909466      19.311065      1.5984006     -1.1770471      20091.025    
    918000   1.0404854      0.0023323615  -0.0018625827   20.914893      19.369772      1.5451207     -1.1508891      19634.083    
    919000   1.087485       0.0023323615  -0.0015008061   21.225478      19.610562      1.6149152     -0.95298922     19434.274    
    920000   1.0078884      0.0023323615  -0.0014961013   21.085198      19.588484      1.4967143     -0.85030834     18122.135    
    921000   1.0124182      0.0023323615  -0.0034672315   21.02046       19.517019      1.503441      -1.0220002      16502.016    
    922000   1.0341811      0.0023323615  -0.0018242816   20.592497      19.056738      1.5357589     -1.3865706      15951.826    
    923000   1.069004       0.0023323615   0.001219662    20.729329      19.141858      1.5874709     -1.3651951      16687.878    
    924000   0.99121099     0.0023323615   0.0020835714   20.425392      18.953443      1.4719483     -1.4578935      16896.464    
    925000   1.0737522      0.0023323615  -0.0031711214   20.536781      18.942259      1.5945219     -1.4701913      16869.37     
    926000   0.89978782     0.0023323615  -0.00271364     20.597438      19.261253      1.3361849     -1.3172792      16619.691    
    927000   1.0603119      0.0023323615  -0.0016039091   20.888763      19.3142        1.5745632     -1.187302       18198.978    
    928000   1.0783123      0.0023323615   0.00053639359  20.717632      19.116338      1.6012938     -1.3411936      20059.478    
    929000   0.93676409     0.0023323615  -0.0019343318   20.711984      19.32089       1.3910947     -1.1889526      19662.453    
    930000   0.88563308     0.0023323615   0.0024396905   20.699841      19.384675      1.3151651     -1.2091095      19398.064    
    931000   0.92445421     0.0023323615   0.0031070625   20.670689      19.297875      1.3728145     -1.2208366      19561.833    
    932000   0.97490105     0.0023323615  -0.0001112465   20.953095      19.505367      1.4477281     -1.161064       20111.368    
    933000   1.0339706      0.0023323615   0.00047441021  20.787599      19.252152      1.5354464     -1.2049106      20246.299    
    934000   0.9898371      0.0023323615   0.00063153247  20.816708      19.3468        1.4699081     -1.204725       19763.79     
    935000   0.967157       0.0023323615  -0.00086704367  20.941176      19.504948      1.4362281     -1.0959596      19293.239    
    936000   1.1098296      0.0023323615   0.0010606679   20.974872      19.326775      1.6480969     -1.1479921      19536.486    
    937000   0.91348693     0.0023323615   0.0020905222   20.552158      19.19563       1.3565281     -1.3892102      19000.187    
    938000   1.1624428      0.0023323615   0.0029580626   21.127504      19.401276      1.7262275     -1.1197155      18767.735    
    939000   0.97431692     0.0023323615   0.0012018687   20.589169      19.142308      1.4468606     -1.2648794      18386.548    
    940000   0.93592594     0.0023323615   0.00073753425  20.64749       19.25764       1.38985       -1.2860865      17759.077    
    941000   0.92187839     0.0023323615  -0.0026548624   20.764985      19.395996      1.3689894     -1.1428118      18115.286    
    942000   0.96399814     0.0023323615   0.00017248821  20.645372      19.213834      1.4315372     -1.3100602      18373.619    
    943000   1.057433       0.0023323615   0.001675801    20.746974      19.176686      1.570288      -1.2415886      19037.267    
    944000   0.99950935     0.0023323615  -0.00031094507  20.81159       19.327319      1.4842714     -1.1349628      19622.657    
    945000   1.0129852      0.0023323615   0.0012008782   20.965307      19.461024      1.504283      -1.0295462      19594.248    
    946000   1.0299202      0.0023323615   0.0020759593   21.049624      19.520192      1.5294314     -0.99718057     18781.593    
    947000   1.0464207      0.0023323615  -0.0035387905   20.935144      19.38121       1.5539347     -1.1564246      18367.235    
    948000   1.0679305      0.0023323615   0.0028513768   20.812795      19.226918      1.5858767     -1.2083211      18577.247    
    949000   1.0477818      0.0023323615  -0.0023244649   20.802197      19.246241      1.555956      -1.3386099      18705.449    
    950000   0.89299281     0.0023323615   0.0025793002   20.48544       19.159345      1.3260943     -1.4225442      18302.603    
    951000   0.97634707     0.0023323615   0.00048265792  20.653978      19.204103      1.4498754     -1.2998971      17241.612    
    952000   1.0633888      0.0023323615  -0.0012923208   20.470557      18.891425      1.5791323     -1.4668682      16653.366    
    953000   1.1691363      0.0023323615   0.0039509912   20.670347      18.934179      1.7361674     -1.5374832      15868.917    
    954000   0.82311678     0.0023323615  -0.0065156222   20.122504      18.900176      1.2223284     -1.5253837      15912.659    
    955000   1.0803948      0.0023323615   0.003268182    20.688552      19.084165      1.6043863     -1.4222315      16373.317    
    956000   0.97170532     0.0023323615   0.0015634123   20.438613      18.995631      1.4429824     -1.3738859      17484.705    
    957000   0.99977603     0.0023323615  -0.00025401786  20.797702      19.313035      1.4846674     -1.128843       18247.911    
    958000   0.97382206     0.0023323615   0.0035603653   20.48564       19.039514      1.4461258     -1.3707153      18574.211    
    959000   0.88534182     0.0023323615  -0.0015773587   20.480286      19.165553      1.3147326     -1.2373586      18156.66     
    960000   0.91258467     0.0023323615   0.0012807961   20.693497      19.338309      1.3551882     -1.144652       17515.818    
    961000   0.96221404     0.0023323615   0.0031564777   20.412721      18.983833      1.4288878     -1.4764456      17643.977    
    962000   0.99384896     0.0023323615  -0.0014522845   20.692393      19.216528      1.4758657     -1.3891246      16814.644    
    963000   0.85574905     0.0023323615   0.0012534961   20.546704      19.275916      1.2707873     -1.2216291      16070.308    
    964000   0.9231287      0.0023323615  -0.0020471068   20.724716      19.35387       1.3708461     -1.1197767      16185.179    
    965000   1.0949467      0.0023323615   0.0047093843   20.980472      19.354476      1.6259958     -1.1710452      17148.229    
    966000   0.99167517     0.0023323615  -0.0003230517   20.673197      19.200559      1.4726376     -1.2538797      19472.165    
    967000   1.0947585      0.0023323615   0.0017045759   21.0514        19.425684      1.6257164     -1.0314583      20833.495    
    968000   1.0180323      0.0023323615  -0.00092002818  20.836272      19.324494      1.5117779     -1.2229506      21538.364    
    969000   1.0863676      0.0023323615  -0.0019965534   20.961067      19.347812      1.6132559     -1.2212621      21236.586    
    970000   0.93226122     0.0023323615   0.0045233646   20.531034      19.146626      1.3844079     -1.2946822      21084.201    
    971000   1.1227446      0.0023323615  -0.0011061489   20.852403      19.185127      1.6672757     -1.3377847      18677.381    
    972000   0.93020894     0.0023323615  -0.0037194486   20.456709      19.075349      1.3813603     -1.4354104      17100.695    
    973000   1.0180145      0.0023323615  -0.0010756257   20.963007      19.451256      1.5117515     -1.1498798      16205.634    
    974000   0.88017437     0.0023323615   0.001288377    20.564498      19.257439      1.3070589     -1.3607943      17294.211    
    975000   0.97679007     0.0023323615   0.0019010608   20.577562      19.127029      1.4505333     -1.3014801      19181.721    
    976000   0.98666545     0.0023323615   0.00051760114  20.913617      19.448419      1.4651982     -1.0095734      20877.668    
    977000   1.035336       0.0023323615  -8.1529067e-05  20.813783      19.276309      1.537474      -1.2037276      22266.448    
    978000   1.0449668      0.0023323615  -0.0010725929   20.935035      19.383259      1.5517757     -1.0304879      22297.532    
    979000   0.9513824      0.0023323615  -0.0026010506   20.66027       19.247467      1.4128029     -1.3076799      21666.649    
    980000   1.0166297      0.0023323615  -0.00051142774  20.766606      19.256911      1.5096951     -1.1779895      20473.783    
    981000   0.87796606     0.0023323615  -0.00137528     20.697395      19.393615      1.3037796     -1.044593       19032.584    
    982000   1.0516408      0.0023323615  -2.646202e-05   20.896593      19.334906      1.5616866     -1.1574346      18434.538    
    983000   0.94574882     0.0023323615   0.0046706178   20.673541      19.269104      1.404437      -1.3242207      17886.755    
    984000   1.1190854      0.0023323615   0.0047203032   20.7682        19.106359      1.6618418     -1.2991629      16398.62     
    985000   1.003585       0.0023323615   0.0016723976   20.61803       19.127707      1.4903237     -1.3360025      17063.909    
    986000   1.1258062      0.0023323615  -0.0015083457   20.745391      19.073569      1.6718223     -1.4146916      19179.848    
    987000   0.98039268     0.0023323615  -0.00026613662  20.408657      18.952774      1.4558831     -1.4717812      19636.296    
    988000   1.0103058      0.0023323615   0.0031731402   20.725216      19.224912      1.5003041     -1.2479058      18895.112    
    989000   1.0609351      0.0023323615  -0.00015948148  20.911225      19.335736      1.5754886     -1.2837733      16996.331    
    990000   1.0362634      0.0023323615  -0.0026708312   21.207446      19.668594      1.5388511     -1.0238235      17645.661    
    991000   1.0517311      0.0023323615   0.003211676    20.95015       19.388329      1.5618206     -1.1797882      19312.744    
    992000   1.0940532      0.0023323615   0.0057459773   20.902689      19.27802       1.6246689     -1.2796424      19801.029    
    993000   1.0775851      0.0023323615   5.1970308e-05  21.05077       19.450556      1.6002138     -1.1637479      20485.041    
    994000   1.1452627      0.0023323615  -0.00050891824  21.063632      19.362917      1.7007152     -1.1338952      20578.212    
    995000   0.91340537     0.0023323615   0.00012150965  20.665995      19.309588      1.356407      -1.1602538      19861.55     
    996000   0.97633764     0.0023323615   0.0021600571   20.500874      19.051012      1.4498614     -1.3352433      20081.485    
    997000   0.94225879     0.0023323615  -0.0017555323   20.714967      19.315712      1.3992543     -1.1993851      18775.883    
    998000   0.90629861     0.0023323615   0.00022502367  20.70648       19.360627      1.3458534     -1.1044877      16384.953    
    999000   1.073572       0.0023323615   0.003534211    20.689935      19.095681      1.5942544     -1.4070325      15710.493    
   1000000   0.99650106     0.0023323615   0.0049996438   20.740824      19.26102       1.4798041     -1.2883501      16369.751    
Loop time of 55.1456 on 1 procs for 1000000 steps with 100 atoms

Performance: 7833814.099 tau/day, 18133.829 timesteps/s
99.8% CPU use with 1 MPI tasks x 1 OpenMP threads

MPI task timing breakdown:
Section |  min time  |  avg time  |  max time  |%varavg| %total
---------------------------------------------------------------
Pair    | 41.726     | 41.726     | 41.726     |   0.0 | 75.67
Bond    | 1.4591     | 1.4591     | 1.4591     |   0.0 |  2.65
Neigh   | 5.1174     | 5.1174     | 5.1174     |   0.0 |  9.28
Comm    | 3.4866     | 3.4866     | 3.4866     |   0.0 |  6.32
Output  | 0.28319    | 0.28319    | 0.28319    |   0.0 |  0.51
Modify  | 2.6556     | 2.6556     | 2.6556     |   0.0 |  4.82
Other   |            | 0.4173     |            |       |  0.76

Nlocal:            100 ave         100 max         100 min
Histogram: 1 0 0 0 0 0 0 0 0 0
Nghost:            242 ave         242 max         242 min
Histogram: 1 0 0 0 0 0 0 0 0 0
Neighs:           3763 ave        3763 max        3763 min
Histogram: 1 0 0 0 0 0 0 0 0 0

Total # of neighbors = 3763
Ave neighs/atom = 37.63
Ave special neighs/atom = 1.98
Neighbor list builds = 98030
Dangerous builds = 81197

write_data      ${outputfile_assembled} nofix nocoeff
write_data      7_assembled.data nofix nocoeff
System init for write_data ...
Generated 0 of 6 mixed pair_coeff terms from geometric mixing rule

Total wall time: 0:00:56
