LAMMPS (23 Jun 2022 - Update 1)
OMP_NUM_THREADS environment is not set. Defaulting to 1 thread. (src/comm.cpp:98)
  using 1 OpenMP thread(s) per MPI task


variable        runtime equal 1000000
variable		subsample_rate equal 1000

variable		outputfile_created string '3_created.data'
variable		outputfile_relaxed string '5_relaxed.data'
variable		outputfile_selfasb string '6_a_self_assemble.lammpstrj'
variable		outputfile_trajlin string '6_b_trajlin.data'
variable		outputfile_assembled string '7_assembled.data'

units           lj
atom_style      full
dimension       3
boundary        p p p
timestep        0.005

read_data       ${outputfile_created}
read_data       3_created.data
Reading data file ...
  orthogonal box = (0 0 0) to (35 35 35)
  1 by 1 by 1 MPI processor grid
  reading atoms ...
  100 atoms
  reading velocities ...
  100 velocities
  scanning bonds ...
  1 = max bonds/atom
  reading bonds ...
  99 bonds
Finding 1-2 1-3 1-4 neighbors ...
  special bond factors lj:    0        0        0       
  special bond factors coul:  0        0        0       
     2 = max # of 1-2 neighbors
     2 = max # of 1-3 neighbors
     4 = max # of 1-4 neighbors
     6 = max # of special neighbors
  special bonds CPU = 0.000 seconds
  read_data CPU = 0.005 seconds

bond_style      fene
bond_coeff      * 30.0 1.5 1.0 1.0
special_bonds   fene
Finding 1-2 1-3 1-4 neighbors ...
  special bond factors lj:    0        1        1       
  special bond factors coul:  0        1        1       
     2 = max # of 1-2 neighbors
     6 = max # of special neighbors
  special bonds CPU = 0.000 seconds

variable        Temp equal 1.0
variable        velSeed equal 926458

velocity        all create ${Temp} ${velSeed}
velocity        all create 1 ${velSeed}
velocity        all create 1 926458

### Output
thermo_style    custom step temp density press etotal pe ke epair spcpu
thermo          1000

###########################################################################
# Soft relaxation (to remove overlaps of particles)
######################################################################

pair_style      soft 1.0
pair_coeff      * * 0.0
variable        prefactor equal ramp(0,300)
fix             rampSoft all adapt 1 pair soft a * * v_prefactor

minimize        0.0 1.0e-8 1000 100000
WARNING: Using 'neigh_modify every 1 delay 0 check yes' setting during minimization (src/min.cpp:187)
Generated 0 of 6 mixed pair_coeff terms from geometric mixing rule
Neighbor list info ...
  update every 1 steps, delay 0 steps, check yes
  max neighbors/atom: 2000, page size: 100000
  master list distance cutoff = 1.3
  ghost atom cutoff = 1.3
  binsize = 0.65, bins = 54 54 54
  1 neighbor lists, perpetual/occasional/extra = 1 0 0
  (1) pair soft, perpetual
      attributes: half, newton on
      pair build: half/bin/newton
      stencil: half/bin/3d
      bin: standard
WARNING: Communication cutoff 1.3 is shorter than a bond length based estimate of 1.7550000000000001. This may lead to errors. (src/comm.cpp:727)
Per MPI rank memory allocation (min/avg/max) = 8.346 | 8.346 | 8.346 Mbytes
   Step          Temp         Density         Press          TotEng         PotEng         KinEng         E_pair         S/CPU     
         0   1              0.0023323615  -0.0039617958   21.524174      20.039174      1.485          0              0            
       362   1              0.0023323615   0.0023090379   21.485548      20.000548      1.485          0              67657.304    
Loop time of 0.00535275 on 1 procs for 362 steps with 100 atoms

96.3% CPU use with 1 MPI tasks x 1 OpenMP threads

Minimization stats:
  Stopping criterion = force tolerance
  Energy initial, next-to-last, final = 
      20.0391741078675   20.0005480767337   20.0005480767337
  Force two-norm initial, final = 11.878422 7.9509778e-09
  Force max component initial, final = 6.6117807 1.3572772e-09
  Final line search alpha, max atom move = 1 1.3572772e-09
  Iterations, force evaluations = 362 738

MPI task timing breakdown:
Section |  min time  |  avg time  |  max time  |%varavg| %total
---------------------------------------------------------------
Pair    | 0.00022344 | 0.00022344 | 0.00022344 |   0.0 |  4.17
Bond    | 0.0023299  | 0.0023299  | 0.0023299  |   0.0 | 43.53
Neigh   | 0.0015945  | 0.0015945  | 0.0015945  |   0.0 | 29.79
Comm    | 0.00019654 | 0.00019654 | 0.00019654 |   0.0 |  3.67
Output  | 0          | 0          | 0          |   0.0 |  0.00
Modify  | 0          | 0          | 0          |   0.0 |  0.00
Other   |            | 0.001008   |            |       | 18.84

Nlocal:            100 ave         100 max         100 min
Histogram: 1 0 0 0 0 0 0 0 0 0
Nghost:             20 ave          20 max          20 min
Histogram: 1 0 0 0 0 0 0 0 0 0
Neighs:              0 ave           0 max           0 min
Histogram: 1 0 0 0 0 0 0 0 0 0

Total # of neighbors = 0
Ave neighs/atom = 0
Ave special neighs/atom = 1.98
Neighbor list builds = 17
Dangerous builds = 0

fix             nvtSoft all nvt temp ${Temp} ${Temp} 0.5
fix             nvtSoft all nvt temp 1 ${Temp} 0.5
fix             nvtSoft all nvt temp 1 1 0.5
run             100000
Generated 0 of 6 mixed pair_coeff terms from geometric mixing rule
WARNING: Communication cutoff 1.3 is shorter than a bond length based estimate of 1.7550000000000001. This may lead to errors. (src/comm.cpp:727)
Per MPI rank memory allocation (min/avg/max) = 7.221 | 7.221 | 7.221 Mbytes
   Step          Temp         Density         Press          TotEng         PotEng         KinEng         E_pair         S/CPU     
       362   1              0.0023323615   0.0023090379   21.485548      20.000548      1.485          0              0            
      1000   0.90989032     0.0023323615  -0.0021940042   21.776974      20.425787      1.3511871      0.00036425437  72801.672    
      2000   0.86546688     0.0023323615   0.0034714157   21.677128      20.39191       1.2852183      0.0025814786   76393.505    
      3000   0.98199538     0.0023323615   0.0028144228   21.866132      20.407869      1.4582631      0.0011756043   74094.65     
      4000   1.004495       0.0023323615  -0.0014058211   21.945624      20.453949      1.4916751      0.011986179    74426.874    
      5000   1.1222705      0.0023323615   0.0044495116   21.986385      20.319813      1.6665718      0.0050317639   74622.015    
      6000   1.0538243      0.0023323615   0.0023957538   21.985713      20.420784      1.564929       0.012100514    75560.78     
      7000   1.0210598      0.0023323615  -0.00038820026  21.904665      20.388391      1.5162738      0              76916.971    
      8000   0.94819751     0.0023323615   0.0024943091   21.747889      20.339816      1.4080733      0              77076.275    
      9000   0.92364502     0.0023323615   0.0020053029   21.724166      20.352554      1.3716129      1.7780894e-05  76007.982    
     10000   0.86685188     0.0023323615   0.00078277366  21.644879      20.357604      1.287275       0.0098636418   76336.239    
     11000   1.0057103      0.0023323615   0.00010113276  21.8558        20.362321      1.4934798      0.020705341    76038.556    
     12000   0.97901664     0.0023323615  -0.0026996968   21.871206      20.417366      1.4538397      0.0052928539   75894.07     
     13000   0.97718436     0.0023323615  -6.1641422e-06  21.963706      20.512587      1.4511188      0.025022446    75737.488    
     14000   1.0530014      0.0023323615  -0.0009993112   21.947994      20.384287      1.5637071      0.0020860456   74944.238    
     15000   0.99094527     0.0023323615   0.0011068478   21.895146      20.423592      1.4715537      0.0015091113   75847.645    
     16000   0.91285091     0.0023323615  -0.00025424173  21.87524       20.519657      1.3555836      0.0047853639   75576.227    
     17000   0.82806978     0.0023323615  -0.00054698156  21.701984      20.472301      1.2296836      0              75768.993    
     18000   1.043278       0.0023323615  -6.6143919e-05  22.003299      20.454031      1.5492679      0.0034319132   76452.249    
     19000   1.0879249      0.0023323615  -0.0017804642   21.998985      20.383416      1.6155685      0.015376175    75226.154    
     20000   1.1144506      0.0023323615   0.0025198298   22.190904      20.535944      1.6549592      0              76387.244    
     21000   1.0427751      0.0023323615   0.0011345349   22.099492      20.550971      1.548521       0.00040047813  76365.211    
     22000   1.0586695      0.0023323615   0.0017882747   22.05673       20.484606      1.5721242      0              76140.644    
     23000   1.0058426      0.0023323615  -0.0055245362   21.954628      20.460951      1.4936763      0.0027619031   75521.559    
     24000   0.98273442     0.0023323615   0.0015147357   21.862067      20.402707      1.4593606      0              75866.266    
     25000   0.95835343     0.0023323615   0.0017808774   21.937761      20.514606      1.4231548      0.00020839942  75480.665    
     26000   0.93993778     0.0023323615  -0.0021777292   21.884849      20.489042      1.3958076      0.0088889834   76003.008    
     27000   0.9308188      0.0023323615  -0.00011239942  21.842252      20.459986      1.3822659      0.021612409    74831.972    
     28000   1.0149581      0.0023323615   0.0041996387   21.906846      20.399633      1.5072129      0.0064059022   75490.83     
     29000   0.92841138     0.0023323615  -2.5398808e-05  21.987185      20.608494      1.3786909      0.0046112484   75757.031    
     30000   1.021043       0.0023323615   0.001589158    22.097958      20.581709      1.5162489      0.016799508    73230.792    
     31000   1.0465985      0.0023323615  -0.0021744286   22.037917      20.483718      1.5541987      0.0057879149   76013.707    
     32000   0.98907108     0.0023323615  -0.0015558606   22.044089      20.575318      1.4687705      0.009448173    75621.406    
     33000   1.0918536      0.0023323615  -0.0025643847   22.039275      20.417873      1.6214025      0              74788.353    
     34000   0.99801543     0.0023323615   0.0016279766   21.932339      20.450286      1.4820529      0.017384617    77256.743    
     35000   1.0352271      0.0023323615  -0.0052971711   22.076004      20.538692      1.5373122      0.00010473809  75688.098    
     36000   1.1141579      0.0023323615  -0.00093279925  22.222491      20.567966      1.6545245      0.00033678641  76900.853    
     37000   1.0369415      0.0023323615   0.00013065175  22.217841      20.677983      1.5398581      0.013788831    75973.502    
     38000   1.0515596      0.0023323615   0.0021717558   22.070766      20.5092        1.561566       0.0067894678   76427.661    
     39000   1.0238495      0.0023323615   0.00026414509  22.040141      20.519725      1.5204165      0.00044464649  75478.152    
     40000   1.0749111      0.0023323615  -0.0026849368   22.039327      20.443084      1.596243       0.012651334    73877.756    
     41000   0.99070886     0.0023323615  -0.0030385564   22.03241       20.561207      1.4712027      0.00092855646  77158.321    
     42000   0.95315224     0.0023323615   0.0019788197   21.965263      20.549832      1.4154311      0.020233689    75100.154    
     43000   1.0644183      0.0023323615  -0.0011168725   22.287172      20.706511      1.5806611      0.039694129    75429.845    
     44000   1.0253747      0.0023323615  -0.006676522    22.066233      20.543552      1.5226814      0              74757.267    
     45000   0.94179556     0.0023323615  -0.0047206018   21.970644      20.572077      1.3985664      0.019869988    75217.141    
     46000   1.0083495      0.0023323615  -0.0017646918   21.972114      20.474715      1.497399       0.00026040605  75277.04     
     47000   0.98767959     0.0023323615  -0.00080218158  22.091674      20.62497       1.4667042      0.024266258    74987.595    
     48000   1.1473449      0.0023323615  -0.0025885687   22.080512      20.376705      1.7038072      0.00065962995  75460.866    
     49000   1.0679312      0.0023323615   0.0017688272   21.970482      20.384604      1.5858779      0.014142422    76600.577    
     50000   0.9581935      0.0023323615   0.0014398836   21.955202      20.532284      1.4229173      0.0055011948   76080.688    
     51000   1.0215759      0.0023323615  -0.00093292688  21.934681      20.41764       1.5170402      0              75645.643    
     52000   0.98079591     0.0023323615   0.0040701936   21.977374      20.520892      1.4564819      0.0020862422   76123.053    
     53000   1.0090927      0.0023323615   0.0013324753   22.095438      20.596935      1.4985027      0              75667.44     
     54000   0.97519627     0.0023323615   0.0013260734   22.070151      20.621984      1.4481665      0.026885444    76468.355    
     55000   1.1805087      0.0023323615  -0.001586238    22.424088      20.671033      1.7530554      0.024690954    76266.947    
     56000   0.98387121     0.0023323615   0.0037155145   22.104425      20.643376      1.4610487      0.01435493     75987.905    
     57000   1.0723812      0.0023323615  -0.0037916262   22.122726      20.53024       1.592486       0.013635549    76294.813    
     58000   1.0152349      0.0023323615   0.00021908047  22.082827      20.575203      1.5076238      0.00077375639  76242.251    
     59000   1.1424502      0.0023323615  -0.0052108657   22.30072       20.604182      1.6965385      0.013308184    77058.777    
     60000   1.0359703      0.0023323615  -0.00097887545  22.188218      20.649802      1.538416       0.00011346294  75398.394    
     61000   1.1646839      0.0023323615  -0.002085017    22.239945      20.51039       1.7295556      0.012918477    77410.849    
     62000   1.101836       0.0023323615   0.0010338878   22.171386      20.53516       1.6362265      0.001396566    76344.124    
     63000   0.96616435     0.0023323615   0.00097550571  21.903821      20.469067      1.4347541      0.013027663    77641.656    
     64000   1.0068907      0.0023323615  -0.0020278726   22.061652      20.566419      1.4952327      0.013750276    76134.082    
     65000   0.98723233     0.0023323615   0.0022441476   22.031073      20.565033      1.46604        0.0066686189   76699.58     
     66000   1.0273881      0.0023323615  -0.0003515278   22.183579      20.657908      1.5256713      0              74917.187    
     67000   0.96528212     0.0023323615  -0.00014822656  21.9396        20.506156      1.4334439      0.010365557    76200.747    
     68000   1.069702       0.0023323615   9.4754668e-05  22.081119      20.492611      1.5885075      0.00049153926  73849.877    
     69000   1.1229502      0.0023323615   0.0011504079   22.200329      20.532748      1.6675811      0.0068454249   76858.752    
     70000   1.0062775      0.0023323615  -0.00085311964  22.094021      20.599699      1.4943221      0.013222355    75063.894    
     71000   1.0906935      0.0023323615   0.00015260357  22.145362      20.525682      1.6196798      0.018338513    75852.662    
     72000   1.010401       0.0023323615  -6.0487182e-06  22.154105      20.653659      1.5004455      0.0013793953   74789.253    
     73000   1.1177599      0.0023323615  -0.0034084797   22.254435      20.594562      1.6598735      0.00011231735  77604.95     
     74000   0.9768019      0.0023323615   0.00016143893  22.07312       20.622569      1.4505508      0.0084515956   75670.366    
     75000   1.1360996      0.0023323615   0.002159116    22.161595      20.474487      1.6871079      0.0089909162   76334.491    
     76000   0.97379329     0.0023323615  -0.00068458621  21.988928      20.542845      1.446083       0              75465.832    
     77000   0.94876793     0.0023323615  -0.0016073976   21.923496      20.514575      1.4089204      0.017745108    75347.049    
     78000   0.83947996     0.0023323615  -0.00062768559  21.726727      20.480099      1.2466277      0.0054510099   76129.549    
     79000   1.0090614      0.0023323615  -0.00080262643  22.068192      20.569736      1.4984562      0.00023011166  76534.617    
     80000   1.1217643      0.0023323615  -0.0038177864   22.367902      20.702082      1.66582        0.032902439    75987.611    
     81000   1.0240158      0.0023323615   0.00023547123  22.031597      20.510933      1.5206635      0.0068767308   75478.614    
     82000   1.003236       0.0023323615  -0.0022802982   21.894199      20.404393      1.4898055      0.019136282    74543.822    
     83000   1.0554159      0.0023323615   0.004011718    22.104562      20.537269      1.5672927      0.0080869707   74390.93     
     84000   0.83527346     0.0023323615  -0.0034122221   21.874648      20.634267      1.2403811      0.0030083664   75643.526    
     85000   1.036002       0.0023323615   0.0013573923   21.962923      20.42446       1.5384629      0.015709144    76269.861    
     86000   0.9432002      0.0023323615  -0.0032183248   21.913588      20.512936      1.4006523      0.013730309    76200.05     
     87000   0.95566008     0.0023323615  -0.00049614223  21.91653       20.497375      1.4191552      0.0035862035   75252.41     
     88000   0.93373351     0.0023323615  -0.00097093893  21.870485      20.483891      1.3865943      0.0018212145   74819.918    
     89000   0.9684944      0.0023323615  -0.00047342045  21.973429      20.535215      1.4382142      0.00087524744  75290.274    
     90000   0.98293324     0.0023323615  -0.0032204602   22.050919      20.591263      1.4596559      0.015353933    76569.315    
     91000   1.0832827      0.0023323615   0.0048517083   22.11977       20.511095      1.6086749      0.0052867789   77609.479    
     92000   0.85899662     0.0023323615  -0.0013049519   21.765697      20.490087      1.27561        0.0024124001   76435.857    
     93000   0.96176266     0.0023323615  -4.4223672e-05  21.874222      20.446004      1.4282176      0.0045653365   77124.931    
     94000   0.96019503     0.0023323615   0.00024459347  21.944954      20.519064      1.4258896      3.8053462e-05  76221.697    
     95000   0.94702149     0.0023323615  -0.0033658915   21.86315       20.456823      1.4063269      0              77134.407    
     96000   0.91119348     0.0023323615  -0.0013197298   21.825018      20.471896      1.3531223      0.00043282989  75578.055    
     97000   1.0016687      0.0023323615  -0.0019514304   22.013024      20.525546      1.487478       0.0048369955   75089.597    
     98000   1.02143        0.0023323615  -0.0057874974   22.177965      20.661142      1.5168235      0              73984.312    
     99000   1.032786       0.0023323615   0.0018228259   21.975336      20.441649      1.5336871      7.1595851e-05  77215.087    
    100000   1.0594928      0.0023323615   0.0036169719   22.011024      20.437677      1.5733468      0.00032948157  75661.188    
    100362   1.1904942      0.0023323615  -0.00089755607  22.316856      20.548972      1.7678839      0.00063845255  75411.765    
Loop time of 1.31939 on 1 procs for 100000 steps with 100 atoms

Performance: 32742318.219 tau/day, 75792.403 timesteps/s
99.4% CPU use with 1 MPI tasks x 1 OpenMP threads

MPI task timing breakdown:
Section |  min time  |  avg time  |  max time  |%varavg| %total
---------------------------------------------------------------
Pair    | 0.049857   | 0.049857   | 0.049857   |   0.0 |  3.78
Bond    | 0.12634    | 0.12634    | 0.12634    |   0.0 |  9.58
Neigh   | 0.80346    | 0.80346    | 0.80346    |   0.0 | 60.90
Comm    | 0.055756   | 0.055756   | 0.055756   |   0.0 |  4.23
Output  | 0.0010889  | 0.0010889  | 0.0010889  |   0.0 |  0.08
Modify  | 0.25008    | 0.25008    | 0.25008    |   0.0 | 18.95
Other   |            | 0.03281    |            |       |  2.49

Nlocal:            100 ave         100 max         100 min
Histogram: 1 0 0 0 0 0 0 0 0 0
Nghost:             60 ave          60 max          60 min
Histogram: 1 0 0 0 0 0 0 0 0 0
Neighs:             36 ave          36 max          36 min
Histogram: 1 0 0 0 0 0 0 0 0 0

Total # of neighbors = 36
Ave neighs/atom = 0.36
Ave special neighs/atom = 1.98
Neighbor list builds = 9821
Dangerous builds = 8265
unfix           nvtSoft
unfix           rampSoft
reset_timestep  0

write_data      ${outputfile_relaxed}
write_data      5_relaxed.data
System init for write_data ...
Generated 0 of 6 mixed pair_coeff terms from geometric mixing rule
WARNING: Communication cutoff 1.3 is shorter than a bond length based estimate of 1.7550000000000001. This may lead to errors. (src/comm.cpp:727)
WARNING: Not all mixed pair coeffs generated from mixing. Use write_data with 'pair ij' option to store all pair coeffs. (src/write_data.cpp:309)

###########################################################################
# Full LJ with Coulomb
######################################################################

# Cutoffs and parameters:
# - Values: Marcel Verkade's Bachelor Thesis
# - Mapping to atom groups: Patrick Onck's paper
# - 1: aliphatic, 2: aromatic, 3: anion, 4: cation
# pair_style	lj/cut/coul/cut <lj_cut_global> <coul_cut_global>
# pair_coeff	<type_1>  <type_2>  <eps>  <sigma>  <r_cut_lj>  <r_cut_coul>

# Problem: Onck's model is much more complex, and Marcel has no sigma reported
# Using sigma=1 randomly

variable		glob_ljeps equal 1.0
variable		glob_ljsig 	equal 1.0
variable		glob_coulcut equal 10.0
variable		att_ljcut equal 2.50
variable		rep_ljcut equal 1.12

pair_style		lj/cut/coul/cut 						${att_ljcut} 	${glob_coulcut}
pair_style		lj/cut/coul/cut 						2.5 	${glob_coulcut}
pair_style		lj/cut/coul/cut 						2.5 	10
pair_coeff		1 1 	${glob_ljeps} 	${glob_ljsig}	${att_ljcut} 	${glob_coulcut}
pair_coeff		1 1 	1 	${glob_ljsig}	${att_ljcut} 	${glob_coulcut}
pair_coeff		1 1 	1 	1	${att_ljcut} 	${glob_coulcut}
pair_coeff		1 1 	1 	1	2.5 	${glob_coulcut}
pair_coeff		1 1 	1 	1	2.5 	10
pair_coeff		1 2 	${glob_ljeps} 	${glob_ljsig}	${att_ljcut} 	${glob_coulcut}
pair_coeff		1 2 	1 	${glob_ljsig}	${att_ljcut} 	${glob_coulcut}
pair_coeff		1 2 	1 	1	${att_ljcut} 	${glob_coulcut}
pair_coeff		1 2 	1 	1	2.5 	${glob_coulcut}
pair_coeff		1 2 	1 	1	2.5 	10
pair_coeff		1 3 	${glob_ljeps} 	${glob_ljsig}	${rep_ljcut} 	${glob_coulcut}
pair_coeff		1 3 	1 	${glob_ljsig}	${rep_ljcut} 	${glob_coulcut}
pair_coeff		1 3 	1 	1	${rep_ljcut} 	${glob_coulcut}
pair_coeff		1 3 	1 	1	1.12 	${glob_coulcut}
pair_coeff		1 3 	1 	1	1.12 	10
pair_coeff		1 4 	${glob_ljeps} 	${glob_ljsig}	${rep_ljcut} 	${glob_coulcut}
pair_coeff		1 4 	1 	${glob_ljsig}	${rep_ljcut} 	${glob_coulcut}
pair_coeff		1 4 	1 	1	${rep_ljcut} 	${glob_coulcut}
pair_coeff		1 4 	1 	1	1.12 	${glob_coulcut}
pair_coeff		1 4 	1 	1	1.12 	10
pair_coeff		2 2 	${glob_ljeps} 	${glob_ljsig}	${att_ljcut} 	${glob_coulcut}
pair_coeff		2 2 	1 	${glob_ljsig}	${att_ljcut} 	${glob_coulcut}
pair_coeff		2 2 	1 	1	${att_ljcut} 	${glob_coulcut}
pair_coeff		2 2 	1 	1	2.5 	${glob_coulcut}
pair_coeff		2 2 	1 	1	2.5 	10
pair_coeff		2 3 	${glob_ljeps} 	${glob_ljsig}	${rep_ljcut} 	${glob_coulcut}
pair_coeff		2 3 	1 	${glob_ljsig}	${rep_ljcut} 	${glob_coulcut}
pair_coeff		2 3 	1 	1	${rep_ljcut} 	${glob_coulcut}
pair_coeff		2 3 	1 	1	1.12 	${glob_coulcut}
pair_coeff		2 3 	1 	1	1.12 	10
pair_coeff		2 4 	${glob_ljeps} 	${glob_ljsig}	${att_ljcut} 	${glob_coulcut}
pair_coeff		2 4 	1 	${glob_ljsig}	${att_ljcut} 	${glob_coulcut}
pair_coeff		2 4 	1 	1	${att_ljcut} 	${glob_coulcut}
pair_coeff		2 4 	1 	1	2.5 	${glob_coulcut}
pair_coeff		2 4 	1 	1	2.5 	10
pair_coeff		3 3 	${glob_ljeps} 	${glob_ljsig}	${rep_ljcut} 	${glob_coulcut}
pair_coeff		3 3 	1 	${glob_ljsig}	${rep_ljcut} 	${glob_coulcut}
pair_coeff		3 3 	1 	1	${rep_ljcut} 	${glob_coulcut}
pair_coeff		3 3 	1 	1	1.12 	${glob_coulcut}
pair_coeff		3 3 	1 	1	1.12 	10
pair_coeff		3 4 	${glob_ljeps} 	${glob_ljsig}	${att_ljcut} 	${glob_coulcut}
pair_coeff		3 4 	1 	${glob_ljsig}	${att_ljcut} 	${glob_coulcut}
pair_coeff		3 4 	1 	1	${att_ljcut} 	${glob_coulcut}
pair_coeff		3 4 	1 	1	2.5 	${glob_coulcut}
pair_coeff		3 4 	1 	1	2.5 	10
pair_coeff		4 4 	${glob_ljeps} 	${glob_ljsig}	${rep_ljcut} 	${glob_coulcut}
pair_coeff		4 4 	1 	${glob_ljsig}	${rep_ljcut} 	${glob_coulcut}
pair_coeff		4 4 	1 	1	${rep_ljcut} 	${glob_coulcut}
pair_coeff		4 4 	1 	1	1.12 	${glob_coulcut}
pair_coeff		4 4 	1 	1	1.12 	10


fix             noDriftRot 	all momentum 10 linear 1 1 1 angular
fix             nvt1 		all nvt temp ${Temp} ${Temp} 0.5
fix             nvt1 		all nvt temp 1 ${Temp} 0.5
fix             nvt1 		all nvt temp 1 1 0.5

# dump          assemble 	all custom 1000 				${outputfile_selfasb} id type xu yu zu vx vy vz
dump            lindump 	all custom ${subsample_rate} 	${outputfile_trajlin} id type xu yu zu vx vy vz
dump            lindump 	all custom 1000 	${outputfile_trajlin} id type xu yu zu vx vy vz
dump            lindump 	all custom 1000 	6_b_trajlin.data id type xu yu zu vx vy vz

run             ${runtime}
run             1000000
Generated 0 of 6 mixed pair_coeff terms from geometric mixing rule
Neighbor list info ...
  update every 1 steps, delay 10 steps, check yes
  max neighbors/atom: 2000, page size: 100000
  master list distance cutoff = 10.3
  ghost atom cutoff = 10.3
  binsize = 5.15, bins = 7 7 7
  1 neighbor lists, perpetual/occasional/extra = 1 0 0
  (1) pair lj/cut/coul/cut, perpetual
      attributes: half, newton on
      pair build: half/bin/newton
      stencil: half/bin/3d
      bin: standard
Per MPI rank memory allocation (min/avg/max) = 7.712 | 7.712 | 7.712 Mbytes
   Step          Temp         Density         Press          TotEng         PotEng         KinEng         E_pair         S/CPU     
         0   1.1904942      0.0023323615  -0.0011583718   22.030161      20.262277      1.7678839     -0.28605721     0            
      1000   1.0005636      0.0023323615  -0.0024108319   21.304026      19.818189      1.485837      -0.64063407     33681.523    
      2000   0.99681954     0.0023323615   0.0010021955   21.401997      19.92172       1.480277      -0.59471495     30986.69     
      3000   0.85225643     0.0023323615   0.0044840953   20.78984       19.52424       1.2656008     -0.99173658     26655.667    
      4000   0.9841205      0.0023323615  -0.0012475601   20.845696      19.384277      1.4614189     -1.057419       21197.452    
      5000   1.0487725      0.0023323615  -5.8114347e-05  20.91823       19.360803      1.5574272     -1.136411       18556.573    
      6000   0.94629471     0.0023323615   0.00021584544  20.931129      19.525882      1.4052476     -1.123786       18837.673    
      7000   0.95121503     0.0023323615  -0.00031224739  20.696455      19.2839        1.4125543     -1.188135       18718.415    
      8000   1.0390077      0.0023323615  -0.00019819032  20.918771      19.375845      1.5429264     -1.0671615      18737.288    
      9000   0.93475482     0.0023323615  -0.00061115897  20.863122      19.475011      1.3881109     -1.0307794      18828.959    
     10000   1.0722082      0.0023323615   0.0019655427   21.155631      19.563402      1.5922291     -1.0755365      18742.337    
     11000   1.0677748      0.0023323615   0.0032316798   20.872367      19.286722      1.5856455     -1.1797508      18677.052    
     12000   1.034789       0.0023323615   0.002160564    20.824935      19.288274      1.5366616     -1.2735777      18649.745    
     13000   1.1025393      0.0023323615  -0.00098983887  20.754074      19.116803      1.6372709     -1.3177753      18504.93     
     14000   1.1065235      0.0023323615   0.00088707999  21.091345      19.448158      1.6431875     -1.1231953      18568.766    
     15000   0.91598338     0.0023323615  -0.0038492488   20.64327       19.283035      1.3602353     -1.2499636      18814.099    
     16000   0.89233398     0.0023323615   0.0010477704   20.773106      19.44799       1.325116      -1.1158838      18694.98     
     17000   1.0624599      0.0023323615   0.00044584026  20.98839       19.410637      1.577753      -1.069683       18598.969    
     18000   1.0852007      0.0023323615  -0.0022369935   20.694255      19.082732      1.611523      -1.303629       18618.366    
     19000   1.0326345      0.0023323615   0.0022165267   20.846228      19.312766      1.5334623     -1.2506857      18675.944    
     20000   1.1033678      0.0023323615  -0.0012745369   21.009872      19.371371      1.6385012     -1.176475       18583.691    
     21000   1.0100325      0.0023323615  -0.00088809393  20.714604      19.214706      1.4998983     -1.2122115      18514.864    
     22000   0.92832924     0.0023323615  -0.0050599387   20.84813       19.469561      1.3785689     -1.1338965      18634.296    
     23000   0.90527096     0.0023323615   0.0016083415   20.689401      19.345074      1.3443274     -1.1524185      18702.537    
     24000   0.93386302     0.0023323615   0.00037177171  20.679051      19.292265      1.3867866     -1.2303981      18561.432    
     25000   0.98672136     0.0023323615   0.0014506985   20.885801      19.42052       1.4652812     -1.1497738      18699.478    
     26000   0.89103395     0.0023323615   0.00080126655  20.806454      19.483269      1.3231854     -1.1072264      18768.621    
     27000   0.94106987     0.0023323615   0.0038505362   20.747753      19.350265      1.3974888     -1.2065032      18838.672    
     28000   1.0247625      0.0023323615   0.0028887571   20.83763       19.315857      1.5217723     -1.1340214      18935.281    
     29000   1.0003017      0.0023323615  -0.00095220513  20.957118      19.47167       1.485448      -1.1653242      18787.302    
     30000   0.95792408     0.0023323615   0.00068992768  20.686894      19.264377      1.4225173     -1.2655426      18680.971    
     31000   1.0643842      0.0023323615  -0.0051251706   21.000046      19.419436      1.5806105     -1.2322256      18699.068    
     32000   1.0467692      0.0023323615  -0.0027389433   20.790395      19.235942      1.5544522     -1.2509584      18709.478    
     33000   0.92583405     0.0023323615  -0.0041542007   20.574486      19.199623      1.3748636     -1.1988264      18709.572    
     34000   1.0489813      0.0023323615  -0.00028906778  20.905149      19.347412      1.5577373     -1.2144925      18770.788    
     35000   0.83710009     0.0023323615  -0.00024537417  20.553428      19.310334      1.2430936     -1.3229064      18570.289    
     36000   1.1014486      0.0023323615   0.00013640278  20.935989      19.300338      1.6356511     -1.2083248      18563.199    
     37000   0.98336207     0.0023323615  -0.0030402202   20.935464      19.475172      1.4602927     -1.043715       18714.403    
     38000   0.95537559     0.0023323615  -0.0027559867   20.924105      19.505372      1.4187327     -1.0853656      18723.632    
     39000   0.98434841     0.0023323615   0.0022624482   20.760569      19.298812      1.4617574     -1.178048       18652.634    
     40000   0.90063234     0.0023323615   0.0023344871   20.652084      19.314645      1.337439      -1.2434398      18499.439    
     41000   1.0485692      0.0023323615   0.0039844107   21.15501       19.597884      1.5571252     -1.0373951      18774.068    
     42000   0.88581925     0.0023323615  -0.00074677974  20.8126        19.497158      1.3154416     -1.0298502      19009.139    
     43000   0.96663221     0.0023323615  -0.0012456804   20.576173      19.140724      1.4354488     -1.2469439      18682.936    
     44000   1.0000333      0.0023323615   0.0020810356   20.696351      19.211301      1.4850495     -1.3159568      18516.289    
     45000   0.96518708     0.0023323615  -0.00079382901  20.837839      19.404536      1.4333028     -1.0966042      18563.841    
     46000   0.98083587     0.0023323615  -0.0012074905   20.861706      19.405165      1.4565413     -1.1354195      18866.25     
     47000   0.94395571     0.0023323615   0.0002991909   20.902107      19.500333      1.4017742     -1.040179       19283.449    
     48000   0.90423521     0.0023323615   0.0038184255   21.03182       19.689031      1.3427893     -0.77626884     19582.195    
     49000   0.94505765     0.0023323615   0.0035211138   20.83329       19.429879      1.4034106     -0.99814506     19490.8      
     50000   0.90686645     0.0023323615   0.00063452165  20.701489      19.354792      1.3466967     -1.0455348      18985.929    
     51000   0.89579603     0.0023323615   0.00064413194  20.751495      19.421238      1.3302571     -1.1276149      18736.647    
     52000   1.033121       0.0023323615   0.0011838106   20.992302      19.458117      1.5341847     -1.0279284      18744.283    
     53000   1.1178565      0.0023323615   0.00094346256  20.999009      19.338992      1.6600169     -1.1568723      18669.649    
     54000   1.011543       0.0023323615  -0.0040564497   20.936076      19.433935      1.5021413     -1.0523519      18740.489    
     55000   1.100144       0.0023323615  -0.0025892024   21.480198      19.846484      1.6337139     -0.83654826     19825.077    
     56000   1.0014296      0.0023323615   0.0020174002   21.046042      19.558919      1.4871229     -0.98001414     19486.359    
     57000   1.0342717      0.0023323615   0.0028502278   21.184175      19.648282      1.5358934     -0.87938637     19079.713    
     58000   0.94385663     0.0023323615  -0.0014236932   20.703572      19.301945      1.4016271     -1.1664536      19122.755    
     59000   1.0273412      0.0023323615   0.0019852644   20.748052      19.222451      1.5256017     -1.2200452      18777.264    
     60000   0.91179375     0.0023323615  -3.1984966e-05  20.731463      19.37745       1.3540137     -1.0879651      18869.671    
     61000   1.0823937      0.0023323615   0.0057916424   21.136795      19.52944       1.6073547     -0.89367071     18921.278    
     62000   0.86423976     0.0023323615  -0.00063688661  20.526365      19.242969      1.283396      -1.2330383      18690.017    
     63000   0.915522       0.0023323615   0.0025318934   20.419861      19.060311      1.3595502     -1.3376011      18508.708    
     64000   0.85162412     0.0023323615  -0.0016145858   20.458294      19.193632      1.2646618     -1.3010553      18655.57     
     65000   0.88507733     0.0023323615   0.0018907281   20.784094      19.469754      1.3143398     -1.1979059      18769.252    
     66000   0.8330953      0.0023323615  -0.0014514471   20.434576      19.197429      1.2371465     -1.3051255      18639.812    
     67000   0.94202047     0.0023323615  -0.0018348249   20.712619      19.313719      1.3989004     -1.1766317      18645.174    
     68000   1.0748486      0.0023323615   0.00085221139  20.919365      19.323215      1.5961502     -1.1908356      18636.119    
     69000   1.0032342      0.0023323615   0.0035474033   20.95982       19.470017      1.4898028     -1.0272238      18693.783    
     70000   0.93733595     0.0023323615  -0.002552729    20.575543      19.183599      1.3919439     -1.256332       18774.686    
     71000   1.0774129      0.0023323615  -0.0030774229   21.062926      19.462968      1.5999581     -1.1001203      18802.96     
     72000   0.97438969     0.0023323615   0.0026197439   20.779811      19.332842      1.4469687     -1.1149914      18701.04     
     73000   1.0068668      0.0023323615   0.0039591658   20.543864      19.048667      1.4951972     -1.3846351      18655.932    
     74000   1.0234498      0.0023323615  -0.00036137547  20.671341      19.151518      1.519823      -1.3336715      18631.239    
     75000   0.96538564     0.0023323615   0.00010400314  20.464956      19.031359      1.4335977     -1.3851342      18599.773    
     76000   0.95720702     0.0023323615  -0.0040352047   20.684795      19.263343      1.4214524     -1.2714553      18478.099    
     77000   0.9287345      0.0023323615  -0.0027611501   20.857143      19.477972      1.3791707     -1.0853014      18628.478    
     78000   1.1058792      0.0023323615  -8.2787236e-05  20.858707      19.216476      1.6422305     -1.227981       18586.594    
     79000   1.0565487      0.0023323615  -0.0042882547   21.224684      19.655709      1.5689747     -0.81771495     18800.905    
     80000   0.99167918     0.0023323615   0.0025487116   20.763777      19.291133      1.4726436     -1.1611244      18765.576    
     81000   0.99810354     0.0023323615  -0.0016978152   21.018774      19.53659       1.4821838     -1.0539436      18565.467    
     82000   1.1680845      0.0023323615   0.0023233569   21.35114       19.616534      1.7346055     -0.96816248     18751.104    
     83000   0.82793109     0.0023323615   0.0005661916   20.900684      19.671206      1.2294777     -0.90278075     18864.742    
     84000   0.95648345     0.0023323615  -0.00027551891  20.822984      19.402606      1.4203779     -1.2166824      18849.444    
     85000   1.0136951      0.0023323615  -0.0025329573   20.749107      19.24377       1.5053372     -1.2790792      18755.981    
     86000   0.92860541     0.0023323615   6.6957562e-05  20.912885      19.533906      1.378979      -1.0171421      18816.288    
     87000   0.92012312     0.0023323615   0.0028709675   20.551646      19.185263      1.3663828     -1.3927021      18691.35     
     88000   1.1959446      0.0023323615  -0.0016542675   21.430324      19.654346      1.7759778     -0.97931525     18656.044    
     89000   0.96603341     0.0023323615  -0.00047270986  20.943416      19.508856      1.4345596     -1.0569498      18893.145    
     90000   1.0461156      0.0023323615   0.0040953128   21.227691      19.674209      1.5534817     -0.95356437     19137.671    
     91000   1.0376173      0.0023323615   0.0032087516   21.131734      19.590872      1.5408617     -1.013886       19291.973    
     92000   1.1268981      0.0023323615  -0.0021653421   21.001858      19.328415      1.6734437     -1.1783591      19076.34     
     93000   0.97019485     0.0023323615  -0.0027854676   20.740271      19.299531      1.4407393     -1.2995997      18915.103    
     94000   1.0715501      0.0023323615   0.0020006142   21.021221      19.429969      1.5912518     -1.1317421      18660.902    
     95000   1.1781832      0.0023323615   0.0019726452   20.819931      19.070329      1.7496021     -1.4166053      18676.025    
     96000   0.95009126     0.0023323615   0.0009420312   20.850023      19.439138      1.4108855     -1.0912818      18614.727    
     97000   1.0186921      0.0023323615   0.00050572434  20.544416      19.031659      1.5127577     -1.4019269      18502.457    
     98000   0.77707378     0.0023323615  -0.0015932019   20.812855      19.6589        1.1539546     -1.1021735      18573.34     
     99000   0.90907798     0.0023323615   0.0016441061   20.680567      19.330586      1.3499808     -1.2194752      18622.799    
    100000   1.0574583      0.0023323615   0.0016931962   20.887891      19.317565      1.5703256     -1.1849953      18656.647    
    101000   0.9317698      0.0023323615  -0.0015923435   20.719685      19.336007      1.3836781     -1.1779921      18615.095    
    102000   1.0771861      0.0023323615   0.0010047264   20.883181      19.283559      1.5996213     -1.1750993      18676.626    
    103000   1.1007342      0.0023323615  -0.0054674475   21.060736      19.426146      1.6345903     -1.1164692      18650.87     
    104000   0.94761084     0.0023323615   0.0028311714   20.70659       19.299388      1.4072021     -1.2856625      18713.266    
    105000   0.93845408     0.0023323615  -0.00084417531  20.709403      19.315798      1.3936043     -1.1247976      18719.893    
    106000   0.87723229     0.0023323615   0.0018910711   20.585194      19.282504      1.30269       -1.2682786      18713.782    
    107000   0.89595909     0.0023323615  -0.0021281669   20.708105      19.377606      1.3304992     -1.2989236      18615.748    
    108000   0.96868362     0.0023323615  -0.0004853705   20.784942      19.346447      1.4384952     -1.2513325      18697.88     
    109000   1.0388151      0.0023323615   0.002905808    20.81915       19.27651       1.5426405     -1.2680118      18679.761    
    110000   0.97792264     0.0023323615  -0.0028246457   20.810396      19.358181      1.4522151     -1.3009374      18695.047    
    111000   0.89924777     0.0023323615  -0.003029651    20.788344      19.452961      1.3353829     -1.1686204      18641.956    
    112000   0.94084346     0.0023323615  -0.0021823977   20.730656      19.333503      1.3971525     -1.0648785      18801.16     
    113000   0.91821252     0.0023323615  -0.0014588206   20.729284      19.365738      1.3635456     -1.1368286      18719.685    
    114000   0.96129498     0.0023323615  -0.0018427113   20.735604      19.308081      1.4275231     -1.2109188      18687.504    
    115000   1.0537228      0.0023323615   0.0024667167   20.95529       19.390512      1.5647783     -1.1578852      18649.567    
    116000   1.0412004      0.0023323615  -0.00057780492  20.709333      19.163151      1.5461825     -1.354171       18623.459    
    117000   0.992208       0.0023323615  -0.0022071688   20.616291      19.142862      1.4734289     -1.2776143      18953.427    
    118000   1.0020818      0.0023323615   0.00050264004  20.763894      19.275802      1.4880915     -1.1446302      20034.734    
    119000   0.83394921     0.0023323615  -0.002381879    20.663008      19.424593      1.2384146     -1.0780715      19378.536    
    120000   0.90128828     0.0023323615   0.0012540242   20.962557      19.624144      1.3384131     -0.89609427     18948.196    
    121000   0.90637546     0.0023323615   0.0040521172   20.727778      19.38181       1.3459676     -1.1204914      18838.739    
    122000   0.84075666     0.0023323615  -0.00071532293  20.782732      19.534209      1.2485236     -1.0329712      18805.142    
    123000   0.86681561     0.0023323615   0.0015335139   20.52148       19.234258      1.2872212     -1.1339762      18839.077    
    124000   1.0618002      0.0023323615   0.0012865364   20.874673      19.2979        1.5767733     -1.1692177      18944.927    
    125000   0.9837887      0.0023323615  -0.0013017144   21.164261      19.703335      1.4609262     -0.82289531     20705.227    
    126000   0.96633447     0.0023323615   0.0057353876   21.117113      19.682106      1.4350067     -0.76245302     23561.086    
    127000   0.95886333     0.0023323615  -0.0013543974   20.989369      19.565457      1.423912      -0.9874516      23277.845    
    128000   1.0772527      0.0023323615   0.0013683972   21.245183      19.645463      1.5997202     -0.8430007      22551.444    
    129000   1.0030506      0.0023323615  -0.0028569664   20.976821      19.48729       1.4895301     -0.9557336      21624.116    
    130000   0.97016287     0.0023323615   0.0037423138   20.995887      19.555195      1.4406919     -0.97511825     21290.183    
    131000   0.84800425     0.0023323615  -0.004991307    20.698939      19.439653      1.2592863     -1.1476746      20645.325    
    132000   0.93265839     0.0023323615   0.0012655375   20.757865      19.372868      1.3849977     -1.0863793      19940.216    
    133000   0.95192149     0.0023323615  -9.2272721e-05  20.818776      19.405173      1.4136034     -1.0553309      18923.505    
    134000   0.93254787     0.0023323615  -0.00064636389  20.756846      19.372012      1.3848336     -1.2051305      18619.925    
    135000   0.95807862     0.0023323615  -0.0042787      21.064106      19.64136       1.4227468     -0.9654398      18799.351    
    136000   1.1451504      0.0023323615   0.00087710123  20.981585      19.281037      1.7005483     -1.1497641      18768.766    
    137000   0.95553273     0.0023323615  -0.0047741451   21.031196      19.61223       1.4189661     -0.95372385     18746.494    
    138000   0.94455547     0.0023323615   0.0017660148   20.958048      19.555383      1.4026649     -1.1020085      18932.206    
    139000   1.0465953      0.0023323615  -0.0020971022   21.082828      19.528634      1.554194      -1.0586824      18667.736    
    140000   1.0159862      0.0023323615   0.0012152802   21.028747      19.520008      1.5087394     -0.95287431     18908.041    
    141000   0.97849287     0.0023323615  -0.004932041    20.96816       19.515098      1.4530619     -0.95445224     19238.016    
    142000   0.8366954      0.0023323615  -0.0011690741   20.785713      19.54322       1.2424927     -0.93717129     19703.199    
    143000   1.0970957      0.0023323615   0.0014267621   21.074293      19.445106      1.6291872     -0.96093463     19163.843    
    144000   0.8929232      0.0023323615  -0.00077302165  20.80743       19.481439      1.325991      -0.98046811     18749.928    
    145000   0.90014764     0.0023323615  -0.0013595408   20.884814      19.548095      1.3367192     -0.89817775     18826.552    
    146000   0.958007       0.0023323615  -0.0024626894   20.87336       19.450719      1.4226404     -1.0721258      18739.606    
    147000   0.99468658     0.0023323615  -0.00033594297  20.836553      19.359444      1.4771096     -1.0231756      18748.73     
    148000   0.99327136     0.0023323615  -0.001811566    20.701431      19.226423      1.475008      -1.2483965      18787.359    
    149000   0.97783553     0.0023323615   0.00025096644  20.644802      19.192716      1.4520858     -1.3369814      18675.127    
    150000   0.89895755     0.0023323615  -0.0055469941   20.720894      19.385942      1.334952      -1.2528877      18734.601    
    151000   1.1414511      0.0023323615  -0.0039363461   21.472129      19.777074      1.6950549     -0.94905496     18955.004    
    152000   0.98496991     0.0023323615  -0.0024579913   20.793956      19.331275      1.4626803     -1.2253277      18837.498    
    153000   0.92829956     0.0023323615   0.00098461176  20.489964      19.111439      1.3785248     -1.2971262      18778.66     
    154000   1.1215279      0.0023323615   0.0041279138   21.063106      19.397637      1.6654689     -1.1953954      18701.145    
    155000   1.0427664      0.0023323615  -0.0015564646   20.918335      19.369827      1.5485082     -1.136038       18688.782    
    156000   0.98670463     0.0023323615   0.00038033632  20.855736      19.390479      1.4652564     -1.2099144      18680.138    
    157000   1.0499743      0.0023323615  -0.0019080002   21.013544      19.454332      1.5592118     -1.0806398      18661.569    
    158000   0.92653957     0.0023323615   0.00046140635  20.737636      19.361725      1.3759113     -1.1511624      18636.084    
    159000   0.9228104      0.0023323615   0.0007070188   20.81851       19.448136      1.3703734     -1.0829305      18737.488    
    160000   1.0720221      0.0023323615   0.0014772022   20.727462      19.135509      1.5919529     -1.3682892      18638.197    
    161000   1.0497899      0.0023323615  -0.0014140121   21.026487      19.467549      1.5589381     -1.1182826      18761.632    
    162000   1.1994658      0.0023323615   0.0030019225   21.269193      19.487987      1.7812067     -0.96467823     18810.652    
    163000   1.0701556      0.0023323615   0.0018844593   21.025471      19.43629       1.5891811     -1.2134522      18886.549    
    164000   1.0504461      0.0023323615   0.0034054828   20.868848      19.308935      1.5599125     -1.1773354      18763.893    
    165000   1.0368217      0.0023323615  -0.0011608444   20.900161      19.360481      1.5396802     -1.1494897      18765.893    
    166000   0.99566271     0.0023323615   8.2976412e-05  20.994973      19.516414      1.4785591     -1.0318787      18820.148    
    167000   0.98842749     0.0023323615   0.0029264072   20.753739      19.285924      1.4678148     -1.2178756      18733.549    
    168000   0.84687413     0.0023323615  -0.0023440989   20.556951      19.299343      1.2576081     -1.181436       18644.854    
    169000   0.97608166     0.0023323615  -0.0028714635   20.517296      19.067815      1.4494813     -1.5751529      18746.994    
    170000   0.9479607      0.0023323615   0.0015925261   20.662144      19.254422      1.4077216     -1.2747175      18684.492    
    171000   0.97108743     0.0023323615   0.0011451327   20.537637      19.095572      1.4420648     -1.3684929      18687.123    
    172000   1.0616074      0.0023323615   0.0023880252   20.603016      19.026529      1.576487      -1.3891042      18511.035    
    173000   1.1280787      0.0023323615   0.0013773106   20.960704      19.285508      1.6751969     -1.2009237      18558.526    
    174000   0.90675867     0.0023323615   0.002188651    20.773181      19.426644      1.3465366     -1.1254871      18614.019    
    175000   1.0752175      0.0023323615  -0.0047829301   20.677618      19.08092       1.596698      -1.4166333      18567.07     
    176000   1.0117133      0.0023323615  -0.0024676104   20.675626      19.173232      1.5023943     -1.3005944      18387.836    
    177000   0.85456474     0.0023323615  -0.0001343813   20.531787      19.262758      1.2690286     -1.2814328      18521.821    
    178000   1.0155607      0.0023323615  -0.00015318272  20.629987      19.121879      1.5081076     -1.2798326      18502.669    
    179000   0.96402771     0.0023323615  -0.0018468773   20.874429      19.442848      1.4315812     -1.0590129      18675.679    
    180000   1.0662887      0.0023323615   0.0018737362   21.072306      19.488867      1.5834387     -1.0013153      18966.8      
    181000   0.99375257     0.0023323615   0.0012766365   20.936667      19.460944      1.4757226     -1.0752237      19351.744    
    182000   1.0594684      0.0023323615  -0.0026515264   21.291626      19.718316      1.5733105     -0.80942982     20094.89     
    183000   0.87520861     0.0023323615  -0.0021506206   20.97891       19.679225      1.2996848     -0.89959919     21028.57     
    184000   0.95819782     0.0023323615  -0.0012553919   21.010578      19.587655      1.4229238     -0.94155124     19860.031    
    185000   0.89122532     0.0023323615  -0.0025217455   20.751334      19.427864      1.3234696     -1.0429659      18963.788    
    186000   0.98058337     0.0023323615  -0.0011679654   21.060897      19.604731      1.4561663     -0.98921327     18836.354    
    187000   1.0812457      0.0023323615  -0.0035592141   20.967608      19.361958      1.6056499     -1.2175925      18776.544    
    188000   1.1248624      0.0023323615   0.0011372598   21.068138      19.397717      1.6704207     -1.1162297      18600.113    
    189000   0.9742637      0.0023323615   0.00098815991  20.780392      19.33361       1.4467816     -1.2127375      18651.536    
    190000   0.95443369     0.0023323615   0.0021981928   20.98399       19.566656      1.417334      -1.2096406      18663.47     
    191000   1.0041775      0.0023323615  -0.00059794809  20.613829      19.122625      1.4912035     -1.3355737      18627.525    
    192000   0.93317605     0.0023323615  -0.00049320544  20.85982       19.474053      1.3857664     -1.0768093      18730.951    
    193000   0.93340986     0.0023323615   0.001893957    20.753634      19.36752       1.3861136     -1.195678       18690.741    
    194000   0.96785246     0.0023323615   0.00061238726  20.842052      19.404791      1.4372609     -1.2390359      18646.828    
    195000   1.0630728      0.0023323615  -0.002058387    20.769172      19.190508      1.5786631     -1.2644802      18435.578    
    196000   1.0500202      0.0023323615   0.0039689901   21.135062      19.575782      1.55928       -1.0248549      18596.058    
    197000   0.96817986     0.0023323615   0.0013950479   21.108666      19.670919      1.4377471     -0.96359114     18701.559    
    198000   1.2410809      0.0023323615  -0.0010820454   21.267562      19.424556      1.8430051     -1.1318925      18659.172    
    199000   1.0021347      0.0023323615  -0.0022162602   20.981915      19.493745      1.48817       -1.0274006      18796.112    
    200000   1.0444624      0.0023323615  -0.00032883907  20.810071      19.259044      1.5510267     -1.2022163      19004.101    
    201000   0.9692441      0.0023323615  -0.0016771884   20.984496      19.545169      1.4393275     -0.87549027     18730.175    
    202000   0.93603983     0.0023323615  -0.0032222177   21.059581      19.669562      1.3900191     -0.89941407     19720.791    
    203000   0.87240751     0.0023323615   0.00048213482  20.736213      19.440688      1.2955252     -1.0865006      19696.002    
    204000   0.91420975     0.0023323615  -0.0010279867   20.822087      19.464485      1.3576015     -1.0609573      19277.662    
    205000   0.92656283     0.0023323615  -0.0018283191   20.744805      19.368859      1.3759458     -1.1010054      19101.398    
    206000   1.0428723      0.0023323615  -0.0023370007   20.623059      19.074394      1.5486653     -1.304092       18940.084    
    207000   0.93068934     0.0023323615  -0.00034764255  20.646093      19.26402       1.3820737     -1.2129599      18616.543    
    208000   0.8819845      0.0023323615  -0.0014036939   20.740577      19.43083       1.309747      -1.0885978      18554.434    
    209000   1.0468846      0.0023323615   0.0014410449   20.911795      19.357171      1.5546237     -1.1760665      18880.757    
    210000   1.1180466      0.0023323615   0.0034546256   20.99728       19.336981      1.6602992     -1.1451981      18939.61     
    211000   0.94459354     0.0023323615  -0.00016775416  20.751619      19.348898      1.4027214     -1.1998457      18861.627    
    212000   1.0558437      0.0023323615   0.0016647099   21.013229      19.445302      1.567928      -1.034727       18812.053    
    213000   0.99099177     0.0023323615   0.0014110321   20.737379      19.265757      1.4716228     -1.159912       18904.402    
    214000   0.9494298      0.0023323615   0.0024755916   20.833384      19.423481      1.4099033     -1.1287389      18750.308    
    215000   0.86553564     0.0023323615   0.00011614319  20.610636      19.325316      1.2853204     -1.174514       18629.963    
    216000   0.95421438     0.0023323615  -0.00095097517  20.953777      19.536769      1.4170083     -1.0209226      18646.383    
    217000   0.85182232     0.0023323615   0.0028147758   20.854542      19.589586      1.2649561     -1.0572388      18685.926    
    218000   0.97546309     0.0023323615   0.00025119978  20.962343      19.51378       1.4485627     -0.97701737     18592.622    
    219000   0.83452872     0.0023323615  -0.0039311874   20.443673      19.204398      1.2392751     -1.2831396      18562.478    
    220000   0.99277393     0.0023323615  -0.00037959411  21.288786      19.814517      1.4742693     -0.92432749     18607.873    
    221000   1.1237271      0.0023323615  -8.7835276e-05  21.002923      19.334188      1.6687347     -1.2716555      18704.422    
    222000   1.1088978      0.0023323615  -0.0010017968   20.8638        19.217086      1.6467132     -1.3452556      18630.133    
    223000   1.08036        0.0023323615   0.0017924493   20.958075      19.353741      1.6043346     -1.1066733      18609.989    
    224000   0.87376666     0.0023323615  -0.0030002852   20.667994      19.370451      1.2975435     -1.0633717      18907.425    
    225000   1.1074958      0.0023323615   0.00023335822  20.984056      19.339425      1.6446313     -1.2034355      18757.433    
    226000   1.1180539      0.0023323615   0.0060384163   21.008343      19.348033      1.66031       -1.1935777      18631.597    
    227000   1.0063695      0.0023323615   0.001425074    21.036148      19.541689      1.4944587     -1.0048033      18736.662    
    228000   1.0421035      0.0023323615   0.00042135953  20.943528      19.396005      1.5475237     -1.1203561      18755.463    
    229000   0.9673324      0.0023323615   0.0012855305   20.89996       19.463471      1.4364886     -1.0204843      18827.752    
    230000   0.96553235     0.0023323615  -0.0058498311   20.753741      19.319926      1.4338155     -1.3166315      18710.109    
    231000   1.0314723      0.0023323615  -0.0020386295   20.878738      19.347002      1.5317363     -1.2720802      18690.885    
    232000   0.99319456     0.0023323615   0.00084150416  20.830341      19.355447      1.4748939     -1.0250059      18773.408    
    233000   0.89359449     0.0023323615  -0.0030814796   20.862626      19.535638      1.3269878     -1.055164       18803.009    
    234000   1.0341756      0.0023323615   0.0009844722   20.959438      19.423687      1.5357508     -1.0918074      18746.529    
    235000   0.95187903     0.0023323615   0.0022409035   20.74523       19.33169       1.4135404     -1.1363532      18742.358    
    236000   1.0558545      0.0023323615   0.0017444562   21.147176      19.579232      1.5679439     -0.92199318     18777.367    
    237000   1.0022872      0.0023323615   0.0029051642   20.872509      19.384113      1.4883965     -1.0964615      18870.21     
    238000   0.94454424     0.0023323615  -0.00099941072  21.012043      19.609395      1.4026482     -0.93939225     18785.438    
    239000   1.0477878      0.0023323615  -0.0037297551   20.940297      19.384332      1.5559649     -1.1437982      18696.417    
    240000   0.88581486     0.0023323615   0.00035722306  20.500685      19.18525       1.3154351     -1.323196       18647.344    
    241000   0.93691679     0.0023323615   0.00054396248  20.792225      19.400903      1.3913214     -1.2372938      18651.442    
    242000   1.0412957      0.0023323615   0.0019080775   20.787658      19.241334      1.5463241     -1.2185014      18741.313    
    243000   0.96818497     0.0023323615   0.0046413219   20.991037      19.553282      1.4377547     -0.98895191     18782.833    
    244000   1.038632       0.0023323615  -0.0023298546   20.799308      19.256939      1.5423686     -1.2517419      18753.891    
    245000   1.1248662      0.0023323615   0.00080192797  20.91788       19.247453      1.6704262     -1.3324284      18698.644    
    246000   0.94542898     0.0023323615  -0.0030045233   21.010799      19.606837      1.403962      -0.99765121     18770.407    
    247000   0.95920643     0.0023323615  -0.00023328455  20.703633      19.279212      1.4244216     -1.1567702      19014.426    
    248000   0.8532267      0.0023323615  -0.0021886038   20.487259      19.220217      1.2670416     -1.4430273      18766.963    
    249000   1.0616414      0.0023323615   0.00010226512  20.747932      19.171395      1.5765375     -1.3973735      18644.617    
    250000   0.99447099     0.0023323615  -0.0036691508   20.853973      19.377183      1.4767894     -1.2054277      18744.678    
    251000   1.1208119      0.0023323615  -0.0035880091   21.166719      19.502313      1.6644056     -0.91721916     18859.086    
    252000   0.94274129     0.0023323615  -0.0021837244   20.420653      19.020682      1.3999708     -1.4420052      18806.02     
    253000   0.94294778     0.0023323615   0.00058779935  20.540819      19.140541      1.4002775     -1.3099081      18667.464    
    254000   1.0265882      0.0023323615   0.0011356665   20.708724      19.184241      1.5244835     -1.2576064      18785.573    
    255000   0.86414044     0.0023323615  -0.0030650603   20.603076      19.319827      1.2832485     -1.2628582      18657.418    
    256000   0.91325847     0.0023323615   0.00012101746  20.830468      19.474279      1.3561888     -1.0788573      18780.628    
    257000   1.1136474      0.0023323615  -0.0008253066   21.031615      19.377849      1.6537664     -1.1714551      18686.735    
    258000   0.94629021     0.0023323615  -0.0050060976   20.834859      19.429618      1.405241      -1.1785314      18650.563    
    259000   1.0123622      0.0023323615  -0.0021300692   21.069233      19.565875      1.5033579     -1.0311038      18720.377    
    260000   1.1231147      0.0023323615  -0.0029032608   21.234584      19.566758      1.6678253     -1.0565242      18575.263    
    261000   1.0877639      0.0023323615  -0.0012469876   20.977126      19.361797      1.6153295     -1.1886995      18691.105    
    262000   1.036417       0.0023323615  -0.0010338662   21.299413      19.760334      1.5390792     -0.90982507     18601.489    
    263000   1.0893528      0.0023323615   0.0013665136   20.896095      19.278406      1.6176889     -1.2267623      18662.993    
    264000   1.1176747      0.0023323615  -0.00015921452  20.966091      19.306344      1.6597469     -1.206737       18696.098    
    265000   0.99057687     0.0023323615   0.0025961834   20.837336      19.366329      1.4710066     -1.1175508      18740.486    
    266000   0.99083268     0.0023323615  -0.0046495396   20.825553      19.354167      1.4713865     -1.1722648      18727.297    
    267000   1.0732849      0.0023323615  -1.5985582e-05  21.192054      19.598226      1.5938281     -0.99273374     19154.591    
    268000   1.1138883      0.0023323615  -0.003810328    21.297559      19.643435      1.6541241     -0.86434624     19917.952    
    269000   1.0221881      0.0023323615  -0.00085112821  21.344266      19.826316      1.5179493     -0.62862916     20804.757    
    270000   1.0814022      0.0023323615   0.001291108    21.399039      19.793157      1.6058822     -0.7665155      20840.947    
    271000   1.0747201      0.0023323615   0.0028564251   21.126783      19.530824      1.5959593     -1.064217       20654.984    
    272000   1.0717084      0.0023323615   0.0005747345   21.245292      19.653805      1.591487      -0.79737689     20338.814    
    273000   0.95020482     0.0023323615  -0.00022328947  20.805129      19.394075      1.4110542     -1.0878544      20731.098    
    274000   1.0201707      0.0023323615   0.0012052501   21.232152      19.717198      1.5149535     -0.94041631     20286.513    
    275000   1.1140747      0.0023323615   0.0016072715   20.991115      19.336714      1.654401      -1.1101958      19186.595    
    276000   1.073286       0.0023323615   0.00011522737  21.102801      19.508972      1.5938297     -1.0785905      18877.59     
    277000   1.039066       0.0023323615  -0.0026341241   21.032191      19.489178      1.543013      -1.047037       18727.651    
    278000   1.1874416      0.0023323615  -0.0010320599   21.013053      19.249702      1.7633508     -1.2727011      18604.093    
    279000   1.1682773      0.0023323615  -0.0016604842   21.27999       19.545098      1.7348918     -1.0495099      18849.089    
    280000   0.93706742     0.0023323615   0.0022887509   20.835963      19.444418      1.3915451     -1.1332624      18744.332    
    281000   0.94511352     0.0023323615  -0.00012494245  20.83863       19.435136      1.4034936     -1.1276898      18721.606    
    282000   1.0908548      0.0023323615   0.0037237424   20.925042      19.305122      1.6199194     -1.2758803      18685.098    
    283000   1.0133201      0.0023323615   0.0011159643   21.028737      19.523957      1.5047804     -1.1197495      18932.892    
    284000   1.0588073      0.0023323615  -0.0021610274   21.007124      19.434795      1.5723288     -1.0362867      19477.279    
    285000   1.0115585      0.0023323615   0.0018990956   21.123783      19.621619      1.5021643     -0.93088876     19393.684    
    286000   1.0408657      0.0023323615   0.00044817904  20.785838      19.240152      1.5456856     -1.3064018      18789.937    
    287000   1.0030463      0.0023323615   0.0032848018   20.930814      19.44129       1.4895237     -1.0799975      18732.569    
    288000   0.89186813     0.0023323615   0.0018022101   20.530827      19.206403      1.3244242     -1.2630883      18678.674    
    289000   1.0277371      0.0023323615  -0.00048283174  21.014102      19.487913      1.5261896     -1.020215       18741.021    
    290000   0.92137358     0.0023323615  -0.007960799    21.144419      19.77618       1.3682398     -1.0512878      18700.021    
    291000   0.81952579     0.0023323615  -0.0011584691   20.581088      19.364092      1.2169958     -1.1519064      18771.823    
    292000   0.98686735     0.0023323615  -0.0020871697   20.861467      19.395969      1.465498      -1.1009834      18788.826    
    293000   0.99032583     0.0023323615   0.0023915539   20.570094      19.09946       1.4706339     -1.4029981      18673.523    
    294000   0.9946673      0.0023323615   0.00067553268  20.788285      19.311204      1.4770809     -1.2184543      18503.036    
    295000   0.8927553      0.0023323615   0.00028224686  20.521492      19.19575       1.3257416     -1.2158075      18666.2      
    296000   0.97209318     0.0023323615   0.00082807073  20.819414      19.375856      1.4435584     -1.0946009      18720.43     
    297000   1.2043846      0.0023323615   0.0012718912   21.116788      19.328277      1.7885111     -1.164799       18699.926    
    298000   1.0156252      0.0023323615   0.0021677327   20.912534      19.404331      1.5082034     -1.1564457      18525.149    
    299000   0.98089098     0.0023323615  -0.0021869469   20.896701      19.440078      1.4566231     -1.0575734      18532.96     
    300000   1.1291443      0.0023323615   0.0035699898   21.105652      19.428873      1.6767793     -1.1259913      18652.108    
    301000   0.92459763     0.0023323615  -0.0037992035   20.766135      19.393108      1.3730275     -1.0552903      18432.557    
    302000   0.97366392     0.0023323615   0.00068809655  20.902819      19.456928      1.4458909     -1.0970426      18745.318    
    303000   0.99371411     0.0023323615  -0.0017445827   20.942809      19.467143      1.4756655     -1.0775444      18756.844    
    304000   0.82996914     0.0023323615   0.00097740203  20.51545       19.282946      1.2325042     -1.2990779      18628.179    
    305000   0.96258763     0.0023323615   0.00098790509  20.630674      19.201231      1.4294426     -1.1800431      18592.137    
    306000   0.88812453     0.0023323615  -0.001758574    20.611725      19.29286       1.3188649     -1.2093057      18685.44     
    307000   0.93860551     0.0023323615  -0.0008101773   20.784587      19.390758      1.3938292     -1.2704257      18598.068    
    308000   1.0801173      0.0023323615   0.0035517868   20.948406      19.344432      1.6039742     -1.1802958      18552.827    
    309000   1.080489       0.0023323615   0.0034320005   20.797783      19.193257      1.6045261     -1.2656808      18591.337    
    310000   1.2005946      0.0023323615  -0.0012394326   21.121017      19.338134      1.7828829     -1.1216493      18738.065    
    311000   1.0441823      0.0023323615  -0.0019659353   20.819888      19.269277      1.5506107     -1.1911264      18752.147    
    312000   1.0421676      0.0023323615  -0.00032862376  20.897183      19.349564      1.5476189     -1.109215       18774.721    
    313000   1.0197357      0.0023323615   0.00042182063  20.754205      19.239897      1.5143075     -1.2648566      18588.716    
    314000   0.93949663     0.0023323615   0.0014523025   20.916293      19.521141      1.3951525     -1.0729622      18652.003    
    315000   0.89623824     0.0023323615   0.0016119904   20.606404      19.27549       1.3309138     -1.2872068      18723.474    
    316000   0.92524971     0.0023323615  -0.0018904278   20.687875      19.313879      1.3739958     -1.2275818      18663.652    
    317000   1.0579612      0.0023323615  -0.0017839776   20.89096       19.319887      1.5710724     -1.2732822      18585.708    
    318000   0.92472988     0.0023323615  -0.0023457928   20.825739      19.452516      1.3732239     -0.98961147     18803.99     
    319000   0.94222609     0.0023323615   0.00016249215  20.606266      19.20706       1.3992057     -1.2672242      18937.537    
    320000   0.86849699     0.0023323615   0.0007304684   20.632718      19.342999      1.289718      -1.108033       18765.05     
    321000   0.98254524     0.0023323615   0.0015376532   21.067194      19.608114      1.4590797     -1.0078872      18795.067    
    322000   1.0140544      0.0023323615  -0.0043200339   20.914609      19.408738      1.5058708     -1.1224047      18993.281    
    323000   0.93834652     0.0023323615  -0.0019947359   20.679595      19.286151      1.3934446     -1.1834275      18923.15     
    324000   0.98006677     0.0023323615   0.00074926459  20.922391      19.466992      1.4553991     -1.1925706      18900.629    
    325000   1.0458716      0.0023323615   0.002786057    20.982665      19.429546      1.5531194     -1.1769356      18877.562    
    326000   1.1228981      0.0023323615   0.0059055875   21.303601      19.636098      1.6675036     -0.9568759      18769.785    
    327000   0.96690499     0.0023323615   0.0013844732   20.705801      19.269947      1.4358539     -1.1999147      18875.47     
    328000   1.0248029      0.0023323615   0.0034485648   21.099355      19.577522      1.5218324     -0.82879281     19151.003    
    329000   0.8261642      0.0023323615  -0.0052541839   20.528807      19.301954      1.2268538     -1.1884093      19364.269    
    330000   1.0084636      0.0023323615  -0.00053117702  20.654082      19.156513      1.4975684     -1.337812       18855.373    
    331000   0.89104038     0.0023323615   0.00055829921  20.829577      19.506382      1.323195      -1.0105763      18800.682    
    332000   1.0894998      0.0023323615   0.0013113205   21.116891      19.498984      1.6179072     -0.96539173     18839.621    
    333000   0.99955097     0.0023323615  -0.0014516928   21.01823       19.533897      1.4843332     -0.9570023      18822.586    
    334000   0.90277744     0.0023323615   3.7743768e-06  20.795503      19.454878      1.3406245     -1.0603288      18954.511    
    335000   0.97894705     0.0023323615   0.0012946358   20.754159      19.300423      1.4537364     -1.0792585      18853.92     
    336000   1.1124224      0.0023323615   0.0014884914   21.209924      19.557976      1.6519473     -1.1086485      18719.313    
    337000   0.97226111     0.0023323615   0.00067363983  20.79036       19.346552      1.4438078     -1.1570325      18671.843    
    338000   1.0107581      0.0023323615   0.0024401217   20.916529      19.415553      1.5009757     -1.1803503      18776.332    
    339000   0.9747383      0.0023323615   0.0022909481   20.840303      19.392817      1.4474864     -1.1931902      18680.855    
    340000   1.0570862      0.0023323615   0.00088755929  20.875418      19.305645      1.5697731     -1.21649        18732.407    
    341000   1.0356275      0.0023323615  -0.00063844161  20.940051      19.402144      1.5379068     -1.1294583      18828.647    
    342000   1.0228859      0.0023323615   0.0012396412   20.687707      19.168721      1.5189855     -1.2570468      18671.357    
    343000   0.90222194     0.0023323615  -0.0012083887   20.676717      19.336918      1.3397996     -1.1226171      18665.422    
    344000   1.1580921      0.0023323615   0.0016391961   20.8124        19.092633      1.7197667     -1.3102667      18689.215    
    345000   0.90263322     0.0023323615   0.0028537732   20.739708      19.399298      1.3404103     -1.1132857      18618.963    
    346000   0.96316129     0.0023323615   0.0023551969   20.663552      19.233258      1.4302945     -1.2954438      18509.546    
    347000   0.96612498     0.0023323615   0.0002468898   20.666541      19.231846      1.4346956     -1.2527729      18582.812    
    348000   1.0833961      0.0023323615  -0.0013177814   20.730233      19.12139       1.6088432     -1.3498946      18606.354    
    349000   0.89344958     0.0023323615  -0.0041439827   20.757971      19.431198      1.3267726     -1.1408716      18686.374    
    350000   0.94747105     0.0023323615   0.0012414221   20.822075      19.415081      1.4069945     -1.0114287      18914.06     
    351000   0.94095998     0.0023323615  -0.0023510391   20.852806      19.45548       1.3973256     -1.0430252      18926.911    
    352000   1.0429627      0.0023323615  -0.0010453488   20.906919      19.35812       1.5487996     -1.1010352      18913.057    
    353000   1.0707881      0.0023323615   0.0027876724   21.027825      19.437705      1.5901203     -1.0517554      18894.593    
    354000   1.0322484      0.0023323615   0.00014176179  20.712447      19.179558      1.5328888     -1.2962195      18766.264    
    355000   1.0893628      0.0023323615  -0.00070878178  21.207846      19.590143      1.6177037     -0.86183603     18771.54     
    356000   1.0455516      0.0023323615  -0.00031384744  20.943811      19.391167      1.5526442     -1.1502786      18758.279    
    357000   1.0965912      0.0023323615   0.00033030277  20.806096      19.177658      1.6284379     -1.2745374      18689.898    
    358000   0.92596882     0.0023323615   9.7751139e-05  20.77335       19.398286      1.3750637     -1.0728756      18663.593    
    359000   1.0082156      0.0023323615  -0.0001025294   20.629273      19.132073      1.4972002     -1.4238261      18712.343    
    360000   0.84195988     0.0023323615   0.00079689194  20.372562      19.122251      1.2503104     -1.3292645      18609.112    
    361000   0.9903239      0.0023323615   0.0023505051   21.181679      19.711048      1.470631      -0.84250169     18720.332    
    362000   0.99198566     0.0023323615   0.00023616428  20.600082      19.126983      1.4730987     -1.3279839      18700.28     
    363000   0.99893218     0.0023323615  -0.0029258766   20.843641      19.360226      1.4834143     -1.2501618      18565.24     
    364000   0.95903109     0.0023323615  -0.0044773598   21.105075      19.680914      1.4241612     -0.892039       18582.103    
    365000   1.0379446      0.0023323615  -0.0014182171   20.930614      19.389266      1.5413477     -1.1623122      18806.715    
    366000   0.98368834     0.0023323615  -0.0019823286   20.73859       19.277813      1.4607772     -1.1859429      18545.491    
    367000   1.1442614      0.0023323615  -0.0030083202   21.088122      19.388893      1.6992282     -1.0802696      18657.31     
    368000   0.99118583     0.0023323615  -0.0017619291   20.930438      19.458527      1.471911      -0.972205       18844.195    
    369000   0.94680895     0.0023323615   0.0018299164   20.955403      19.549392      1.4060113     -1.1001026      19140.192    
    370000   0.93947604     0.0023323615  -0.0015925641   20.740147      19.345025      1.3951219     -1.1841786      18688.281    
    371000   0.98928711     0.0023323615  -0.001113358    20.786028      19.316936      1.4690914     -1.1464366      18568.417    
    372000   0.98790314     0.0023323615  -0.003404661    20.84519       19.378153      1.4670362     -1.1046293      18675.057    
    373000   1.1154593      0.0023323615  -0.0026351534   21.126694      19.470237      1.6564571     -1.1613049      18792.873    
    374000   1.0183826      0.0023323615   0.0013081326   21.097922      19.585624      1.5122982     -0.88554879     18912.996    
    375000   0.84174545     0.0023323615   0.001949171    20.611625      19.361633      1.249992      -1.186415       18922.716    
    376000   0.938202       0.0023323615   0.00013167258  20.996914      19.603684      1.39323       -0.9278666      18784.449    
    377000   1.0456095      0.0023323615  -0.002359406    21.01928       19.46655       1.5527301     -1.0264976      18731.665    
    378000   0.98748376     0.0023323615  -0.0037255249   20.950717      19.484303      1.4664134     -0.9305279      18825.326    
    379000   1.0072593      0.0023323615  -0.0029006844   20.955359      19.459579      1.49578       -0.98888145     18898.679    
    380000   0.92606565     0.0023323615  -0.00061636711  20.993029      19.617822      1.3752075     -0.86717432     18989.79     
    381000   1.0377382      0.0023323615   0.0015983024   21.464302      19.92326       1.5410412     -0.77153737     18979.485    
    382000   1.1231368      0.0023323615   0.0018549364   21.353695      19.685837      1.6678582     -0.83126239     19009.66     
    383000   1.0788179      0.0023323615   0.00097116286  20.65721       19.055165      1.6020446     -1.4342114      18840.13     
    384000   1.0298527      0.0023323615  -3.3206999e-06  20.853357      19.324026      1.5293312     -1.2701702      18590.984    
    385000   0.99356887     0.0023323615  -0.00031392901  20.927014      19.451565      1.4754498     -1.029223       18686.346    
    386000   0.96842358     0.0023323615   0.0007836759   20.565572      19.127463      1.438109      -1.3467082      18530.311    
    387000   1.0035743      0.0023323615  -0.0018157205   20.842115      19.351808      1.4903078     -1.0418775      18726.984    
    388000   1.0231735      0.0023323615  -0.0068843432   21.020689      19.501276      1.5194127     -1.1151377      18862.66     
    389000   0.89207554     0.0023323615  -0.0012184508   20.567996      19.243264      1.3247322     -1.2676282      18614.304    
    390000   0.94242953     0.0023323615   0.0048677458   20.641266      19.241758      1.3995079     -1.290658       18660.578    
    391000   1.0769855      0.0023323615   0.00088218148  20.825809      19.226486      1.5993234     -1.2961772      18578.301    
    392000   1.0386395      0.0023323615  -0.0037453396   20.957805      19.415426      1.5423797     -1.1624112      18492.913    
    393000   1.0978404      0.0023323615  -5.0207129e-05  21.156656      19.526363      1.6302929     -0.99283145     18825.011    
    394000   0.96273712     0.0023323615  -0.0029596567   20.817037      19.387372      1.4296646     -1.1366667      18798.526    
    395000   0.8390057      0.0023323615  -0.0042474929   20.758013      19.51209       1.2459235     -1.0364438      18847.661    
    396000   1.075428       0.0023323615   0.0040150184   20.869247      19.272236      1.5970106     -1.2194002      18697.684    
    397000   1.0212528      0.0023323615  -0.0013617869   20.744145      19.227585      1.5165605     -1.2679604      18739.226    
    398000   0.98794759     0.0023323615   0.00031258993  20.947946      19.480844      1.4671022     -1.050706       18803.218    
    399000   1.0510631      0.0023323615   0.00057373456  20.763129      19.2023        1.5608287     -1.2635707      18658.959    
    400000   1.0606409      0.0023323615   0.0023324455   20.694225      19.119173      1.5750517     -1.3815693      18427.803    
    401000   1.000617       0.0023323615   0.0039612706   21.061288      19.575372      1.4859163     -1.1278499      18580.978    
    402000   1.0351888      0.0023323615  -0.0058794763   20.912111      19.374856      1.5372553     -1.1516926      18660.696    
    403000   0.84076142     0.0023323615  -0.0048220961   20.635743      19.387212      1.2485307     -1.2678956      18624.505    
    404000   0.94606464     0.0023323615   0.0016700459   20.874695      19.469789      1.404906      -1.1780364      18501.568    
    405000   0.97281431     0.0023323615   0.0063885336   20.599564      19.154935      1.4446293     -1.4034585      18541.109    
    406000   0.93769515     0.0023323615  -0.00038261981  20.483096      19.090619      1.3924773     -1.3963891      18528.065    
    407000   1.1360321      0.0023323615  -0.0024279053   21.134259      19.447251      1.6870076     -1.0330252      18696.15     
    408000   1.000371       0.0023323615   0.0045775555   21.037971      19.55242       1.4855509     -0.96942855     18700.298    
    409000   1.0140458      0.0023323615   0.0040651015   20.906502      19.400644      1.505858      -1.1041353      19015.042    
    410000   0.94181305     0.0023323615   0.0022916727   20.943733      19.545141      1.3985924     -1.0010497      18934.914    
    411000   0.9591984      0.0023323615   0.00097543592  20.791333      19.366924      1.4244096     -1.0808876      18902.029    
    412000   1.1745832      0.0023323615   0.0027252855   21.190702      19.446446      1.744256      -1.0884845      19009.83     
    413000   0.97868752     0.0023323615  -0.0012962896   21.064019      19.610668      1.453351      -0.91207305     19506.791    
    414000   1.066259       0.0023323615  -0.0019893972   21.274819      19.691425      1.5833946     -0.93104994     19047.224    
    415000   1.0655337      0.0023323615  -0.00050018338  21.026076      19.443759      1.5823176     -1.0924794      18878.35     
    416000   0.91971053     0.0023323615   0.0026413217   20.851802      19.486032      1.3657701     -1.0546632      19177.243    
    417000   0.97770632     0.0023323615   0.0041101714   21.059403      19.607509      1.4518939     -0.9139032      19793.763    
    418000   1.0947877      0.0023323615   0.0010946246   21.265283      19.639523      1.6257598     -0.95372282     19819.353    
    419000   0.90557137     0.0023323615  -0.005303772    20.929298      19.584524      1.3447735     -0.98758437     19380.233    
    420000   1.0666431      0.0023323615  -0.0025140689   21.161353      19.577388      1.5839651     -0.90904212     19965.707    
    421000   0.89297329     0.0023323615  -0.0015601906   21.100893      19.774828      1.3260653     -0.85554852     19530.448    
    422000   0.93957494     0.0023323615   0.0023577616   20.788306      19.393037      1.3952688     -1.1211559      18916.483    
    423000   0.8992771      0.0023323615   0.001515218    20.593127      19.2577        1.3354265     -1.2693745      18663.313    
    424000   1.1994508      0.0023323615   0.0009284691   21.120446      19.339261      1.7811844     -1.133886       18612.02     
    425000   1.1321082      0.0023323615  -0.00012144855  20.809974      19.128793      1.6811806     -1.367587       18670.638    
    426000   1.0640089      0.0023323615   0.004330579    20.839164      19.259111      1.5800532     -1.1570276      18691.704    
    427000   0.94598807     0.0023323615  -0.0033159501   20.954725      19.549932      1.4047923     -1.0470776      19080.92     
    428000   0.91991625     0.0023323615   0.0045990521   20.858655      19.49258       1.3660756     -1.0220968      19261.379    
    429000   0.877114       0.0023323615  -0.0017262785   20.688914      19.3864        1.3025143     -1.1447508      18787.822    
    430000   1.0285466      0.0023323615   0.0045062991   20.955802      19.428411      1.5273917     -1.1362706      18675.62     
    431000   0.93040321     0.0023323615  -0.0044217122   21.055731      19.674082      1.3816488     -0.94375556     18689.442    
    432000   0.97966873     0.0023323615   0.00016658422  20.944045      19.489237      1.4548081     -1.1022136      18833.798    
    433000   1.0320275      0.0023323615   0.0032011766   20.883423      19.350862      1.5325609     -1.0747889      18997.427    
    434000   0.99228608     0.0023323615   7.4426997e-05  20.862263      19.388719      1.4735448     -1.1123435      18731.433    
    435000   0.95580537     0.0023323615  -5.8674032e-05  20.790235      19.370864      1.419371      -1.2223786      18720.209    
    436000   1.0499924      0.0023323615  -0.0054141752   21.267787      19.708548      1.5592387     -1.0428794      18731.848    
    437000   0.89913196     0.0023323615  -0.0011409087   20.921825      19.586614      1.335211      -1.0704819      18764.764    
    438000   0.90845197     0.0023323615  -0.0022640047   20.749656      19.400605      1.3490512     -1.0712526      18996.665    
    439000   1.0352199      0.0023323615   0.0041415444   21.204276      19.666975      1.5373016     -0.90481721     19374.101    
    440000   1.0233443      0.0023323615   0.0022446099   21.295977      19.776311      1.5196663     -0.76837405     19156.451    
    441000   1.1614444      0.0023323615   0.005296647    20.938717      19.213972      1.724745      -1.1808196      18799.227    
    442000   1.0597972      0.0023323615   0.0017006089   20.85303       19.279231      1.5737989     -1.1749541      18692.169    
    443000   1.0373026      0.0023323615  -0.001074855    21.001867      19.461473      1.5403943     -1.0460802      18640.866    
    444000   1.063812       0.0023323615  -0.0024719192   21.107412      19.527652      1.5797608     -0.95113557     18755.582    
    445000   1.0264477      0.0023323615   0.00024666403  21.090241      19.565966      1.5242748     -0.95117499     18737.791    
    446000   1.1368107      0.0023323615   0.0045143894   20.990291      19.302127      1.6881639     -1.1118721      18775.721    
    447000   1.1233575      0.0023323615   0.0010152404   21.158115      19.489929      1.6681859     -1.0820134      18734.791    
    448000   0.92671424     0.0023323615   0.0058753171   20.423965      19.047794      1.3761707     -1.416955       18528.536    
    449000   0.94903152     0.0023323615  -0.0015734013   20.7759        19.366588      1.4093118     -1.1872954      18562.398    
    450000   0.8901526      0.0023323615  -0.00013195905  20.687243      19.365366      1.3218766     -1.1693709      18588.173    
    451000   1.0456814      0.0023323615   0.0049694701   20.701207      19.14837       1.5528368     -1.3212384      18739.036    
    452000   0.91457991     0.0023323615  -0.0051962483   20.634856      19.276705      1.3581512     -1.1735036      18589.308    
    453000   1.0221773      0.0023323615   0.0012632323   20.950326      19.432393      1.5179333     -1.1147492      18623.361    
    454000   0.94458921     0.0023323615  -0.00088915545  20.839899      19.437184      1.402715      -1.0923424      18759.77     
    455000   0.93762007     0.0023323615   0.00076140177  20.65198       19.259614      1.3923658     -1.2659176      18623.153    
    456000   0.84068421     0.0023323615   0.00094638955  20.730402      19.481986      1.2484161     -1.1553448      18519.89     
    457000   0.9209814      0.0023323615  -0.0014062489   20.837138      19.46948       1.3676574     -1.094759       18686.01     
    458000   0.83334173     0.0023323615  -0.00088305351  20.743148      19.505635      1.2375125     -1.0238207      18676.186    
    459000   1.0208394      0.0023323615   0.0021021825   20.917867      19.40192       1.5159464     -1.056389       18685.063    
    460000   0.9777987      0.0023323615   0.0011012944   20.824918      19.372887      1.4520311     -1.1415987      18575.85     
    461000   1.0763725      0.0023323615   0.0026801338   20.863426      19.265013      1.5984131     -1.1607682      18570.607    
    462000   0.89425972     0.0023323615   0.00068026061  20.722928      19.394952      1.3279757     -1.2001019      18569.896    
    463000   1.0575596      0.0023323615   0.00016095893  20.911185      19.340709      1.570476      -1.0994797      18565.081    
    464000   1.0288967      0.0023323615  -0.0047999051   21.278976      19.751065      1.5279117     -0.90879364     18738.589    
    465000   0.91790353     0.0023323615   0.00037288214  20.743806      19.380719      1.3630867     -1.087111       18618.449    
    466000   1.0266287      0.0023323615  -0.00053225348  20.71123       19.186686      1.5245436     -1.3337873      18512.522    
    467000   0.90185312     0.0023323615  -0.0033107863   20.88169       19.542438      1.3392519     -1.1480226      18562.267    
    468000   1.0440642      0.0023323615  -0.00025556587  20.870069      19.319634      1.5504353     -1.1575812      18613.578    
    469000   1.0268211      0.0023323615   0.00041616791  21.106841      19.582011      1.5248293     -1.072006       18642.28     
    470000   0.87009745     0.0023323615  -0.0046171707   20.576549      19.284454      1.2920947     -1.1928476      18680.093    
    471000   1.0421508      0.0023323615  -0.0022621502   21.014573      19.466979      1.5475939     -1.1151996      18659.573    
    472000   0.98046844     0.0023323615  -0.0015511174   20.766224      19.310228      1.4559956     -1.1556695      18762.662    
    473000   0.99274905     0.0023323615  -0.0019786797   20.924594      19.450362      1.4742323     -1.0946358      18715.438    
    474000   0.89340547     0.0023323615  -0.0040165481   20.728709      19.402002      1.3267071     -1.2277614      18736.208    
    475000   1.156067       0.0023323615   0.0014651266   21.04541       19.328651      1.7167596     -1.094356       18742.981    
    476000   1.0316094      0.0023323615  -0.00057558509  20.860485      19.328545      1.53194       -1.1787122      18693.941    
    477000   0.98306592     0.0023323615   0.0013299159   20.825755      19.365902      1.4598529     -1.0415745      18813.613    
    478000   0.8871828      0.0023323615   0.0040401337   20.594431      19.276965      1.3174665     -1.2468507      18636.558    
    479000   1.1467714      0.0023323615   0.0021995564   21.013507      19.310551      1.7029556     -1.1755942      18612.856    
    480000   0.87265554     0.0023323615  -0.0040124042   20.884688      19.588795      1.2958935     -0.93577407     18805.322    
    481000   0.98701707     0.0023323615   0.0013439987   20.650002      19.184282      1.4657203     -1.2772714      18675.008    
    482000   0.90263143     0.0023323615  -0.0022621932   20.800174      19.459766      1.3404077     -1.0542449      18725.856    
    483000   0.94619875     0.0023323615   0.0028767241   20.848995      19.44389       1.4051051     -1.2324279      18796.848    
    484000   0.9324764      0.0023323615  -0.0004556689   20.709998      19.32527       1.3847275     -1.1399461      18729.964    
    485000   1.023902       0.0023323615  -3.4962492e-05  20.731081      19.210587      1.5204944     -1.3335976      18706.006    
    486000   0.95238601     0.0023323615   0.0026013763   20.742908      19.328615      1.4142932     -1.2695649      18753.355    
    487000   0.85070881     0.0023323615  -0.0025064921   20.740626      19.477323      1.2633026     -1.1518304      18664.134    
    488000   0.9468388      0.0023323615  -0.0056032116   20.639411      19.233355      1.4060556     -1.2579602      18680.677    
    489000   0.84682945     0.0023323615  -0.0013902817   20.754856      19.497314      1.2575417     -1.0692532      18766.052    
    490000   0.85943319     0.0023323615   0.0010915763   20.786147      19.509888      1.2762583     -1.0740022      18829.492    
    491000   0.92273444     0.0023323615  -0.00099790589  20.968215      19.597954      1.3702606     -1.0118947      18868.351    
    492000   1.0399914      0.0023323615  -0.00063712026  20.846447      19.30206       1.5443873     -1.083283       18941.145    
    493000   1.0239157      0.0023323615   0.0012391022   20.923854      19.403339      1.5205149     -1.1436235      19064.411    
    494000   0.98785761     0.0023323615   0.0042582048   20.714157      19.247188      1.4669685     -1.1953546      19219.113    
    495000   0.83872253     0.0023323615   0.00067184173  20.519049      19.273546      1.245503      -1.1421373      19026.695    
    496000   0.97165094     0.0023323615   0.00083033617  21.061749      19.618847      1.4429016     -0.85565721     18806.676    
    497000   1.0167126      0.0023323615   0.0056435664   20.737548      19.22773       1.5098182     -1.1757719      18814.588    
    498000   1.010794       0.0023323615  -0.00088325487  20.806248      19.305219      1.5010291     -1.2197332      18704.194    
    499000   1.0139292      0.0023323615  -0.002286243    21.13353       19.627845      1.5056848     -0.88937541     18785.039    
    500000   0.96733162     0.0023323615  -0.0030023385   20.928701      19.492213      1.4364875     -1.0288752      18931.154    
    501000   1.0280971      0.0023323615  -0.0020487626   20.948491      19.421767      1.5267242     -1.0329697      18784.898    
    502000   1.0167813      0.0023323615  -0.00096542859  20.923792      19.413872      1.5099203     -1.1169736      18802.077    
    503000   1.0346423      0.0023323615   0.0021750772   20.907676      19.371232      1.5364438     -1.2156506      18779.706    
    504000   0.97468674     0.0023323615  -0.0028767538   20.787232      19.339822      1.4474098     -1.0909251      19024.722    
    505000   0.987425       0.0023323615  -0.00013104722  20.753942      19.287616      1.4663261     -1.2888349      19223.222    
    506000   1.0762965      0.0023323615  -0.0010516473   20.936135      19.337835      1.5983004     -1.1511811      18880.85     
    507000   1.031934       0.0023323615  -0.0032629309   21.08272       19.550298      1.532422      -1.1626188      18952.218    
    508000   0.9996607      0.0023323615  -0.0027675599   20.824013      19.339517      1.4844961     -1.0824504      18735.807    
    509000   1.0304579      0.0023323615  -0.0040129752   20.885481      19.355251      1.53023       -1.1972961      18768.328    
    510000   1.022403       0.0023323615   0.0026564291   20.727943      19.209675      1.5182684     -1.3343206      18610.836    
    511000   0.99909078     0.0023323615   0.0033246441   20.81803       19.33438       1.4836498     -1.0853681      18679.824    
    512000   0.94023959     0.0023323615  -0.001283373    20.801067      19.404811      1.3962558     -1.1590644      18859.111    
    513000   0.84329339     0.0023323615  -0.0019920936   20.620939      19.368648      1.2522907     -1.0616856      18675.92     
    514000   0.9218803      0.0023323615   0.0022653817   20.760643      19.391651      1.3689923     -1.1784951      18741.369    
    515000   0.94491979     0.0023323615   0.00074326276  20.7768        19.373595      1.4032059     -1.1168509      18630.609    
    516000   0.97942651     0.0023323615  -0.00045376285  20.757248      19.3028        1.4544484     -1.2332378      18670.806    
    517000   1.0009653      0.0023323615  -0.00065458308  20.523983      19.037549      1.4864335     -1.4259729      18729.753    
    518000   0.87427944     0.0023323615  -0.0027019882   20.579128      19.280823      1.298305      -1.1261129      18679.321    
    519000   0.96936118     0.0023323615   0.0020865082   20.78486       19.345358      1.4395014     -1.0914813      18785.166    
    520000   1.0675278      0.0023323615  -0.0012894341   21.155493      19.570214      1.5852788     -1.0551867      18715.498    
    521000   1.2055077      0.0023323615  -0.0021831986   21.098111      19.307932      1.7901789     -1.1834448      18733.085    
    522000   0.85831072     0.0023323615  -3.7093278e-05  20.519822      19.24523       1.2745914     -1.2587116      18674.389    
    523000   1.0217925      0.0023323615  -0.0050136625   20.896746      19.379384      1.5173619     -1.1182587      18649.159    
    524000   0.73813201     0.0023323615   0.00018687146  20.545818      19.449692      1.096126      -1.0864225      18780.07     
    525000   1.1541728      0.0023323615   0.00025690675  21.010731      19.296784      1.7139467     -1.1971785      18985.478    
    526000   1.0098091      0.0023323615   0.0026190288   20.954077      19.45451       1.4995665     -1.0462096      19208.487    
    527000   1.1218156      0.0023323615   0.0027597167   21.35032       19.684423      1.6658962     -0.81276928     19736.479    
    528000   1.1291424      0.0023323615   0.0018589014   21.291528      19.614752      1.6767764     -0.9934431      19507.744    
    529000   1.0317211      0.0023323615   0.00040502003  20.958142      19.426036      1.5321058     -1.1798128      18742.231    
    530000   1.0547154      0.0023323615  -0.0002310479   20.895905      19.329652      1.5662524     -1.2855198      18657.365    
    531000   1.0203423      0.0023323615   0.003490495    20.898965      19.383757      1.5152083     -1.1398329      18700.371    
    532000   0.96620517     0.0023323615  -0.0058947138   21.106111      19.671296      1.4348147     -0.96244714     18753.746    
    533000   1.0465754      0.0023323615  -0.0010180192   20.94582       19.391656      1.5541644     -1.1923374      18674.064    
    534000   1.092192       0.0023323615   0.003066812    21.161036      19.539131      1.6219051     -1.1157706      18785.036    
    535000   1.0137772      0.0023323615  -0.00086370007  20.797648      19.292189      1.5054591     -1.2237012      18777.865    
    536000   0.95488642     0.0023323615   0.0001051989   20.823999      19.405992      1.4180063     -1.1039512      18713.782    
    537000   0.99831134     0.0023323615  -0.0002830272   20.849187      19.366694      1.4824923     -1.1622309      19139.348    
    538000   0.93273514     0.0023323615   0.0014033574   20.789901      19.404789      1.3851117     -1.16347        18830.902    
    539000   0.93642951     0.0023323615   0.0060487844   20.571745      19.181147      1.3905978     -1.3423131      18693.342    
    540000   0.97099423     0.0023323615  -0.0014440651   21.172824      19.730897      1.4419264     -0.9057718      19068.832    
    541000   0.92858408     0.0023323615   0.0030927244   20.751758      19.372811      1.3789474     -1.1434001      18905.44     
    542000   0.89715853     0.0023323615   0.001813865    20.833614      19.501334      1.3322804     -1.067469       18769.856    
    543000   0.97634274     0.0023323615  -0.003561435    20.906715      19.456846      1.449869      -1.1077552      18756.918    
    544000   0.95921041     0.0023323615  -0.00041188061  20.793563      19.369136      1.4244275     -1.144764       18557.867    
    545000   1.0707782      0.0023323615  -0.0029193425   20.927835      19.33773       1.5901056     -1.1151968      18679.841    
    546000   1.0133969      0.0023323615  -0.0011237642   21.032224      19.52733       1.5048943     -0.9759884      18763.858    
    547000   1.0650269      0.0023323615   0.0048011379   21.187647      19.606082      1.581565      -0.85246789     18978.565    
    548000   1.1237153      0.0023323615   0.00025738329  21.156577      19.487859      1.6687172     -1.1460466      18956.39     
    549000   0.94827139     0.0023323615   0.0014779513   20.686991      19.278808      1.408183      -1.1683443      18785.63     
    550000   1.1434132      0.0023323615   0.00059791504  20.905271      19.207302      1.6979686     -1.3580715      18776.94     
    551000   0.94897846     0.0023323615   0.0038651575   20.950587      19.541354      1.409233      -1.1228019      19261.601    
    552000   0.98345505     0.0023323615  -0.0030703575   21.006537      19.546106      1.4604307     -1.0966492      19453.466    
    553000   0.83048472     0.0023323615  -0.0044044981   20.65407       19.4208        1.2332698     -1.1555708      18850.213    
    554000   1.0488828      0.0023323615   0.0016543886   20.793384      19.235793      1.557591      -1.3496129      18820.957    
    555000   1.105976       0.0023323615  -0.00063302266  21.138101      19.495727      1.6423744     -1.0920893      18854.825    
    556000   1.1531747      0.0023323615   5.1653618e-05  20.992965      19.2805        1.7124644     -1.1661162      19583.548    
    557000   0.99722038     0.0023323615   0.0044602535   20.862143      19.381271      1.4808723     -1.0313452      20260.077    
    558000   1.0241701      0.0023323615  -0.00091954535  21.328802      19.807909      1.5208926     -0.93451122     20390.377    
    559000   1.0267461      0.0023323615   0.00078752366  21.124465      19.599747      1.5247179     -0.83164231     21360.069    
    560000   0.98350988     0.0023323615  -0.0036497392   21.151007      19.690495      1.4605122     -0.85863149     20449.72     
    561000   0.82972574     0.0023323615  -0.00055603721  20.563834      19.331692      1.2321427     -1.2346492      20213.365    
    562000   0.97189913     0.0023323615  -0.0025261481   20.840697      19.397426      1.4432702     -1.1088542      19709.007    
    563000   0.93157788     0.0023323615  -0.0015676264   21.086753      19.70336       1.3833932     -0.87103412     19045.298    
    564000   0.93521497     0.0023323615   0.00031848118  20.770044      19.38125       1.3887942     -1.1147617      18755.614    
    565000   0.84635683     0.0023323615   0.0027886501   20.922391      19.665551      1.2568399     -0.82454417     18854.315    
    566000   0.98589836     0.0023323615   0.0025686874   20.796965      19.332906      1.4640591     -1.152062       18997.015    
    567000   0.95936709     0.0023323615  -0.0021274674   20.853676      19.429016      1.4246601     -1.1109537      19270.467    
    568000   0.90158319     0.0023323615  -0.0010635038   20.576913      19.238062      1.338851      -1.1930633      19100.287    
    569000   0.98713683     0.0023323615  -7.5797949e-05  20.574135      19.108237      1.4658982     -1.4093437      18740.229    
    570000   1.0107059      0.0023323615  -0.0050876286   20.739062      19.238164      1.5008983     -1.3381641      18730.779    
    571000   1.0071329      0.0023323615  -0.0024211012   20.853758      19.358166      1.4955923     -1.1271342      18790.775    
    572000   1.1186919      0.0023323615   0.0016906274   21.051622      19.390365      1.6612575     -1.3005356      18728.397    
    573000   0.99896046     0.0023323615   0.00028102091  20.93904       19.455583      1.4834563     -1.1961781      18757.662    
    574000   0.85915005     0.0023323615  -0.0033638904   20.624545      19.348707      1.2758378     -1.1224212      18912.239    
    575000   0.93514799     0.0023323615   2.1249186e-05  20.842673      19.453978      1.3886948     -1.0403241      18947.059    
    576000   0.96893359     0.0023323615   0.0056987791   20.804277      19.365411      1.4388664     -1.1681586      18796.724    
    577000   1.0296238      0.0023323615   0.00034679844  20.864416      19.335425      1.5289913     -1.2969627      18681.52     
    578000   1.0123705      0.0023323615  -0.00030980788  20.701596      19.198226      1.5033702     -1.2961238      18688.096    
    579000   1.0396873      0.0023323615   0.0014815353   20.904746      19.360811      1.5439357     -1.1930511      18647.173    
    580000   1.090372       0.0023323615   0.0027539162   20.97321       19.354008      1.6192024     -1.2097827      18599.364    
    581000   0.96719869     0.0023323615   0.0026663421   20.621976      19.185686      1.43629       -1.3798624      18679.3      
    582000   1.0441799      0.0023323615  -0.0017939293   20.865183      19.314576      1.5506071     -1.2048077      18740.802    
    583000   0.944596       0.0023323615  -0.000459015    21.054125      19.6514        1.4027251     -0.98255806     18782.982    
    584000   1.0620363      0.0023323615  -0.0010847527   20.857216      19.280092      1.5771239     -1.1825375      18769.574    
    585000   1.0016585      0.0023323615  -0.00040355968  21.110523      19.62306       1.4874629     -1.0221648      18741.897    
    586000   0.9290911      0.0023323615  -0.0027057205   21.043746      19.664045      1.3797003     -0.89040831     19011.51     
    587000   1.0843386      0.0023323615   0.0010938654   21.208605      19.598362      1.6102428     -0.93863896     19273.883    
    588000   1.0156088      0.0023323615  -0.0008211243   21.165337      19.657158      1.5081791     -1.0430213      19049.191    
    589000   1.1125379      0.0023323615   2.057238e-05   20.889326      19.237207      1.6521188     -1.3425406      18764.027    
    590000   1.008679       0.0023323615  -0.0021749063   20.906983      19.409094      1.4978883     -1.1380993      18617.112    
    591000   0.97824836     0.0023323615  -0.0021464327   20.922535      19.469836      1.4526988     -1.122919       18726.517    
    592000   0.91555952     0.0023323615  -0.0023006705   20.421114      19.061509      1.3596059     -1.3787389      18653.345    
    593000   1.0478604      0.0023323615   0.0022482716   20.777517      19.221444      1.5560727     -1.2597152      18876.166    
    594000   0.91241873     0.0023323615   0.0021333645   20.839629      19.484687      1.3549418     -1.060213       18765.872    
    595000   0.90564531     0.0023323615   0.0010901975   20.623815      19.278932      1.3448833     -1.1948595      18716.702    
    596000   0.9149702      0.0023323615   0.0010835094   20.842747      19.484016      1.3587308     -1.065874       18634.073    
    597000   1.0137709      0.0023323615   0.002197533    20.70839       19.20294       1.5054498     -1.2158678      18772.772    
    598000   0.99105853     0.0023323615  -0.00051439648  20.867791      19.396069      1.4717219     -1.0346383      18733.708    
    599000   0.99821157     0.0023323615   0.0031097237   20.944616      19.462272      1.4823442     -1.0220234      19040.735    
    600000   0.94816194     0.0023323615   0.0011519553   20.702564      19.294543      1.4080205     -1.2194792      18901.212    
    601000   1.062145       0.0023323615  -0.00094915151  21.062534      19.485249      1.5772853     -1.0023777      18856.816    
    602000   1.0193973      0.0023323615   0.0048978853   21.277822      19.764017      1.513805      -0.88099421     18804.901    
    603000   0.96868172     0.0023323615  -0.00018680462  21.195962      19.75747       1.4384923     -0.90661643     18810.841    
    604000   0.99270791     0.0023323615  -0.0020910093   20.895057      19.420886      1.4741713     -1.0823655      18752.436    
    605000   0.96520199     0.0023323615  -0.00029136524  20.711848      19.278523      1.433325      -1.0547544      18999.897    
    606000   0.99889898     0.0023323615   0.0031596373   20.847143      19.363778      1.483365      -1.0903919      20104.88     
    607000   1.1145167      0.0023323615  -0.00055777554  21.265509      19.610452      1.6550573     -0.90100347     20454.363    
    608000   0.90193117     0.0023323615   0.0024960294   20.859748      19.52038       1.3393678     -0.9598767      19628.147    
    609000   1.1374773      0.0023323615   0.00081899234  21.110046      19.420892      1.6891538     -1.1094316      19122.433    
    610000   1.1562781      0.0023323615  -0.0021662338   21.136152      19.419079      1.7170729     -1.0263186      18917.692    
    611000   1.0288457      0.0023323615  -0.0019267079   20.905834      19.377998      1.5278358     -1.1023824      18835.327    
    612000   1.0291964      0.0023323615   0.0025401778   20.93106       19.402704      1.5283566     -1.1078255      18640.104    
    613000   1.0711944      0.0023323615   0.00045772862  20.883129      19.292406      1.5907237     -1.2196594      18685.982    
    614000   1.0085055      0.0023323615   0.0017841658   21.029438      19.531807      1.4976307     -1.0158865      18773.362    
    615000   0.95068711     0.0023323615   0.0030000145   20.692104      19.280333      1.4117704     -1.3365327      18598.865    
    616000   0.99183869     0.0023323615   0.0075488396   20.875334      19.402454      1.4728804     -1.2566995      18627.772    
    617000   1.0481398      0.0023323615  -0.0047240457   20.938149      19.381662      1.5564875     -1.0685988      18680.569    
    618000   0.94796897     0.0023323615  -0.0013178373   20.76213       19.354396      1.4077339     -1.1603506      18784.007    
    619000   0.96283043     0.0023323615   0.0030856826   20.740376      19.310573      1.4298032     -1.173273       18845.874    
    620000   0.85749324     0.0023323615   8.1426762e-05  20.610673      19.337295      1.2733775     -1.2087538      18881.658    
    621000   1.1381583      0.0023323615  -0.00031529656  21.236814      19.546649      1.6901651     -0.96787211     18670.062    
    622000   0.93779494     0.0023323615  -0.0020409787   20.908778      19.516153      1.3926255     -1.0908684      18873.392    
    623000   1.1625798      0.0023323615   7.3538386e-05  21.142798      19.416367      1.726431      -1.0342527      19184.787    
    624000   0.96194088     0.0023323615   0.0023079211   20.770299      19.341817      1.4284822     -1.1282448      19207.844    
    625000   1.139936       0.0023323615   0.00059524588  20.927333      19.234528      1.6928049     -1.2232404      18776.639    
    626000   1.011383       0.0023323615   0.00072532052  20.996248      19.494344      1.5019038     -1.1362693      18849.865    
    627000   0.90756816     0.0023323615  -0.0018080093   20.951455      19.603716      1.3477387     -0.99607523     18764.852    
    628000   0.96408654     0.0023323615  -0.003011647    20.948075      19.516407      1.4316685     -0.94779728     18810.312    
    629000   0.825047       0.0023323615  -0.000602592    20.914065      19.68887       1.2251948     -0.79511222     18899.33     
    630000   0.97996748     0.0023323615  -0.0015732775   20.896822      19.44157       1.4552517     -1.1300853      18910.889    
    631000   0.95406856     0.0023323615  -0.00062527904  20.654836      19.238044      1.4167918     -1.3385382      18700.333    
    632000   1.1324343      0.0023323615   0.00068495158  21.139803      19.458138      1.6816649     -1.0393903      18813.84     
    633000   1.0563624      0.0023323615  -0.00132549     21.081133      19.512434      1.5686981     -1.0009482      19248.115    
    634000   1.0282997      0.0023323615   0.0027882757   21.165086      19.638061      1.527025      -0.92592144     19426.78     
    635000   0.88737108     0.0023323615  -0.003396966    20.666635      19.348889      1.3177461     -1.2294708      18906.673    
    636000   0.88599864     0.0023323615   5.2253394e-06  20.913005      19.597297      1.315708      -1.0395461      18622.691    
    637000   0.96011036     0.0023323615  -0.0024288458   20.76066       19.334896      1.4257639     -1.1962229      18624.164    
    638000   1.0369645      0.0023323615   0.0036397226   20.731623      19.191731      1.5398922     -1.2287199      18708.647    
    639000   1.0075839      0.0023323615   0.00023571151  20.896212      19.39995       1.4962621     -1.1813839      18683.597    
    640000   0.9599619      0.0023323615   0.0032305863   20.510295      19.084752      1.4255434     -1.403867       18722.042    
    641000   1.027388       0.0023323615  -0.0016040709   20.857208      19.331537      1.5256712     -1.2258119      18505.139    
    642000   0.89384772     0.0023323615   5.2826772e-05  20.432138      19.104774      1.3273639     -1.5080511      18400.11     
    643000   1.0791625      0.0023323615  -0.0030079346   21.008957      19.4064        1.6025563     -1.0267368      18585.286    
    644000   0.83429034     0.0023323615   0.0019519212   20.459787      19.220866      1.2389211     -1.2909165      18575.681    
    645000   0.85144805     0.0023323615  -0.0037852806   20.495052      19.230652      1.2644004     -1.3495253      18622.931    
    646000   0.90577298     0.0023323615  -0.0011398522   21.008195      19.663123      1.3450729     -0.93236704     18801.78     
    647000   1.1990014      0.0023323615  -0.00064128639  21.487613      19.707096      1.7805171     -0.90077772     18951.297    
    648000   1.08518        0.0023323615   0.00041889513  21.129385      19.517893      1.6114923     -0.95785804     19704.805    
    649000   0.99947263     0.0023323615  -0.0014567749   21.222636      19.738419      1.4842169     -0.77212821     18649.041    
    650000   0.99075358     0.0023323615   0.0012992752   21.030252      19.558983      1.4712691     -1.0163476      19403.882    
    651000   0.83166149     0.0023323615   3.222496e-05   20.575963      19.340946      1.2350173     -1.1440872      18708.556    
    652000   1.0068256      0.0023323615   0.0016732791   20.673509      19.178373      1.495136      -1.2699399      18557.128    
    653000   1.050326       0.0023323615   0.00033720425  20.95021       19.390476      1.5597342     -1.1798986      18538.561    
    654000   1.0459681      0.0023323615   0.00029560662  21.092747      19.539484      1.5532627     -1.0012898      18595.937    
    655000   0.93879024     0.0023323615  -0.0023537582   21.054526      19.660422      1.3941035     -0.82880096     19080.037    
    656000   1.1335905      0.0023323615   0.002931067    20.955227      19.271845      1.6833819     -1.20694        19257.558    
    657000   0.87843281     0.0023323615  -0.00088802885  20.675506      19.371034      1.3044727     -1.0816973      18952.755    
    658000   0.91533775     0.0023323615  -0.0014012146   20.814641      19.455365      1.3592766     -1.0351956      18812.177    
    659000   1.0737803      0.0023323615  -0.00026638979  21.177256      19.582692      1.5945637     -0.90956853     19227.995    
    660000   0.98105947     0.0023323615  -0.0019556087   20.905716      19.448843      1.4568733     -0.9965696      19230.418    
    661000   1.00231        0.0023323615   0.0018374594   20.946293      19.457863      1.4884304     -0.99479448     18896.575    
    662000   0.93392846     0.0023323615   0.001936091    20.567391      19.180507      1.3868838     -1.3131663      18629.458    
    663000   1.0723211      0.0023323615  -0.0016727508   20.850202      19.257805      1.5923968     -1.2961412      18461.865    
    664000   1.004343       0.0023323615   0.0014788828   20.935271      19.443822      1.4914494     -1.0259043      18635.301    
    665000   0.97944286     0.0023323615  -0.00077766747  20.910749      19.456277      1.4544727     -1.0284145      18758.878    
    666000   1.0395304      0.0023323615   0.0022290323   21.169427      19.625725      1.5437027     -1.0392308      18766.144    
    667000   0.9433259      0.0023323615   0.0020647511   20.712209      19.31137       1.400839      -1.2443842      18657.435    
    668000   0.85232073     0.0023323615  -0.00048650616  20.697372      19.431676      1.2656963     -1.225856       18595.151    
    669000   1.1378101      0.0023323615   0.003485006    21.340542      19.650894      1.6896481     -0.95398538     18686.084    
    670000   0.84173151     0.0023323615   0.0021367043   20.566227      19.316255      1.2499713     -1.1594898      18799.889    
    671000   0.99396822     0.0023323615  -0.0064517042   21.089029      19.612986      1.4760428     -1.0186913      19091.537    
    672000   0.97538414     0.0023323615   0.0011601918   20.880217      19.431772      1.4484454     -1.0387137      18895.258    
    673000   0.9619796      0.0023323615  -0.0040243983   20.708658      19.280118      1.4285397     -1.2293973      18702.116    
    674000   0.92310487     0.0023323615  -0.0013554686   20.640126      19.269315      1.3708107     -1.3056913      18590.811    
    675000   1.0115401      0.0023323615  -0.0058692998   20.909387      19.407249      1.5021371     -1.1322287      18573.714    
    676000   0.9213865      0.0023323615   0.00043706027  21.022327      19.654068      1.368259      -0.97811727     18855.751    
    677000   0.95023798     0.0023323615  -0.005148753    20.621698      19.210595      1.4111034     -1.2746671      18791.118    
    678000   0.95897101     0.0023323615  -0.0019070947   20.77604       19.351968      1.4240719     -1.1497397      18714.203    
    679000   0.99329204     0.0023323615   0.00085877056  20.858585      19.383547      1.4750387     -0.99242142     18823.647    
    680000   0.94585565     0.0023323615   0.0017865115   20.684381      19.279785      1.4045956     -1.1705537      18814.947    
    681000   1.0518471      0.0023323615  -0.0027528187   21.046524      19.484531      1.561993      -0.99045445     18896.41     
    682000   0.99254583     0.0023323615  -0.0058145725   21.080324      19.606393      1.4739306     -0.9909046      18848.465    
    683000   1.0040396      0.0023323615  -0.00027027282  20.720023      19.229024      1.4909989     -1.1334843      18699.601    
    684000   1.0353677      0.0023323615   0.0018831408   21.183473      19.645952      1.5375211     -0.92313205     18755.336    
    685000   0.95209779     0.0023323615   0.0014522179   20.70973       19.295865      1.4138652     -1.2454427      18781.183    
    686000   1.0423834      0.0023323615   0.0016902985   20.935516      19.387576      1.5479394     -1.1424428      18675.26     
    687000   1.0370401      0.0023323615   0.00042008127  20.871043      19.331039      1.5400045     -1.1617245      18594.697    
    688000   0.94230464     0.0023323615   0.0012568818   20.758759      19.359436      1.3993224     -1.1507629      18685.286    
    689000   1.0498817      0.0023323615   0.0041612167   21.026784      19.467709      1.5590744     -1.0609549      18821.752    
    690000   0.95083409     0.0023323615  -0.0034122817   20.44804       19.036052      1.4119886     -1.3530437      18809.82     
    691000   1.1836296      0.0023323615  -0.0052313091   21.121188      19.363498      1.75769       -1.1773309      18728.498    
    692000   1.002694       0.0023323615   0.0008748582   20.860659      19.371659      1.4890006     -1.0349316      18718.158    
    693000   0.91519203     0.0023323615   0.0022737502   20.804652      19.445592      1.3590602     -1.0692676      18695.114    
    694000   1.0025683      0.0023323615   0.0022407948   21.068376      19.579562      1.4888139     -1.0051263      18604.786    
    695000   0.90636476     0.0023323615  -0.0034095878   20.409748      19.063797      1.3459517     -1.3909376      18603.874    
    696000   1.1079744      0.0023323615   0.0034306155   20.546477      18.901135      1.6453419     -1.4755972      18656.542    
    697000   1.0036794      0.0023323615  -0.00076496049  20.629078      19.138614      1.4904639     -1.2670618      18618.824    
    698000   1.1387169      0.0023323615   0.0030585064   21.066608      19.375614      1.6909946     -1.2325753      18648.476    
    699000   1.1203969      0.0023323615   0.0018297432   21.109437      19.445647      1.6637894     -1.0098234      18752.32     
    700000   0.86746903     0.0023323615  -0.00032655211  20.776477      19.488286      1.2881915     -1.0087981      18656.849    
    701000   0.94967376     0.0023323615   8.6335284e-05  20.497034      19.086768      1.4102655     -1.4232868      18726.777    
    702000   0.93590956     0.0023323615  -0.0019464093   20.795463      19.405637      1.3898257     -1.1862945      18654.293    
    703000   1.0662641      0.0023323615   0.0018501373   21.292051      19.708649      1.5834022     -0.89310156     18708.952    
    704000   0.92854765     0.0023323615   0.00091459651  20.587292      19.208399      1.3788933     -1.3008351      18609.813    
    705000   0.99130671     0.0023323615   0.00043264139  20.741715      19.269625      1.4720905     -1.1838564      18616.661    
    706000   0.83324006     0.0023323615  -0.0036894528   20.564763      19.327402      1.2373615     -1.1025389      18543.954    
    707000   1.0219533      0.0023323615   0.0035989986   20.90479       19.387189      1.5176006     -1.0564985      18737.552    
    708000   1.0863588      0.0023323615   0.00027889099  20.951143      19.3379        1.6132428     -1.0578931      18697.488    
    709000   0.97524979     0.0023323615   0.00018972499  21.145879      19.697633      1.4482459     -0.94798698     18730.965    
    710000   1.0457987      0.0023323615  -0.0027347752   21.09525       19.542239      1.553011      -1.0012665      19169.751    
    711000   1.0361728      0.0023323615   0.0026121488   20.980546      19.44183       1.5387166     -1.1395482      18769.108    
    712000   1.086972       0.0023323615   0.0018895502   20.827548      19.213395      1.6141535     -1.1795785      18709.913    
    713000   0.95079295     0.0023323615  -0.001285231    20.867594      19.455667      1.4119275     -1.0529681      18647.261    
    714000   1.2550244      0.0023323615   0.00029044227  21.269524      19.405812      1.8637112     -1.1982358      18531.505    
    715000   0.95267752     0.0023323615  -0.0038848979   20.86775       19.453024      1.4147261     -1.059801       18448.256    
    716000   0.91242608     0.0023323615   0.00032481793  20.74707       19.392117      1.3549527     -1.1151643      18704.794    
    717000   1.1148426      0.0023323615  -0.00042925956  20.988503      19.332962      1.6555412     -1.1680361      18561.193    
    718000   0.94819778     0.0023323615  -0.0012961093   20.749786      19.341713      1.4080737     -1.0824226      18718.752    
    719000   0.83589015     0.0023323615  -0.0068875193   20.830239      19.588942      1.2412969     -0.9242135      19246.103    
    720000   1.0061689      0.0023323615  -0.0015640403   20.896211      19.40205       1.4941608     -0.93977867     19592.215    
    721000   0.98349299     0.0023323615  -0.001821549    20.667116      19.206629      1.4604871     -1.1956778      18892.243    
    722000   1.1168587      0.0023323615  -0.0032735913   21.28619       19.627655      1.6585351     -0.95871597     18970.459    
    723000   1.021501       0.0023323615   0.0028498834   21.063513      19.546584      1.516929      -1.011368       18775.008    
    724000   1.1633898      0.0023323615  -0.0027694439   21.078511      19.350877      1.7276338     -1.1306136      18612.078    
    725000   1.1301162      0.0023323615   0.0018839701   21.146118      19.467896      1.6782225     -1.0714114      18703.119    
    726000   0.95943754     0.0023323615  -0.00049412781  21.008326      19.583561      1.4247647     -1.0687714      18632.685    
    727000   0.87594173     0.0023323615  -0.00064468953  20.597662      19.296889      1.3007735     -1.3020377      18553.651    
    728000   0.86664773     0.0023323615  -0.0025702567   20.681         19.394028      1.2869719     -1.1927684      18675.672    
    729000   0.99537475     0.0023323615   0.0040150172   20.597253      19.119122      1.4781315     -1.299305       18426.572    
    730000   0.98090817     0.0023323615   0.002566829    20.644506      19.187857      1.4566486     -1.3395809      18597.458    
    731000   0.96990164     0.0023323615  -0.0014906928   20.798678      19.358374      1.4403039     -1.1478364      18587.262    
    732000   1.0174793      0.0023323615  -0.00089668794  21.181389      19.670433      1.5109567     -0.99370596     18681.971    
    733000   1.0218728      0.0023323615   0.0027622752   21.28039       19.762909      1.5174811     -0.91497914     18805.446    
    734000   0.97874443     0.0023323615  -0.00116804     20.90784       19.454404      1.4534355     -1.0848576      18911.727    
    735000   0.95324794     0.0023323615  -0.0036550782   21.076388      19.660815      1.4155732     -0.90248779     18923.731    
    736000   0.86131473     0.0023323615   0.00050689989  20.697414      19.418361      1.2790524     -1.0930637      18934.321    
    737000   0.94732985     0.0023323615  -0.0034311274   20.816223      19.409439      1.4067848     -1.191673       18827.162    
    738000   0.97161646     0.0023323615   0.0044420738   20.959776      19.516925      1.4428504     -0.92867974     18827.933    
    739000   0.99413413     0.0023323615   0.0009105548   20.808393      19.332104      1.4762892     -1.143009       18769.277    
    740000   0.98882926     0.0023323615  -0.00089443941  21.138643      19.670231      1.4684115     -0.8256886      18769.588    
    741000   0.97945253     0.0023323615   0.0011650108   20.796675      19.342188      1.454487      -1.1184173      18840.507    
    742000   0.92451177     0.0023323615  -0.0010748983   20.817604      19.444704      1.3729        -1.0959824      18774.714    
    743000   0.93571937     0.0023323615  -0.00013135028  20.924238      19.534695      1.3895433     -1.0202409      18700.883    
    744000   0.90584987     0.0023323615   0.00074218282  20.617828      19.272641      1.3451871     -1.1755031      18610.347    
    745000   0.95628442     0.0023323615   0.0002294014   20.881916      19.461833      1.4200824     -1.0799271      18654.9      
    746000   0.98283169     0.0023323615   0.0016144156   20.688244      19.228739      1.4595051     -1.2517382      18636.234    
    747000   1.0339156      0.0023323615   0.0047378648   20.728127      19.192762      1.5353647     -1.2106715      18616.279    
    748000   1.0661353      0.0023323615  -0.00016222857  21.046105      19.462894      1.583211      -1.0798568      18573.831    
    749000   0.92097357     0.0023323615   0.0032426076   20.526996      19.15935       1.3676458     -1.2964134      18680.943    
    750000   1.0203511      0.0023323615  -0.0014860634   21.184757      19.669535      1.5152214     -1.0178537      18758.427    
    751000   1.0075122      0.0023323615  -0.00168146     20.915828      19.419672      1.4961557     -0.99513816     19532.153    
    752000   0.93405546     0.0023323615   0.0018551788   20.8148        19.427728      1.3870724     -1.0593096      19502.084    
    753000   1.0181604      0.0023323615   0.00398683     21.029674      19.517706      1.5119681     -0.94476985     19186.454    
    754000   1.0670229      0.0023323615  -0.00062709523  21.212068      19.627539      1.584529      -0.89000138     19254.724    
    755000   0.96822488     0.0023323615  -0.0032369618   20.802782      19.364968      1.437814      -1.1035652      19250.999    
    756000   0.88738531     0.0023323615  -0.0034776542   20.679188      19.361421      1.3177672     -1.1855608      18748.867    
    757000   1.1172833      0.0023323615  -0.004822928    21.003567      19.344402      1.6591656     -1.2129729      18651.62     
    758000   1.031375       0.0023323615  -0.00035093364  21.179918      19.648327      1.5315919     -1.0774024      18496.72     
    759000   0.93283782     0.0023323615   0.0014220242   21.018542      19.633278      1.3852642     -1.0807346      18694.624    
    760000   0.98341591     0.0023323615  -0.00051909601  20.796508      19.336135      1.4603726     -1.1694461      18975.447    
    761000   1.0282815      0.0023323615   0.00093123815  20.902824      19.375826      1.5269981     -1.1370164      18858.512    
    762000   0.98209253     0.0023323615  -8.3288049e-05  21.032675      19.574268      1.4584074     -0.91999528     18587.747    
    763000   0.97767307     0.0023323615  -0.0020189188   20.884191      19.432346      1.4518445     -1.001702       18786.415    
    764000   1.0328264      0.0023323615   0.0062712103   20.701909      19.168162      1.5337472     -1.3736455      18635.117    
    765000   0.97578995     0.0023323615  -0.0021079081   20.763606      19.314558      1.4490481     -1.1727468      18570.849    
    766000   0.97690001     0.0023323615   0.0002303709   20.859757      19.409061      1.4506965     -1.0862156      18724.486    
    767000   0.97237286     0.0023323615  -0.0019724853   20.773649      19.329676      1.4439737     -1.2136623      18675.556    
    768000   1.0632149      0.0023323615  -0.00061367586  20.999989      19.421115      1.5788741     -1.1535634      18806.566    
    769000   1.004895       0.0023323615   0.0017041221   21.082111      19.589842      1.4922691     -1.0470946      18962.091    
    770000   0.97200821     0.0023323615  -0.0030258218   21.033851      19.590419      1.4434322     -0.98924864     18996.328    
    771000   0.98688318     0.0023323615  -0.001346557    20.89406       19.428539      1.4655215     -1.1288509      18724.215    
    772000   1.0536178      0.0023323615   0.0030109576   20.904056      19.339434      1.5646224     -1.2030872      18637.57     
    773000   1.097685       0.0023323615   0.0011007697   20.918626      19.288564      1.6300623     -1.144097       18876.791    
    774000   1.0410136      0.0023323615  -0.0015333867   20.938868      19.392962      1.5459052     -1.0272703      18657.77     
    775000   0.95460517     0.0023323615  -0.00059434433  20.769018      19.351429      1.4175887     -1.1802389      18716.305    
    776000   1.1573819      0.0023323615  -0.00090693556  21.09989       19.381178      1.7187121     -1.2416212      18833.141    
    777000   0.87363482     0.0023323615  -0.0043129372   20.659793      19.362445      1.2973477     -1.199283       18791.405    
    778000   0.90689173     0.0023323615  -0.0033841043   20.997576      19.650841      1.3467342     -0.95393407     18747.772    
    779000   0.92375178     0.0023323615  -0.0015421156   20.7531        19.381329      1.3717714     -1.1227628      18810.405    
    780000   1.0519543      0.0023323615  -0.0032601121   21.043125      19.480973      1.5621521     -1.0039065      18758.229    
    781000   1.0003401      0.0023323615  -0.0042221938   21.051042      19.565537      1.485505      -1.0093772      18777.19     
    782000   1.1003213      0.0023323615   0.0050481633   20.92632       19.292343      1.6339771     -1.1374589      18878.151    
    783000   0.97417297     0.0023323615  -0.0001674777   20.89783       19.451184      1.4466469     -1.127322       18874.663    
    784000   0.92574239     0.0023323615  -0.0010164476   20.907154      19.532427      1.3747274     -1.040248       18784.12     
    785000   1.0296882      0.0023323615  -0.0023173742   20.943064      19.413977      1.5290869     -1.20771        18799.085    
    786000   1.005498       0.0023323615   0.0032350974   20.756214      19.26305       1.4931645     -1.1791251      18796.766    
    787000   1.0680904      0.0023323615   0.0017291092   21.163197      19.577082      1.5861142     -1.0832422      18801.706    
    788000   1.1982449      0.0023323615   0.0016126131   21.302141      19.522748      1.7793936     -1.0862853      18916.354    
    789000   0.99139307     0.0023323615   0.0003378687   21.026269      19.554051      1.4722187     -1.0514174      18902.125    
    790000   1.0614696      0.0023323615   0.0006497591   21.044233      19.467951      1.5762824     -1.041097       18911.552    
    791000   0.82824022     0.0023323615   0.0017874236   20.641945      19.412008      1.2299367     -1.2248007      18780.147    
    792000   1.0095937      0.0023323615  -0.003548835    20.974062      19.474816      1.4992466     -0.93772594     18984.069    
    793000   0.92026473     0.0023323615   0.00041797808  20.848329      19.481736      1.3665931     -1.0337296      19062.987    
    794000   0.97265753     0.0023323615   0.0015227692   20.681558      19.237162      1.4443964     -1.2366553      18969.778    
    795000   0.86639488     0.0023323615  -0.0026544811   20.731372      19.444775      1.2865964     -1.1053993      18839.618    
    796000   1.1290895      0.0023323615   0.0005555323   20.98121       19.304512      1.6766978     -1.1140045      18954.918    
    797000   0.8681669      0.0023323615  -0.00058340034  20.665095      19.375867      1.2892278     -1.18707        19007.036    
    798000   1.0418161      0.0023323615   0.0041941982   21.023438      19.476341      1.5470969     -1.1773773      18792.714    
    799000   1.0447042      0.0023323615   0.0038007539   20.802175      19.25079       1.5513857     -1.2920391      18636.391    
    800000   0.78189281     0.0023323615   0.0034364427   20.321345      19.160234      1.1611108     -1.4067183      18682.034    
    801000   0.89159952     0.0023323615  -0.0041020117   20.584924      19.260899      1.3240253     -1.243512       18663.725    
    802000   0.92782682     0.0023323615   0.00048384007  20.872002      19.494179      1.3778228     -1.0725467      18825.372    
    803000   1.0100888      0.0023323615   0.0022385417   20.877046      19.377064      1.4999819     -1.1676866      18821.145    
    804000   0.96685354     0.0023323615   0.0002549854   20.768424      19.332646      1.4357775     -1.3183417      18943.15     
    805000   0.9522207      0.0023323615   0.0064304869   20.839528      19.42548       1.4140477     -1.1236117      18923.061    
    806000   1.0351875      0.0023323615  -0.0034573719   21.000446      19.463192      1.5372534     -1.0912938      18952.247    
    807000   0.8904025      0.0023323615  -0.0027410001   21.150013      19.827765      1.3222477     -0.85226513     19521.151    
    808000   0.91438607     0.0023323615   0.0018200586   20.720216      19.362353      1.3578633     -1.0470794      19231.526    
    809000   1.1923868      0.0023323615  -0.00021855628  21.282107      19.511412      1.7706945     -0.98183079     18847.789    
    810000   1.0075305      0.0023323615   0.0017818272   21.070379      19.574196      1.4961828     -1.0438491      18898.003    
    811000   1.0524785      0.0023323615  -0.0004047827   21.060486      19.497556      1.5629306     -0.99086676     19068.682    
    812000   0.99543113     0.0023323615   0.0032413958   21.005915      19.5277        1.4782152     -1.034006       18685.815    
    813000   0.99201008     0.0023323615  -0.0036174384   21.119338      19.646204      1.473135      -1.0160069      18793.613    
    814000   0.99825199     0.0023323615   0.00098849028  20.873895      19.391491      1.4824042     -1.2604599      18724.489    
    815000   0.87047633     0.0023323615  -0.0037400177   20.707195      19.414537      1.2926574     -1.0291622      18690.111    
    816000   1.0441807      0.0023323615  -0.0013759807   20.925445      19.374837      1.5506083     -1.0887059      18588.664    
    817000   1.0507148      0.0023323615   0.0012181197   20.89888       19.338569      1.5603115     -1.1190023      18594.08     
    818000   0.91790348     0.0023323615  -0.00052912037  21.002913      19.639827      1.3630867     -0.93663258     18786.287    
    819000   0.91009587     0.0023323615  -0.0010382335   20.90332       19.551828      1.3514924     -0.99619321     18728.628    
    820000   0.86123914     0.0023323615   0.0019908057   21.087314      19.808374      1.2789401     -0.75006096     19041.908    
    821000   0.97768654     0.0023323615   0.0011224075   20.917558      19.465693      1.4518645     -0.93786        19144.362    
    822000   0.96869373     0.0023323615   0.00017902137  21.117623      19.679113      1.4385102     -0.85500859     18884.744    
    823000   0.91349185     0.0023323615   0.0015580233   20.654465      19.297929      1.3565354     -1.2394042      18832.256    
    824000   0.91197269     0.0023323615   0.00069881467  20.905367      19.551088      1.3542794     -0.9418658      18759.449    
    825000   0.92917278     0.0023323615   0.0016057239   20.916925      19.537104      1.3798216     -0.98163036     18827.642    
    826000   1.0152976      0.0023323615  -0.004264178    21.159197      19.65148       1.5077169     -0.91941324     18990.769    
    827000   0.95047665     0.0023323615   0.0019594447   21.092755      19.681297      1.4114578     -0.80615884     19165.511    
    828000   0.9667105      0.0023323615  -0.0012439921   20.895016      19.459451      1.4355651     -1.0466749      19570.323    
    829000   1.080053       0.0023323615  -0.0015174902   21.321197      19.717318      1.6038788     -0.8459134      19246.307    
    830000   0.94721432     0.0023323615   0.00092403933  20.77561       19.368996      1.4066133     -1.1504677      18979.571    
    831000   1.0414933      0.0023323615  -0.0061250432   21.021694      19.475076      1.5466176     -1.1607695      18718.271    
    832000   1.0276334      0.0023323615   0.0031991991   21.029603      19.503568      1.5260356     -1.0954652      18755.973    
    833000   1.0784538      0.0023323615  -0.00010656035  20.979199      19.377695      1.6015039     -1.1010411      18854.127    
    834000   0.89938121     0.0023323615  -0.00044307709  20.828597      19.493016      1.3355811     -1.0207458      18812.67     
    835000   1.0092596      0.0023323615   0.0010723981   20.650944      19.152194      1.4987506     -1.3267994      18698.788    
    836000   0.99475112     0.0023323615   0.0015078985   20.82678       19.349575      1.4772054     -1.4159204      18593.675    
    837000   1.1162806      0.0023323615   0.0020530149   20.938763      19.281086      1.6576768     -1.3120356      18568.279    
    838000   1.0198498      0.0023323615  -0.0020548112   20.964992      19.450515      1.5144769     -1.1012795      18596.45     
    839000   1.0403465      0.0023323615  -0.0011833281   20.83664       19.291726      1.5449145     -1.2142793      18568.604    
    840000   0.94739003     0.0023323615  -0.0007505232   20.999597      19.592723      1.4068742     -0.90656473     18758.441    
    841000   0.90778736     0.0023323615   0.0014825583   20.718202      19.370138      1.3480642     -1.1594359      18768.257    
    842000   1.1709905      0.0023323615  -0.00077685271  21.138735      19.399814      1.7389209     -1.1858528      18742.119    
    843000   1.1307002      0.0023323615   0.0014224537   20.901709      19.22262       1.6790898     -1.2955661      18671.019    
    844000   1.0603666      0.0023323615  -0.00087599346  20.886262      19.311618      1.5746444     -1.1764453      18619.821    
    845000   0.90086954     0.0023323615   0.00028610209  20.938983      19.601192      1.3377913     -0.88016632     18691.196    
    846000   0.9251663      0.0023323615  -0.0020044024   20.860112      19.48624       1.3738719     -0.99342409     18828.668    
    847000   1.1351189      0.0023323615  -0.0030755626   21.047836      19.362185      1.6856516     -1.2114807      18852.289    
    848000   1.0776502      0.0023323615  -0.00020408818  20.69769       19.097379      1.6003105     -1.4016405      18596.072    
    849000   1.0389488      0.0023323615  -0.0051560281   20.939703      19.396864      1.542839      -1.1953408      18599.499    
    850000   0.97209819     0.0023323615   0.0014218171   20.642877      19.199311      1.4435658     -1.1628673      18697.4      
    851000   0.89745206     0.0023323615  -0.00020711188  20.959692      19.626975      1.3327163     -0.99751319     18876.769    
    852000   0.91877504     0.0023323615   0.0014374025   20.649222      19.284841      1.3643809     -1.1774622      19059.936    
    853000   0.88278968     0.0023323615  -0.0014170256   20.751122      19.440179      1.3109427     -1.0141002      19049.646    
    854000   1.0325001      0.0023323615   0.00054476551  21.093528      19.560266      1.5332626     -1.0049029      19163.817    
    855000   0.99873902     0.0023323615   0.00031555069  21.139778      19.65665       1.4831275     -0.83761539     18883.208    
    856000   1.0177325      0.0023323615   0.002301182    21.009544      19.498211      1.5113328     -0.96007702     18753.348    
    857000   0.96563015     0.0023323615   0.00022424888  20.748783      19.314823      1.4339608     -1.2307519      18545.605    
    858000   0.89862194     0.0023323615   0.004824712    20.723592      19.389139      1.3344536     -1.1149452      18652.571    
    859000   1.1297446      0.0023323615   0.00057610901  21.111914      19.434243      1.6776708     -1.0887751      18626.674    
    860000   1.0290089      0.0023323615  -0.0061589826   20.852937      19.324858      1.5280783     -1.1393476      18612.054    
    861000   1.0128082      0.0023323615  -0.00068017512  20.655692      19.151672      1.5040201     -1.1987407      18605.997    
    862000   0.94472757     0.0023323615  -0.0016355006   20.873193      19.470272      1.4029204     -1.089497       18647.832    
    863000   0.97199059     0.0023323615   0.00062738887  20.945779      19.502373      1.443406      -0.93569437     18945.761    
    864000   1.0551402      0.0023323615   0.0031023606   20.905378      19.338494      1.5668832     -1.1038799      18780.147    
    865000   1.0106111      0.0023323615  -0.0016143904   21.137184      19.636426      1.5007575     -0.81852024     18860.589    
    866000   1.0879355      0.0023323615   0.0024514602   21.194656      19.579072      1.6155842     -0.89502881     18748.79     
    867000   0.9435732      0.0023323615  -0.0029145266   20.923916      19.522709      1.4012062     -1.0320406      18807.983    
    868000   0.98622527     0.0023323615  -0.00077427593  20.962424      19.497879      1.4645445     -1.0836707      18749.752    
    869000   0.88655495     0.0023323615   0.00052826099  20.58272       19.266186      1.3165341     -1.2495429      18453.741    
    870000   1.0228502      0.0023323615  -0.0017454617   20.90971       19.390777      1.5189325     -1.1140996      18555.51     
    871000   0.90706756     0.0023323615  -0.0010404713   20.936627      19.589631      1.3469953     -1.1326925      18503.434    
    872000   0.87788781     0.0023323615  -0.0017766954   20.636447      19.332784      1.3036634     -1.24233        18453.43     
    873000   1.053158       0.0023323615   0.0037592808   20.792667      19.228728      1.5639396     -1.1683609      18712.526    
    874000   1.2552657      0.0023323615   0.0016910027   21.371983      19.507913      1.8640695     -1.0936412      18695.954    
    875000   1.0346589      0.0023323615   0.0020271493   20.921849      19.38538       1.5364685     -1.1260571      18705.688    
    876000   0.91348018     0.0023323615   0.00053943153  20.967165      19.610647      1.3565181     -0.98026892     18671.05     
    877000   0.9768498      0.0023323615  -0.0025776608   20.737094      19.286472      1.450622      -1.2216871      18671.93     
    878000   1.0545376      0.0023323615   8.4156679e-05  21.148392      19.582403      1.5659883     -0.91509742     18833.884    
    879000   1.0466285      0.0023323615   0.003104066    20.992626      19.438383      1.5542433     -1.0986096      18734.777    
    880000   0.97521652     0.0023323615  -0.001053058    21.125274      19.677077      1.4481965     -0.93664875     18770.668    
    881000   1.0734412      0.0023323615   0.00019826413  21.043816      19.449756      1.5940602     -1.0949226      18723.33     
    882000   0.9824565      0.0023323615   0.00079917812  20.907351      19.448403      1.4589479     -1.0271409      18646.501    
    883000   0.91326952     0.0023323615   0.00091283942  20.698731      19.342526      1.3562052     -1.0323043      18750.861    
    884000   1.0022963      0.0023323615  -0.0026943351   20.856215      19.367805      1.4884101     -1.0822059      18877.908    
    885000   1.2295592      0.0023323615  -0.0012462522   21.048189      19.222294      1.8258954     -1.3672886      19005.436    
    886000   1.048477       0.0023323615   0.0017420544   20.831567      19.274578      1.5569884     -1.1591892      18870.138    
    887000   0.86095732     0.0023323615   0.00065537745  20.71146       19.432938      1.2785216     -1.1413862      18845.427    
    888000   1.0317239      0.0023323615   0.0040585239   20.676873      19.144763      1.5321101     -1.3021366      18798.904    
    889000   0.94540333     0.0023323615  -0.00032566286  20.701973      19.298049      1.403924      -1.2124829      18693.92     
    890000   1.1004472      0.0023323615  -0.0044356713   21.181966      19.547802      1.6341641     -0.98964234     18720.332    
    891000   0.91024903     0.0023323615   0.00075225962  20.699798      19.348078      1.3517198     -1.1168789      18715.175    
    892000   1.2702174      0.0023323615   8.1069343e-05  21.399323      19.51305       1.8862728     -1.1121751      18628.318    
    893000   1.1699137      0.0023323615   0.0024038124   21.156421      19.419099      1.7373219     -1.0825013      18869.653    
    894000   1.0679284      0.0023323615  -0.0015221876   21.072216      19.486342      1.5858737     -1.0461125      18878.772    
    895000   0.95567946     0.0023323615  -0.0013313073   20.963771      19.544587      1.419184      -1.0065161      18914.11     
    896000   1.1558812      0.0023323615  -0.00082317616  21.118365      19.401882      1.7164836     -1.1102915      18625.085    
    897000   0.97571081     0.0023323615  -0.0048286302   20.838134      19.389203      1.4489306     -1.1117296      18693.65     
    898000   0.95535975     0.0023323615   0.0011425185   20.890063      19.471353      1.4187092     -1.0702334      18721.181    
    899000   1.0533684      0.0023323615  -0.00075458691  20.805605      19.241353      1.564252      -1.1751153      18709.731    
    900000   0.89722713     0.0023323615   0.0014983294   20.465746      19.133364      1.3323823     -1.2515772      18728.337    
    901000   0.95487411     0.0023323615  -0.0023243279   20.499395      19.081407      1.417988      -1.4548132      18555.113    
    902000   1.10656        0.0023323615   0.00099662552  20.946058      19.302817      1.6432416     -1.2439995      18553.675    
    903000   0.98663887     0.0023323615   0.0011624438   20.749506      19.284347      1.4651587     -1.3272021      18658.342    
    904000   0.92243304     0.0023323615   0.00023735841  20.668543      19.29873       1.3698131     -1.1007004      18523.591    
    905000   0.97073018     0.0023323615  -9.8435181e-05  21.275539      19.834005      1.4415343     -0.7660956      18897.398    
    906000   0.98157525     0.0023323615  -0.00094580086  20.855435      19.397796      1.4576392     -1.1051564      18639.788    
    907000   1.1031001      0.0023323615   0.00071749373  21.073651      19.435547      1.6381036     -1.06688        18931.57     
    908000   1.0283428      0.0023323615  -0.0018704858   20.959422      19.432332      1.5270891     -0.98135429     18783.498    
    909000   1.0489228      0.0023323615  -0.0023736974   20.931214      19.373563      1.5576503     -1.0557383      18753.923    
    910000   1.0675315      0.0023323615   0.00088298185  21.302715      19.717431      1.5852843     -0.84944836     18893.395    
    911000   0.97105455     0.0023323615  -0.0020840602   21.12612       19.684104      1.442016      -0.8160346      19033.883    
    912000   1.0378549      0.0023323615  -0.00033144122  21.112359      19.571144      1.5412145     -0.88510822     18953.049    
    913000   1.0474592      0.0023323615  -0.0028523772   21.128377      19.5729        1.5554769     -0.92095419     18972.645    
    914000   0.97867205     0.0023323615  -0.0012429417   21.135392      19.682064      1.453328      -0.81267943     18983.177    
    915000   1.0170983      0.0023323615   0.00060366257  20.97226       19.461869      1.510391      -1.0525294      18898.976    
    916000   1.0186883      0.0023323615   0.0034922935   20.88168       19.368928      1.5127521     -1.1135751      18613.075    
    917000   1.0740518      0.0023323615  -0.00084504555  20.915313      19.320346      1.5949669     -1.3221193      18767.22     
    918000   0.9406708      0.0023323615   0.00039408144  20.917082      19.520186      1.3968961     -1.1183015      18658.586    
    919000   1.0579748      0.0023323615   0.0032156503   21.242071      19.670978      1.5710925     -0.95275124     18759.569    
    920000   0.84975407     0.0023323615   0.0025577644   20.709177      19.447292      1.2618848     -1.0856375      19047.366    
    921000   0.99643288     0.0023323615  -0.0036482829   20.891757      19.412054      1.4797028     -1.0982053      18757.796    
    922000   1.0341965      0.0023323615  -0.0012185389   21.149148      19.613366      1.5357818     -0.84017675     18907.833    
    923000   0.95206918     0.0023323615  -0.0015805879   20.778551      19.364729      1.4138227     -1.0866887      19042.475    
    924000   0.99230619     0.0023323615  -0.002012823    20.840042      19.366468      1.4735747     -1.1935325      18888.719    
    925000   1.0288529      0.0023323615  -0.00036774799  20.858882      19.331036      1.5278465     -1.2419559      18725.821    
    926000   0.85526367     0.0023323615  -0.0021460375   20.731537      19.461471      1.2700665     -1.1248707      18879.772    
    927000   0.89720092     0.0023323615   0.0021122928   20.790387      19.458044      1.3323434     -1.0296704      18827.024    
    928000   0.9610911      0.0023323615  -0.0012064555   20.777167      19.349946      1.4272203     -1.0885121      18758.586    
    929000   0.93764472     0.0023323615   0.00055930815  20.738683      19.346281      1.3924024     -1.2950672      18603.34     
    930000   1.076855       0.0023323615   0.0043472842   20.801065      19.201935      1.5991297     -1.2644622      18689.11     
    931000   0.99300424     0.0023323615   0.0027681589   20.993437      19.518825      1.4746113     -1.1100061      18449.276    
    932000   0.92049937     0.0023323615  -0.0021979387   20.593982      19.227041      1.3669416     -1.3794154      18724.268    
    933000   0.98698928     0.0023323615  -0.0018574262   20.963257      19.497578      1.4656791     -1.05292        18733.641    
    934000   0.82686348     0.0023323615  -0.00060020735  20.536055      19.308163      1.2278923     -1.1242774      18633.183    
    935000   0.97986651     0.0023323615   0.0025845014   20.730352      19.275251      1.4551018     -1.1214853      18711.088    
    936000   1.0924993      0.0023323615  -0.00093046512  20.808097      19.185736      1.6223615     -1.3343453      18575.591    
    937000   0.97280409     0.0023323615   0.0010382203   20.641683      19.197069      1.4446141     -1.3060825      18492.156    
    938000   0.97180473     0.0023323615  -0.0031101406   20.797761      19.354631      1.44313       -1.2090483      18574.347    
    939000   1.0317426      0.0023323615  -0.0012042616   21.260711      19.728574      1.5321377     -0.95305167     18605.858    
    940000   0.99081652     0.0023323615  -0.00059208402  20.758381      19.287019      1.4713625     -1.149407       18769.789    
    941000   0.90352152     0.0023323615  -0.0041839922   20.892211      19.550481      1.3417295     -0.97259912     18800.239    
    942000   1.0599244      0.0023323615  -0.003348618    21.126101      19.552113      1.5739878     -0.92016732     18936.085    
    943000   1.0484681      0.0023323615   0.0012251828   20.92058       19.363604      1.5569751     -1.1352131      18927.988    
    944000   0.99888793     0.0023323615  -0.0028222703   20.926037      19.442688      1.4833486     -1.1603552      18639.356    
    945000   0.96878897     0.0023323615   0.0022735168   20.550731      19.112079      1.4386516     -1.3970492      18579.571    
    946000   1.0780387      0.0023323615   0.005184658    20.89692       19.296033      1.6008874     -1.1459028      18510.774    
    947000   1.0751478      0.0023323615  -0.0018555392   21.024072      19.427478      1.5965944     -0.95056809     18973.478    
    948000   1.150198       0.0023323615  -0.00027012299  21.129832      19.421788      1.7080441     -1.0215219      18848.978    
    949000   0.91320276     0.0023323615  -9.5330464e-05  20.829546      19.47344       1.3561061     -1.0751571      18922.54     
    950000   0.94982877     0.0023323615  -0.001917445    20.667932      19.257437      1.4104957     -1.2490756      18679.967    
    951000   0.96589173     0.0023323615  -0.0014045099   20.733278      19.298929      1.4343492     -1.1825049      18603.292    
    952000   1.0511381      0.0023323615   0.00097100482  21.090547      19.529607      1.5609401     -1.1086812      18840.489    
    953000   1.1016667      0.0023323615  -0.0027652588   21.235606      19.599631      1.6359751     -0.90362009     19088.872    
    954000   0.97820631     0.0023323615   0.0018985661   20.996737      19.5441        1.4526364     -0.91029923     19023.163    
    955000   0.98390881     0.0023323615  -0.00037208443  20.929962      19.468858      1.4611046     -1.0098121      18688.2      
    956000   0.86172264     0.0023323615   0.002305369    20.706015      19.426357      1.2796581     -1.1037076      18771.18     
    957000   0.9643746      0.0023323615   0.0010646286   20.72601       19.293914      1.4320963     -1.1498069      18661.67     
    958000   1.1170786      0.0023323615  -0.0017567747   20.812879      19.154017      1.6588617     -1.2090901      18839.358    
    959000   1.0229196      0.0023323615  -0.0032399536   20.84494       19.325904      1.5190356     -1.1560789      18658.621    
    960000   1.0966125      0.0023323615   0.0050456022   21.14037       19.5119        1.6284695     -1.0815927      18606.899    
    961000   1.0553798      0.0023323615   0.0010640351   20.825951      19.258712      1.567239      -1.18129        18711.8      
    962000   0.98237829     0.0023323615  -0.0034723734   21.051896      19.593064      1.4588318     -0.9561906      18997.731    
    963000   0.94421502     0.0023323615   0.00065907135  20.994586      19.592427      1.4021593     -0.94659046     18798.125    
    964000   1.0395617      0.0023323615   0.0023101188   20.897884      19.354134      1.5437492     -1.2570179      18646.592    
    965000   1.0960912      0.0023323615   0.001916865    21.177393      19.549697      1.6276954     -1.0271116      18461.076    
    966000   1.1106648      0.0023323615   0.0053359952   21.014042      19.364705      1.6493373     -1.1437181      18807.991    
    967000   1.0475023      0.0023323615  -0.0034076996   21.07267       19.517129      1.5555409     -1.0913597      18749.223    
    968000   0.98837792     0.0023323615  -0.00048934898  20.781283      19.313542      1.4677412     -1.1233498      18636.93     
    969000   0.89790585     0.0023323615  -0.0011864117   20.659508      19.326117      1.3333902     -1.1612291      18759.156    
    970000   0.98301725     0.0023323615   0.00014669982  21.001219      19.541438      1.4597806     -1.0789978      18615.116    
    971000   1.0891653      0.0023323615   0.0002943015   20.721796      19.104385      1.6174105     -1.3036691      18596.845    
    972000   1.0432018      0.0023323615  -0.0034731823   20.997743      19.448588      1.5491547     -1.0950668      18642.628    
    973000   0.99237905     0.0023323615  -0.0017297744   21.207448      19.733765      1.4736829     -0.91216609     18720.405    
    974000   0.9488963      0.0023323615   0.0038304544   20.71901       19.309899      1.409111      -1.1988565      18783.544    
    975000   0.84206098     0.0023323615  -0.0005406787   20.70559       19.45513       1.2504606     -1.0161474      18823.963    
    976000   1.002467       0.0023323615   0.00087282235  20.797518      19.308855      1.4886635     -1.3020468      18772.684    
    977000   1.0055828      0.0023323615  -0.0020338598   20.86529       19.372         1.4932904     -1.2245411      18732.407    
    978000   1.0375341      0.0023323615  -0.0022516405   21.019636      19.478897      1.5407382     -1.0955504      18660.731    
    979000   1.0882576      0.0023323615  -0.0022716985   20.90256       19.286497      1.6160625     -1.1731208      18576.825    
    980000   0.93946434     0.0023323615  -0.00046389142  20.850316      19.455212      1.3951045     -1.0753714      18809.958    
    981000   1.0340264      0.0023323615   0.0022987136   20.900636      19.365106      1.5355293     -1.0304227      18711.242    
    982000   0.92454796     0.0023323615   0.00085555623  20.706696      19.333742      1.3729537     -1.1673392      18660.292    
    983000   1.0192819      0.0023323615   0.00026092284  20.7699        19.256267      1.5136337     -1.2325817      18539.745    
    984000   1.1613425      0.0023323615   0.00010004228  21.204735      19.480141      1.7245936     -1.061788       18696.588    
    985000   1.0040779      0.0023323615   0.0035527105   20.913206      19.42215       1.4910557     -1.0905808      18620.829    
    986000   1.0977333      0.0023323615   0.0034326707   21.339064      19.70893       1.630134      -0.92199219     18303.514    
    987000   1.0063395      0.0023323615   0.0033378231   20.929629      19.435215      1.4944141     -1.2472211      18610.225    
    988000   1.0486666      0.0023323615   0.00060390063  21.013983      19.456713      1.5572699     -1.1185568      18487.237    
    989000   0.97265653     0.0023323615   0.0018877014   20.639313      19.194918      1.444395      -1.2462668      18559.416    
    990000   1.001814       0.0023323615  -0.0014224368   20.836569      19.348875      1.4876938     -1.175144       18540.992    
    991000   1.0090959      0.0023323615   0.0014303748   20.603722      19.105215      1.4985074     -1.3518896      18565.803    
    992000   1.1413523      0.0023323615  -0.0062454297   21.185345      19.490437      1.6949081     -1.1296003      18506.041    
    993000   1.0417546      0.0023323615  -0.0011604827   20.732363      19.185357      1.5470056     -1.3649362      18405.495    
    994000   0.84501173     0.0023323615  -0.0002904159   20.45285       19.198007      1.2548424     -1.3061914      18524.069    
    995000   1.0140909      0.0023323615  -0.0022727322   20.741121      19.235197      1.5059249     -1.2294124      18616.446    
    996000   0.9553863      0.0023323615   0.0019661454   20.685784      19.267035      1.4187487     -1.2190028      18709.944    
    997000   1.0814574      0.0023323615   0.0024368295   21.068117      19.462153      1.6059643     -1.0243333      18759.146    
    998000   1.0907401      0.0023323615   0.0012332661   21.10127       19.481521      1.619749      -1.045042       18817.171    
    999000   1.0539925      0.0023323615  -0.00027239735  20.836135      19.270956      1.5651789     -1.1411133      18819.094    
   1000000   1.0018046      0.0023323615  -0.00073706034  20.613919      19.126239      1.4876798     -1.3548752      18621.159    
Loop time of 53.0438 on 1 procs for 1000000 steps with 100 atoms

Performance: 8144205.362 tau/day, 18852.327 timesteps/s
99.5% CPU use with 1 MPI tasks x 1 OpenMP threads

MPI task timing breakdown:
Section |  min time  |  avg time  |  max time  |%varavg| %total
---------------------------------------------------------------
Pair    | 44.041     | 44.041     | 44.041     |   0.0 | 83.03
Bond    | 1.2616     | 1.2616     | 1.2616     |   0.0 |  2.38
Neigh   | 3.8135     | 3.8135     | 3.8135     |   0.0 |  7.19
Comm    | 1.3962     | 1.3962     | 1.3962     |   0.0 |  2.63
Output  | 0.21706    | 0.21706    | 0.21706    |   0.0 |  0.41
Modify  | 1.9585     | 1.9585     | 1.9585     |   0.0 |  3.69
Other   |            | 0.3563     |            |       |  0.67

Nlocal:            100 ave         100 max         100 min
Histogram: 1 0 0 0 0 0 0 0 0 0
Nghost:            354 ave         354 max         354 min
Histogram: 1 0 0 0 0 0 0 0 0 0
Neighs:           4851 ave        4851 max        4851 min
Histogram: 1 0 0 0 0 0 0 0 0 0

Total # of neighbors = 4851
Ave neighs/atom = 48.51
Ave special neighs/atom = 1.98
Neighbor list builds = 97943
Dangerous builds = 80466

write_data      ${outputfile_assembled} nofix nocoeff
write_data      7_assembled.data nofix nocoeff
System init for write_data ...
Generated 0 of 6 mixed pair_coeff terms from geometric mixing rule

Total wall time: 0:00:54
