LAMMPS (23 Jun 2022 - Update 1)
OMP_NUM_THREADS environment is not set. Defaulting to 1 thread. (src/comm.cpp:98)
  using 1 OpenMP thread(s) per MPI task


variable        runtime equal 1000000
variable		subsample_rate equal 1000

variable		outputfile_created string '3_created.data'
variable		outputfile_relaxed string '5_relaxed.data'
variable		outputfile_selfasb string '6_a_self_assemble.lammpstrj'
variable		outputfile_trajlin string '6_b_trajlin.data'
variable		outputfile_assembled string '7_assembled.data'

units           lj
atom_style      full
dimension       3
boundary        p p p
timestep        0.005

read_data       ${outputfile_created}
read_data       3_created.data
Reading data file ...
  orthogonal box = (0 0 0) to (35 35 35)
  1 by 1 by 1 MPI processor grid
  reading atoms ...
  100 atoms
  reading velocities ...
  100 velocities
  scanning bonds ...
  1 = max bonds/atom
  reading bonds ...
  99 bonds
Finding 1-2 1-3 1-4 neighbors ...
  special bond factors lj:    0        0        0       
  special bond factors coul:  0        0        0       
     2 = max # of 1-2 neighbors
     2 = max # of 1-3 neighbors
     4 = max # of 1-4 neighbors
     6 = max # of special neighbors
  special bonds CPU = 0.000 seconds
  read_data CPU = 0.005 seconds

bond_style      fene
bond_coeff      * 30.0 1.5 1.0 1.0
special_bonds   fene
Finding 1-2 1-3 1-4 neighbors ...
  special bond factors lj:    0        1        1       
  special bond factors coul:  0        1        1       
     2 = max # of 1-2 neighbors
     6 = max # of special neighbors
  special bonds CPU = 0.000 seconds

variable        Temp equal 1.0
variable        velSeed equal 926458

velocity        all create ${Temp} ${velSeed}
velocity        all create 1 ${velSeed}
velocity        all create 1 926458

### Output
thermo_style    custom step temp density press etotal pe ke epair spcpu
thermo          1000

###########################################################################
# Soft relaxation (to remove overlaps of particles)
######################################################################

pair_style      soft 1.0
pair_coeff      * * 0.0
variable        prefactor equal ramp(0,300)
fix             rampSoft all adapt 1 pair soft a * * v_prefactor

minimize        0.0 1.0e-8 1000 100000
WARNING: Using 'neigh_modify every 1 delay 0 check yes' setting during minimization (src/min.cpp:187)
Generated 0 of 6 mixed pair_coeff terms from geometric mixing rule
Neighbor list info ...
  update every 1 steps, delay 0 steps, check yes
  max neighbors/atom: 2000, page size: 100000
  master list distance cutoff = 1.3
  ghost atom cutoff = 1.3
  binsize = 0.65, bins = 54 54 54
  1 neighbor lists, perpetual/occasional/extra = 1 0 0
  (1) pair soft, perpetual
      attributes: half, newton on
      pair build: half/bin/newton
      stencil: half/bin/3d
      bin: standard
WARNING: Communication cutoff 1.3 is shorter than a bond length based estimate of 1.7550000000000001. This may lead to errors. (src/comm.cpp:727)
Per MPI rank memory allocation (min/avg/max) = 8.346 | 8.346 | 8.346 Mbytes
   Step          Temp         Density         Press          TotEng         PotEng         KinEng         E_pair         S/CPU     
         0   1              0.0023323615  -0.0039617958   21.524174      20.039174      1.485          0              0            
       362   1              0.0023323615   0.0023090379   21.485548      20.000548      1.485          0              71397.465    
Loop time of 0.00507265 on 1 procs for 362 steps with 100 atoms

99.2% CPU use with 1 MPI tasks x 1 OpenMP threads

Minimization stats:
  Stopping criterion = force tolerance
  Energy initial, next-to-last, final = 
      20.0391741078675   20.0005480767337   20.0005480767337
  Force two-norm initial, final = 11.878422 7.9509778e-09
  Force max component initial, final = 6.6117807 1.3572772e-09
  Final line search alpha, max atom move = 1 1.3572772e-09
  Iterations, force evaluations = 362 738

MPI task timing breakdown:
Section |  min time  |  avg time  |  max time  |%varavg| %total
---------------------------------------------------------------
Pair    | 0.00021414 | 0.00021414 | 0.00021414 |   0.0 |  4.22
Bond    | 0.0023207  | 0.0023207  | 0.0023207  |   0.0 | 45.75
Neigh   | 0.0013629  | 0.0013629  | 0.0013629  |   0.0 | 26.87
Comm    | 0.00018895 | 0.00018895 | 0.00018895 |   0.0 |  3.72
Output  | 0          | 0          | 0          |   0.0 |  0.00
Modify  | 0          | 0          | 0          |   0.0 |  0.00
Other   |            | 0.0009859  |            |       | 19.44

Nlocal:            100 ave         100 max         100 min
Histogram: 1 0 0 0 0 0 0 0 0 0
Nghost:             20 ave          20 max          20 min
Histogram: 1 0 0 0 0 0 0 0 0 0
Neighs:              0 ave           0 max           0 min
Histogram: 1 0 0 0 0 0 0 0 0 0

Total # of neighbors = 0
Ave neighs/atom = 0
Ave special neighs/atom = 1.98
Neighbor list builds = 17
Dangerous builds = 0

fix             nvtSoft all nvt temp ${Temp} ${Temp} 0.5
fix             nvtSoft all nvt temp 1 ${Temp} 0.5
fix             nvtSoft all nvt temp 1 1 0.5
run             100000
Generated 0 of 6 mixed pair_coeff terms from geometric mixing rule
WARNING: Communication cutoff 1.3 is shorter than a bond length based estimate of 1.7550000000000001. This may lead to errors. (src/comm.cpp:727)
Per MPI rank memory allocation (min/avg/max) = 7.221 | 7.221 | 7.221 Mbytes
   Step          Temp         Density         Press          TotEng         PotEng         KinEng         E_pair         S/CPU     
       362   1              0.0023323615   0.0023090379   21.485548      20.000548      1.485          0              0            
      1000   0.90989032     0.0023323615  -0.0021940042   21.776974      20.425787      1.3511871      0.00036425437  78902.157    
      2000   0.86546688     0.0023323615   0.0034714157   21.677128      20.39191       1.2852183      0.0025814786   77803.066    
      3000   0.98199538     0.0023323615   0.0028144228   21.866132      20.407869      1.4582631      0.0011756043   74345.822    
      4000   1.004495       0.0023323615  -0.0014058211   21.945624      20.453949      1.4916751      0.011986179    74401.186    
      5000   1.1222705      0.0023323615   0.0044495116   21.986385      20.319813      1.6665718      0.0050317639   74700.646    
      6000   1.0538243      0.0023323615   0.0023957538   21.985713      20.420784      1.564929       0.012100514    75278.633    
      7000   1.0210598      0.0023323615  -0.00038820026  21.904665      20.388391      1.5162738      0              76560.146    
      8000   0.94819751     0.0023323615   0.0024943091   21.747889      20.339816      1.4080733      0              76888.477    
      9000   0.92364502     0.0023323615   0.0020053029   21.724166      20.352554      1.3716129      1.7780894e-05  76032.82     
     10000   0.86685188     0.0023323615   0.00078277366  21.644879      20.357604      1.287275       0.0098636418   76469.647    
     11000   1.0057103      0.0023323615   0.00010113276  21.8558        20.362321      1.4934798      0.020705341    76056.802    
     12000   0.97901664     0.0023323615  -0.0026996968   21.871206      20.417366      1.4538397      0.0052928539   75809.339    
     13000   0.97718436     0.0023323615  -6.1641422e-06  21.963706      20.512587      1.4511188      0.025022446    75781.476    
     14000   1.0530014      0.0023323615  -0.0009993112   21.947994      20.384287      1.5637071      0.0020860456   74989.113    
     15000   0.99094527     0.0023323615   0.0011068478   21.895146      20.423592      1.4715537      0.0015091113   75750.018    
     16000   0.91285091     0.0023323615  -0.00025424173  21.87524       20.519657      1.3555836      0.0047853639   75738.004    
     17000   0.82806978     0.0023323615  -0.00054698156  21.701984      20.472301      1.2296836      0              75962.975    
     18000   1.043278       0.0023323615  -6.6143919e-05  22.003299      20.454031      1.5492679      0.0034319132   76606.104    
     19000   1.0879249      0.0023323615  -0.0017804642   21.998985      20.383416      1.6155685      0.015376175    75319.076    
     20000   1.1144506      0.0023323615   0.0025198298   22.190904      20.535944      1.6549592      0              76149.643    
     21000   1.0427751      0.0023323615   0.0011345349   22.099492      20.550971      1.548521       0.00040047813  76566.495    
     22000   1.0586695      0.0023323615   0.0017882747   22.05673       20.484606      1.5721242      0              76462.97     
     23000   1.0058426      0.0023323615  -0.0055245362   21.954628      20.460951      1.4936763      0.0027619031   75517.385    
     24000   0.98273442     0.0023323615   0.0015147357   21.862067      20.402707      1.4593606      0              75809.626    
     25000   0.95835343     0.0023323615   0.0017808774   21.937761      20.514606      1.4231548      0.00020839942  75517.499    
     26000   0.93993778     0.0023323615  -0.0021777292   21.884849      20.489042      1.3958076      0.0088889834   75997.047    
     27000   0.9308188      0.0023323615  -0.00011239942  21.842252      20.459986      1.3822659      0.021612409    75347.332    
     28000   1.0149581      0.0023323615   0.0041996387   21.906846      20.399633      1.5072129      0.0064059022   75852.081    
     29000   0.92841138     0.0023323615  -2.5398808e-05  21.987185      20.608494      1.3786909      0.0046112484   75777.68     
     30000   1.021043       0.0023323615   0.001589158    22.097958      20.581709      1.5162489      0.016799508    73262.768    
     31000   1.0465985      0.0023323615  -0.0021744286   22.037917      20.483718      1.5541987      0.0057879149   76092.295    
     32000   0.98907108     0.0023323615  -0.0015558606   22.044089      20.575318      1.4687705      0.009448173    75862.456    
     33000   1.0918536      0.0023323615  -0.0025643847   22.039275      20.417873      1.6214025      0              74900.768    
     34000   0.99801543     0.0023323615   0.0016279766   21.932339      20.450286      1.4820529      0.017384617    77206.723    
     35000   1.0352271      0.0023323615  -0.0052971711   22.076004      20.538692      1.5373122      0.00010473809  75779.523    
     36000   1.1141579      0.0023323615  -0.00093279925  22.222491      20.567966      1.6545245      0.00033678641  76852.952    
     37000   1.0369415      0.0023323615   0.00013065175  22.217841      20.677983      1.5398581      0.013788831    75964.36     
     38000   1.0515596      0.0023323615   0.0021717558   22.070766      20.5092        1.561566       0.0067894678   76605.459    
     39000   1.0238495      0.0023323615   0.00026414509  22.040141      20.519725      1.5204165      0.00044464649  75593.681    
     40000   1.0749111      0.0023323615  -0.0026849368   22.039327      20.443084      1.596243       0.012651334    74073.761    
     41000   0.99070886     0.0023323615  -0.0030385564   22.03241       20.561207      1.4712027      0.00092855646  77260.27     
     42000   0.95315224     0.0023323615   0.0019788197   21.965263      20.549832      1.4154311      0.020233689    75658.83     
     43000   1.0644183      0.0023323615  -0.0011168725   22.287172      20.706511      1.5806611      0.039694129    75638.829    
     44000   1.0253747      0.0023323615  -0.006676522    22.066233      20.543552      1.5226814      0              74680.134    
     45000   0.94179556     0.0023323615  -0.0047206018   21.970644      20.572077      1.3985664      0.019869988    75245.887    
     46000   1.0083495      0.0023323615  -0.0017646918   21.972114      20.474715      1.497399       0.00026040605  75246.793    
     47000   0.98767959     0.0023323615  -0.00080218158  22.091674      20.62497       1.4667042      0.024266258    74852.238    
     48000   1.1473449      0.0023323615  -0.0025885687   22.080512      20.376705      1.7038072      0.00065962995  75515.959    
     49000   1.0679312      0.0023323615   0.0017688272   21.970482      20.384604      1.5858779      0.014142422    76536.438    
     50000   0.9581935      0.0023323615   0.0014398836   21.955202      20.532284      1.4229173      0.0055011948   76118.458    
     51000   1.0215759      0.0023323615  -0.00093292688  21.934681      20.41764       1.5170402      0              75707.786    
     52000   0.98079591     0.0023323615   0.0040701936   21.977374      20.520892      1.4564819      0.0020862422   76489.452    
     53000   1.0090927      0.0023323615   0.0013324753   22.095438      20.596935      1.4985027      0              75892.803    
     54000   0.97519627     0.0023323615   0.0013260734   22.070151      20.621984      1.4481665      0.026885444    76884.918    
     55000   1.1805087      0.0023323615  -0.001586238    22.424088      20.671033      1.7530554      0.024690954    76417.773    
     56000   0.98387121     0.0023323615   0.0037155145   22.104425      20.643376      1.4610487      0.01435493     76079.994    
     57000   1.0723812      0.0023323615  -0.0037916262   22.122726      20.53024       1.592486       0.013635549    76426.843    
     58000   1.0152349      0.0023323615   0.00021908047  22.082827      20.575203      1.5076238      0.00077375639  76168.244    
     59000   1.1424502      0.0023323615  -0.0052108657   22.30072       20.604182      1.6965385      0.013308184    77167.27     
     60000   1.0359703      0.0023323615  -0.00097887545  22.188218      20.649802      1.538416       0.00011346294  75485.291    
     61000   1.1646839      0.0023323615  -0.002085017    22.239945      20.51039       1.7295556      0.012918477    77751.066    
     62000   1.101836       0.0023323615   0.0010338878   22.171386      20.53516       1.6362265      0.001396566    76615.8      
     63000   0.96616435     0.0023323615   0.00097550571  21.903821      20.469067      1.4347541      0.013027663    77839.53     
     64000   1.0068907      0.0023323615  -0.0020278726   22.061652      20.566419      1.4952327      0.013750276    76309.985    
     65000   0.98723233     0.0023323615   0.0022441476   22.031073      20.565033      1.46604        0.0066686189   76700.939    
     66000   1.0273881      0.0023323615  -0.0003515278   22.183579      20.657908      1.5256713      0              74874.864    
     67000   0.96528212     0.0023323615  -0.00014822656  21.9396        20.506156      1.4334439      0.010365557    76964.721    
     68000   1.069702       0.0023323615   9.4754668e-05  22.081119      20.492611      1.5885075      0.00049153926  74072.439    
     69000   1.1229502      0.0023323615   0.0011504079   22.200329      20.532748      1.6675811      0.0068454249   76382.098    
     70000   1.0062775      0.0023323615  -0.00085311964  22.094021      20.599699      1.4943221      0.013222355    75406.427    
     71000   1.0906935      0.0023323615   0.00015260357  22.145362      20.525682      1.6196798      0.018338513    76083.993    
     72000   1.010401       0.0023323615  -6.0487182e-06  22.154105      20.653659      1.5004455      0.0013793953   74774.35     
     73000   1.1177599      0.0023323615  -0.0034084797   22.254435      20.594562      1.6598735      0.00011231735  77656.459    
     74000   0.9768019      0.0023323615   0.00016143893  22.07312       20.622569      1.4505508      0.0084515956   75706.348    
     75000   1.1360996      0.0023323615   0.002159116    22.161595      20.474487      1.6871079      0.0089909162   76292.31     
     76000   0.97379329     0.0023323615  -0.00068458621  21.988928      20.542845      1.446083       0              75489.742    
     77000   0.94876793     0.0023323615  -0.0016073976   21.923496      20.514575      1.4089204      0.017745108    75614.304    
     78000   0.83947996     0.0023323615  -0.00062768559  21.726727      20.480099      1.2466277      0.0054510099   76102.499    
     79000   1.0090614      0.0023323615  -0.00080262643  22.068192      20.569736      1.4984562      0.00023011166  76825.863    
     80000   1.1217643      0.0023323615  -0.0038177864   22.367902      20.702082      1.66582        0.032902439    76095.248    
     81000   1.0240158      0.0023323615   0.00023547123  22.031597      20.510933      1.5206635      0.0068767308   75741.796    
     82000   1.003236       0.0023323615  -0.0022802982   21.894199      20.404393      1.4898055      0.019136282    74687.68     
     83000   1.0554159      0.0023323615   0.004011718    22.104562      20.537269      1.5672927      0.0080869707   74517.497    
     84000   0.83527346     0.0023323615  -0.0034122221   21.874648      20.634267      1.2403811      0.0030083664   75692.916    
     85000   1.036002       0.0023323615   0.0013573923   21.962923      20.42446       1.5384629      0.015709144    76580.591    
     86000   0.9432002      0.0023323615  -0.0032183248   21.913588      20.512936      1.4006523      0.013730309    76193.594    
     87000   0.95566008     0.0023323615  -0.00049614223  21.91653       20.497375      1.4191552      0.0035862035   75517.162    
     88000   0.93373351     0.0023323615  -0.00097093893  21.870485      20.483891      1.3865943      0.0018212145   75185.692    
     89000   0.9684944      0.0023323615  -0.00047342045  21.973429      20.535215      1.4382142      0.00087524744  75432.007    
     90000   0.98293324     0.0023323615  -0.0032204602   22.050919      20.591263      1.4596559      0.015353933    76568.963    
     91000   1.0832827      0.0023323615   0.0048517083   22.11977       20.511095      1.6086749      0.0052867789   77594.394    
     92000   0.85899662     0.0023323615  -0.0013049519   21.765697      20.490087      1.27561        0.0024124001   76565.258    
     93000   0.96176266     0.0023323615  -4.4223672e-05  21.874222      20.446004      1.4282176      0.0045653365   77401.789    
     94000   0.96019503     0.0023323615   0.00024459347  21.944954      20.519064      1.4258896      3.8053462e-05  76618.565    
     95000   0.94702149     0.0023323615  -0.0033658915   21.86315       20.456823      1.4063269      0              77204.332    
     96000   0.91119348     0.0023323615  -0.0013197298   21.825018      20.471896      1.3531223      0.00043282989  75931.078    
     97000   1.0016687      0.0023323615  -0.0019514304   22.013024      20.525546      1.487478       0.0048369955   75385.236    
     98000   1.02143        0.0023323615  -0.0057874974   22.177965      20.661142      1.5168235      0              74105.22     
     99000   1.032786       0.0023323615   0.0018228259   21.975336      20.441649      1.5336871      7.1595851e-05  77447.786    
    100000   1.0594928      0.0023323615   0.0036169719   22.011024      20.437677      1.5733468      0.00032948157  75784.87     
    100362   1.1904942      0.0023323615  -0.00089755607  22.316856      20.548972      1.7678839      0.00063845255  75379.197    
Loop time of 1.31659 on 1 procs for 100000 steps with 100 atoms

Performance: 32812033.742 tau/day, 75953.782 timesteps/s
99.2% CPU use with 1 MPI tasks x 1 OpenMP threads

MPI task timing breakdown:
Section |  min time  |  avg time  |  max time  |%varavg| %total
---------------------------------------------------------------
Pair    | 0.04917    | 0.04917    | 0.04917    |   0.0 |  3.73
Bond    | 0.12582    | 0.12582    | 0.12582    |   0.0 |  9.56
Neigh   | 0.80109    | 0.80109    | 0.80109    |   0.0 | 60.85
Comm    | 0.05458    | 0.05458    | 0.05458    |   0.0 |  4.15
Output  | 0.0010659  | 0.0010659  | 0.0010659  |   0.0 |  0.08
Modify  | 0.25176    | 0.25176    | 0.25176    |   0.0 | 19.12
Other   |            | 0.03311    |            |       |  2.51

Nlocal:            100 ave         100 max         100 min
Histogram: 1 0 0 0 0 0 0 0 0 0
Nghost:             60 ave          60 max          60 min
Histogram: 1 0 0 0 0 0 0 0 0 0
Neighs:             36 ave          36 max          36 min
Histogram: 1 0 0 0 0 0 0 0 0 0

Total # of neighbors = 36
Ave neighs/atom = 0.36
Ave special neighs/atom = 1.98
Neighbor list builds = 9821
Dangerous builds = 8265
unfix           nvtSoft
unfix           rampSoft
reset_timestep  0

write_data      ${outputfile_relaxed}
write_data      5_relaxed.data
System init for write_data ...
Generated 0 of 6 mixed pair_coeff terms from geometric mixing rule
WARNING: Communication cutoff 1.3 is shorter than a bond length based estimate of 1.7550000000000001. This may lead to errors. (src/comm.cpp:727)
WARNING: Not all mixed pair coeffs generated from mixing. Use write_data with 'pair ij' option to store all pair coeffs. (src/write_data.cpp:309)

###########################################################################
# Full LJ with Coulomb
######################################################################

# Cutoffs and parameters:
# - Values: Marcel Verkade's Bachelor Thesis
# - Mapping to atom groups: Patrick Onck's paper
# - 1: aliphatic, 2: aromatic, 3: anion, 4: cation
# pair_style	lj/cut/coul/cut <lj_cut_global> <coul_cut_global>
# pair_coeff	<type_1>  <type_2>  <eps>  <sigma>  <r_cut_lj>  <r_cut_coul>

# Problem: Onck's model is much more complex, and Marcel has no sigma reported
# Using sigma=1 randomly

variable		glob_ljeps equal 1.0
variable		glob_ljsig 	equal 1.0
variable		glob_coulcut equal 10.0
variable		att_ljcut equal 2.50
variable		rep_ljcut equal 1.12

pair_style		lj/cut/coul/cut 						${att_ljcut} 	${glob_coulcut}
pair_style		lj/cut/coul/cut 						2.5 	${glob_coulcut}
pair_style		lj/cut/coul/cut 						2.5 	10
pair_coeff		1 1 	${glob_ljeps} 	${glob_ljsig}	${att_ljcut} 	${glob_coulcut}
pair_coeff		1 1 	1 	${glob_ljsig}	${att_ljcut} 	${glob_coulcut}
pair_coeff		1 1 	1 	1	${att_ljcut} 	${glob_coulcut}
pair_coeff		1 1 	1 	1	2.5 	${glob_coulcut}
pair_coeff		1 1 	1 	1	2.5 	10
pair_coeff		1 2 	${glob_ljeps} 	${glob_ljsig}	${att_ljcut} 	${glob_coulcut}
pair_coeff		1 2 	1 	${glob_ljsig}	${att_ljcut} 	${glob_coulcut}
pair_coeff		1 2 	1 	1	${att_ljcut} 	${glob_coulcut}
pair_coeff		1 2 	1 	1	2.5 	${glob_coulcut}
pair_coeff		1 2 	1 	1	2.5 	10
pair_coeff		1 3 	${glob_ljeps} 	${glob_ljsig}	${rep_ljcut} 	${glob_coulcut}
pair_coeff		1 3 	1 	${glob_ljsig}	${rep_ljcut} 	${glob_coulcut}
pair_coeff		1 3 	1 	1	${rep_ljcut} 	${glob_coulcut}
pair_coeff		1 3 	1 	1	1.12 	${glob_coulcut}
pair_coeff		1 3 	1 	1	1.12 	10
pair_coeff		1 4 	${glob_ljeps} 	${glob_ljsig}	${rep_ljcut} 	${glob_coulcut}
pair_coeff		1 4 	1 	${glob_ljsig}	${rep_ljcut} 	${glob_coulcut}
pair_coeff		1 4 	1 	1	${rep_ljcut} 	${glob_coulcut}
pair_coeff		1 4 	1 	1	1.12 	${glob_coulcut}
pair_coeff		1 4 	1 	1	1.12 	10
pair_coeff		2 2 	${glob_ljeps} 	${glob_ljsig}	${att_ljcut} 	${glob_coulcut}
pair_coeff		2 2 	1 	${glob_ljsig}	${att_ljcut} 	${glob_coulcut}
pair_coeff		2 2 	1 	1	${att_ljcut} 	${glob_coulcut}
pair_coeff		2 2 	1 	1	2.5 	${glob_coulcut}
pair_coeff		2 2 	1 	1	2.5 	10
pair_coeff		2 3 	${glob_ljeps} 	${glob_ljsig}	${rep_ljcut} 	${glob_coulcut}
pair_coeff		2 3 	1 	${glob_ljsig}	${rep_ljcut} 	${glob_coulcut}
pair_coeff		2 3 	1 	1	${rep_ljcut} 	${glob_coulcut}
pair_coeff		2 3 	1 	1	1.12 	${glob_coulcut}
pair_coeff		2 3 	1 	1	1.12 	10
pair_coeff		2 4 	${glob_ljeps} 	${glob_ljsig}	${att_ljcut} 	${glob_coulcut}
pair_coeff		2 4 	1 	${glob_ljsig}	${att_ljcut} 	${glob_coulcut}
pair_coeff		2 4 	1 	1	${att_ljcut} 	${glob_coulcut}
pair_coeff		2 4 	1 	1	2.5 	${glob_coulcut}
pair_coeff		2 4 	1 	1	2.5 	10
pair_coeff		3 3 	${glob_ljeps} 	${glob_ljsig}	${rep_ljcut} 	${glob_coulcut}
pair_coeff		3 3 	1 	${glob_ljsig}	${rep_ljcut} 	${glob_coulcut}
pair_coeff		3 3 	1 	1	${rep_ljcut} 	${glob_coulcut}
pair_coeff		3 3 	1 	1	1.12 	${glob_coulcut}
pair_coeff		3 3 	1 	1	1.12 	10
pair_coeff		3 4 	${glob_ljeps} 	${glob_ljsig}	${att_ljcut} 	${glob_coulcut}
pair_coeff		3 4 	1 	${glob_ljsig}	${att_ljcut} 	${glob_coulcut}
pair_coeff		3 4 	1 	1	${att_ljcut} 	${glob_coulcut}
pair_coeff		3 4 	1 	1	2.5 	${glob_coulcut}
pair_coeff		3 4 	1 	1	2.5 	10
pair_coeff		4 4 	${glob_ljeps} 	${glob_ljsig}	${rep_ljcut} 	${glob_coulcut}
pair_coeff		4 4 	1 	${glob_ljsig}	${rep_ljcut} 	${glob_coulcut}
pair_coeff		4 4 	1 	1	${rep_ljcut} 	${glob_coulcut}
pair_coeff		4 4 	1 	1	1.12 	${glob_coulcut}
pair_coeff		4 4 	1 	1	1.12 	10


fix             noDriftRot 	all momentum 10 linear 1 1 1 angular
fix             nvt1 		all nvt temp ${Temp} ${Temp} 0.5
fix             nvt1 		all nvt temp 1 ${Temp} 0.5
fix             nvt1 		all nvt temp 1 1 0.5

# dump          assemble 	all custom 1000 				${outputfile_selfasb} id type xu yu zu vx vy vz
dump            lindump 	all custom ${subsample_rate} 	${outputfile_trajlin} id type xu yu zu vx vy vz
dump            lindump 	all custom 1000 	${outputfile_trajlin} id type xu yu zu vx vy vz
dump            lindump 	all custom 1000 	6_b_trajlin.data id type xu yu zu vx vy vz

run             ${runtime}
run             1000000
Generated 0 of 6 mixed pair_coeff terms from geometric mixing rule
Neighbor list info ...
  update every 1 steps, delay 10 steps, check yes
  max neighbors/atom: 2000, page size: 100000
  master list distance cutoff = 10.3
  ghost atom cutoff = 10.3
  binsize = 5.15, bins = 7 7 7
  1 neighbor lists, perpetual/occasional/extra = 1 0 0
  (1) pair lj/cut/coul/cut, perpetual
      attributes: half, newton on
      pair build: half/bin/newton
      stencil: half/bin/3d
      bin: standard
Per MPI rank memory allocation (min/avg/max) = 7.712 | 7.712 | 7.712 Mbytes
   Step          Temp         Density         Press          TotEng         PotEng         KinEng         E_pair         S/CPU     
         0   1.1904942      0.0023323615  -0.0013175846   21.971206      20.203322      1.7678839     -0.3450118      0            
      1000   0.93260293     0.0023323615  -0.00019295587  21.115279      19.730364      1.3849153     -0.69193533     33345.571    
      2000   0.9792252      0.0023323615   0.00091915551  21.027827      19.573677      1.4541494     -0.8354824      29724.677    
      3000   1.0665753      0.0023323615   0.0033844142   21.249138      19.665274      1.5838643     -0.75105897     25052.185    
      4000   0.8846461      0.0023323615   0.0018040712   20.519926      19.206227      1.3136995     -1.2277875      19712.511    
      5000   0.92795616     0.0023323615  -0.0064056154   20.834337      19.456322      1.3780149     -1.1498061      18307.549    
      6000   0.95110206     0.0023323615  -0.0017167719   20.974802      19.562416      1.4123866     -1.0256737      18852.795    
      7000   1.0945104      0.0023323615   0.0020969628   20.932617      19.307269      1.6253479     -1.1707037      18761.23     
      8000   0.98092837     0.0023323615   0.0015883605   20.600332      19.143653      1.4566786     -1.4111737      18620.227    
      9000   0.94385113     0.0023323615   0.0015186821   20.786867      19.385248      1.4016189     -1.236552       18494.28     
     10000   0.89906274     0.0023323615   0.00074714186  20.973509      19.638401      1.3351082     -0.96537407     18657.791    
     11000   1.0038705      0.0023323615   0.00080532934  20.863688      19.372941      1.4907477     -1.1201002      19070.206    
     12000   0.94544528     0.0023323615  -0.0048829488   20.731266      19.327279      1.4039862     -1.1462649      18977.254    
     13000   0.86272192     0.0023323615  -0.0011695769   20.691771      19.410629      1.2811421     -1.1547116      18672.786    
     14000   0.99251437     0.0023323615   0.0036936192   20.769669      19.295785      1.4738838     -1.2222553      18628.328    
     15000   0.89534415     0.0023323615   0.0031927166   20.574777      19.245191      1.3295861     -1.2536307      18686.381    
     16000   1.1461981      0.0023323615   0.0014382901   21.209975      19.507871      1.7021042     -1.0355931      18707.584    
     17000   0.99874896     0.0023323615  -0.0040721295   20.779863      19.296721      1.4831422     -1.178          18617.393    
     18000   0.96659556     0.0023323615  -0.0025142244   20.315262      18.879868      1.4353944     -1.5698629      18591.867    
     19000   1.0438739      0.0023323615   0.0015846379   20.870097      19.319945      1.5501528     -1.1044961      18750.871    
     20000   1.1491178      0.0023323615  -0.0024248773   21.607919      19.901479      1.70644       -0.89117201     18794.802    
     21000   1.0099485      0.0023323615   0.00032758491  20.726923      19.227149      1.4997735     -1.2818447      18913.712    
     22000   0.80254984     0.0023323615   0.00034894295  20.438256      19.246469      1.1917865     -1.2288718      18649.933    
     23000   1.0397316      0.0023323615   0.0011087235   21.008372      19.46437       1.5440015     -1.3172024      18489.672    
     24000   0.96200053     0.0023323615  -0.0017074034   20.702062      19.273491      1.4285708     -1.1989166      18543.91     
     25000   1.0891546      0.0023323615  -0.0023739055   20.950141      19.332747      1.6173945     -1.2243597      18523.334    
     26000   1.1637662      0.0023323615   0.00015433337  20.849992      19.121799      1.7281928     -1.4124293      18462.097    
     27000   1.0309046      0.0023323615   0.0051367146   20.738135      19.207241      1.5308933     -1.4105149      18467.231    
     28000   0.86384326     0.0023323615   0.00097305847  20.508246      19.225439      1.2828072     -1.259812       18585.238    
     29000   1.0720203      0.0023323615   0.001084221    20.75915       19.1672        1.5919501     -1.3853867      18444.37     
     30000   1.0347562      0.0023323615  -0.00040004053  20.913709      19.377096      1.5366129     -1.2150319      18645.376    
     31000   1.0676516      0.0023323615  -0.0029790669   21.242051      19.656588      1.5854627     -1.0001423      18654.726    
     32000   0.89729781     0.0023323615  -0.001890422    20.728375      19.395888      1.3324872     -1.2025419      18486.405    
     33000   1.0475351      0.0023323615   0.0053322275   21.132741      19.577152      1.5555897     -1.0077198      18484.033    
     34000   0.9718029      0.0023323615  -0.00015777252  20.905282      19.462154      1.4431273     -1.0496112      18605.559    
     35000   0.92311623     0.0023323615   0.0023974568   20.704962      19.334134      1.3708276     -1.2372129      18759.146    
     36000   1.0631323      0.0023323615   0.00092305801  20.845632      19.266881      1.5787515     -1.2033287      18537.29     
     37000   1.0021447      0.0023323615  -0.0032860909   20.837058      19.348873      1.4881849     -1.2450739      18534.516    
     38000   1.0918888      0.0023323615  -0.0043170166   21.122802      19.501347      1.6214549     -1.0057295      18761.805    
     39000   0.94647575     0.0023323615  -0.0020346915   20.911367      19.505851      1.4055165     -1.1047178      18901.993    
     40000   1.1015746      0.0023323615   0.0032207441   20.870102      19.234264      1.6358382     -1.2799523      18843.164    
     41000   0.98801554     0.0023323615  -0.0014647017   20.818149      19.350945      1.4672031     -1.098847       18797.046    
     42000   0.95461858     0.0023323615   0.00021673517  21.033051      19.615442      1.4176086     -0.96325371     18713.417    
     43000   0.8592636      0.0023323615  -0.0029001611   20.65592       19.379914      1.2760064     -1.1370852      18795.974    
     44000   1.0611791      0.0023323615  -0.0025534872   20.67237       19.096519      1.575851      -1.3334102      18540.117    
     45000   0.95729047     0.0023323615  -0.0028726736   20.784361      19.362784      1.4215763     -1.252846       18421.093    
     46000   1.0619299      0.0023323615  -0.00097582061  20.823799      19.246833      1.5769659     -1.3975769      18472.539    
     47000   1.0139909      0.0023323615  -0.0015186961   20.831137      19.325361      1.5057764     -1.2624763      18535.41     
     48000   1.0690003      0.0023323615  -0.00059908551  20.796092      19.208627      1.5874654     -1.2842395      18451.295    
     49000   0.90250472     0.0023323615   0.0044861974   20.544328      19.204109      1.3402195     -1.407722       18423.351    
     50000   1.0674562      0.0023323615   9.0047813e-05  20.864462      19.279289      1.5851724     -1.439577       18515.087    
     51000   1.0720118      0.0023323615  -0.0019749472   21.061521      19.469584      1.5919375     -1.0137342      18641.455    
     52000   1.1450027      0.0023323615   0.00036473019  20.818162      19.117833      1.7003291     -1.3334         18689.415    
     53000   0.93514998     0.0023323615   0.0011780048   20.789222      19.400525      1.3886977     -1.1454357      18790.262    
     54000   0.9946537      0.0023323615   0.0019117273   20.837118      19.360057      1.4770608     -1.0370148      18751.988    
     55000   1.0238819      0.0023323615  -0.0036280478   20.65547       19.135005      1.5204646     -1.3438239      18554.717    
     56000   0.98996486     0.0023323615  -0.0019706166   21.059037      19.588939      1.4700978     -1.0137714      18699.485    
     57000   1.0890572      0.0023323615   0.00036310879  20.987895      19.370645      1.61725       -1.1561007      18690.87     
     58000   1.0296966      0.0023323615   0.00054101707  20.785579      19.25648       1.5290994     -1.2661821      18652.951    
     59000   1.0008463      0.0023323615  -0.0007360914   20.955617      19.46936       1.4862567     -1.1751569      18700.284    
     60000   1.0022531      0.0023323615  -0.0035028402   21.052098      19.563752      1.4883459     -1.0814997      18688.474    
     61000   1.0842901      0.0023323615   0.0040314596   20.973671      19.3635        1.6101709     -1.1237924      18621.329    
     62000   0.92713254     0.0023323615  -0.00070580358  20.678207      19.301415      1.3767918     -1.252971       18736.521    
     63000   0.95641496     0.0023323615  -0.00050322414  20.837367      19.417091      1.4202762     -1.1258668      18694.501    
     64000   0.97849141     0.0023323615   0.002598618    20.702094      19.249034      1.4530597     -1.2635372      18680.474    
     65000   0.89799837     0.0023323615   0.00083783085  20.557806      19.224279      1.3335276     -1.3551373      18610.496    
     66000   0.99210976     0.0023323615   0.001708015    20.369386      18.896103      1.473283      -1.5848333      18564.946    
     67000   0.85487669     0.0023323615  -0.0039286249   20.691688      19.422196      1.2694919     -1.1781444      18618.053    
     68000   1.0274228      0.0023323615   0.00044547402  20.683168      19.157446      1.5257229     -1.3249226      18668.064    
     69000   1.3229581      0.0023323615  -0.0049948569   21.531297      19.566704      1.9645928     -1.041836       18746.195    
     70000   0.98395858     0.0023323615   0.00015724926  20.783196      19.322017      1.4611785     -1.230108       18661.356    
     71000   1.0324357      0.0023323615  -0.0034599727   20.845204      19.312037      1.5331671     -1.2945985      18531.656    
     72000   1.0652545      0.0023323615   0.0036567667   20.825236      19.243333      1.5819029     -1.2304122      18639.15     
     73000   0.86874554     0.0023323615  -0.0021367155   20.893267      19.60318       1.2900871     -1.119092       18521.491    
     74000   1.0433594      0.0023323615  -0.00095900667  20.491273      18.941884      1.5493887     -1.4636966      18532.534    
     75000   1.0120089      0.0023323615  -0.001040985    20.952463      19.44963       1.5028332     -1.0443668      18668.218    
     76000   0.99495456     0.0023323615   0.0020397665   20.609935      19.132428      1.4775075     -1.2427369      18678.583    
     77000   1.0527148      0.0023323615   0.0033878366   20.913037      19.349756      1.5632814     -0.98497655     18611.443    
     78000   0.97937511     0.0023323615  -0.0042183478   20.871686      19.417314      1.454372      -1.0432376      18815.748    
     79000   1.0550271      0.0023323615   0.00062979217  20.93198       19.365265      1.5667153     -1.2693675      18631.774    
     80000   0.95094792     0.0023323615   0.00074163113  20.711457      19.299299      1.4121577     -1.2120822      18513.287    
     81000   0.92629996     0.0023323615  -0.00039610675  20.583784      19.208229      1.3755554     -1.2681752      18567.208    
     82000   0.93732351     0.0023323615   0.00081810838  20.780422      19.388496      1.3919254     -1.2138585      18758.465    
     83000   1.0137585      0.0023323615   0.0008288762   20.934613      19.429182      1.5054314     -1.1012327      18715.905    
     84000   0.84226486     0.0023323615  -0.0042185464   20.56344       19.312677      1.2507633     -1.2173272      18766.239    
     85000   0.9781791      0.0023323615  -0.0012533067   20.799424      19.346828      1.452596      -1.2364021      18672.852    
     86000   1.0322129      0.0023323615   0.0035919377   20.779589      19.246752      1.5328362     -1.225692       18706.473    
     87000   0.91791201     0.0023323615  -0.0023156357   20.623294      19.260194      1.3630993     -1.1788018      18623.146    
     88000   0.99231015     0.0023323615   0.0018651282   20.985748      19.512167      1.4735806     -1.0823307      18738.716    
     89000   1.1100599      0.0023323615  -0.0021475985   21.170601      19.522162      1.6484389     -1.104831       18807.26     
     90000   1.0688784      0.0023323615   0.00085851296  20.921954      19.33467       1.5872844     -1.1544301      19032.885    
     91000   1.01586        0.0023323615  -0.002027671    20.975536      19.466984      1.5085521     -1.0762862      18819.325    
     92000   1.1032628      0.0023323615  -0.0014812108   20.991775      19.353429      1.6383452     -1.1585919      18736.384    
     93000   0.92782651     0.0023323615  -0.0056203915   20.78441       19.406587      1.3778224     -1.180087       18726.555    
     94000   0.96712654     0.0023323615   0.00048194628  20.983911      19.547728      1.4361829     -0.85899387     18690.002    
     95000   1.0893413      0.0023323615  -0.0023249416   21.139322      19.52165       1.6176718     -1.0476115      18837.481    
     96000   1.0482598      0.0023323615   0.00065216845  21.064996      19.50833       1.5566659     -1.0674274      18723.39     
     97000   1.0795159      0.0023323615  -0.0058773263   20.86407       19.260988      1.6030812     -1.419241       18750.375    
     98000   1.0241912      0.0023323615   0.00019667937  20.877509      19.356585      1.5209239     -1.0836407      18844.163    
     99000   1.0164576      0.0023323615  -0.001166565    20.845135      19.335696      1.5094396     -1.1609525      18559.426    
    100000   0.95871913     0.0023323615   0.0025715858   20.930488      19.50679       1.4236979     -0.95344445     18591.614    
    101000   1.0441537      0.0023323615  -0.0020024697   20.88596       19.335391      1.5505683     -1.1829193      18743.389    
    102000   0.9470343      0.0023323615  -0.0012082552   20.609168      19.202822      1.4063459     -1.298515       18610.041    
    103000   0.81810065     0.0023323615   0.00048759233  20.443636      19.228757      1.2148795     -1.1400014      18620.818    
    104000   0.96994165     0.0023323615   0.004492918    20.872804      19.432441      1.4403633     -1.2491441      18633.705    
    105000   1.1203381      0.0023323615   0.0022285117   21.128691      19.464989      1.6637021     -1.0985552      18560.089    
    106000   0.95998337     0.0023323615   0.0035169086   20.637237      19.211661      1.4255753     -1.2526245      18653.327    
    107000   0.90625768     0.0023323615   0.004313065    20.722188      19.376395      1.3457927     -1.2065408      18563.582    
    108000   0.93885571     0.0023323615   0.00010479191  20.601142      19.206941      1.3942007     -1.2311693      18554.672    
    109000   1.0367954      0.0023323615  -0.0034766598   21.199776      19.660135      1.5396411     -0.91362834     18672.716    
    110000   0.82655779     0.0023323615  -0.001835483    20.263999      19.036561      1.2274383     -1.3525917      18715.15     
    111000   0.96437933     0.0023323615   0.00015044529  21.00697       19.574867      1.4321033     -0.99719796     18631.621    
    112000   0.96508217     0.0023323615   0.0041168163   20.533336      19.100189      1.433147      -1.4643642      18608.865    
    113000   0.92349218     0.0023323615  -0.0013978558   20.678964      19.307578      1.3713859     -1.1820776      18624.05     
    114000   1.0098662      0.0023323615  -0.0033640691   20.655853      19.156202      1.4996513     -1.3601459      18672.552    
    115000   0.90347966     0.0023323615  -0.0031759945   20.574204      19.232537      1.3416673     -1.3629432      18542.456    
    116000   0.94490445     0.0023323615  -0.00043629408  20.501877      19.098694      1.4031831     -1.4052994      18486.33     
    117000   1.0984302      0.0023323615   0.0011178135   20.783538      19.152369      1.6311688     -1.2789192      18589.138    
    118000   0.86305364     0.0023323615   0.0013750119   20.790367      19.508732      1.2816347     -1.1087737      18604.335    
    119000   0.94295952     0.0023323615   0.00059024823  20.86215       19.461855      1.4002949     -1.0395066      18644.822    
    120000   0.92246175     0.0023323615   0.0053421082   20.502567      19.132711      1.3698557     -1.3021718      18748.452    
    121000   0.89873211     0.0023323615  -0.00042738525  20.539568      19.204951      1.3346172     -1.2544669      18562.712    
    122000   1.0284003      0.0023323615  -0.0010856159   20.644426      19.117252      1.5271744     -1.4677207      18664.605    
    123000   1.0824173      0.0023323615  -0.00050349628  20.720049      19.11266       1.6073897     -1.3880996      18458.948    
    124000   0.94565093     0.0023323615   0.00068885134  20.535913      19.131621      1.4042916     -1.4179892      18455.976    
    125000   0.90134483     0.0023323615  -0.0064039126   20.60765       19.269153      1.3384971     -1.2684279      18523.1      
    126000   0.93721172     0.0023323615  -0.0018835176   20.974416      19.582657      1.3917594     -1.0155597      18535.689    
    127000   0.97105862     0.0023323615   0.00010884149  20.72233       19.280308      1.4420221     -1.1633319      18622.184    
    128000   0.98986996     0.0023323615  -0.0017010649   20.57967       19.109713      1.4699569     -1.3729223      18590.205    
    129000   0.96753132     0.0023323615   0.002942208    20.680885      19.244101      1.436784      -1.356941       18487.035    
    130000   0.93573137     0.0023323615  -0.00048367567  20.805396      19.415835      1.3895611     -1.0625065      18666.381    
    131000   1.0915218      0.0023323615   0.004306227    20.981596      19.360686      1.6209099     -1.094265       18863.997    
    132000   0.91469237     0.0023323615   0.0014332686   20.599743      19.241424      1.3583182     -1.3171003      18706.817    
    133000   1.0223106      0.0023323615   0.0007442952   20.949978      19.431847      1.5181313     -1.069205       18598.872    
    134000   1.0238973      0.0023323615   0.0028230905   20.683791      19.163303      1.5204875     -1.3339767      18714.694    
    135000   1.0243861      0.0023323615   0.0022037168   20.784932      19.263719      1.5212134     -1.1546494      18758.839    
    136000   0.87549978     0.0023323615   0.001681865    20.844649      19.544532      1.3001172     -1.0725796      18654.471    
    137000   0.77324207     0.0023323615  -0.0023471985   20.164089      19.015824      1.1482645     -1.446048       18552.375    
    138000   0.9062502      0.0023323615  -0.00063150745  20.783519      19.437737      1.3457816     -1.0642961      18674.777    
    139000   1.0094645      0.0023323615  -0.0017733375   20.959792      19.460738      1.4990548     -1.093645       18651.633    
    140000   0.97703514     0.0023323615  -0.0049302634   20.899694      19.448797      1.4508972     -1.2035925      18554.2      
    141000   0.92181664     0.0023323615   0.00055791304  20.554078      19.185181      1.3688977     -1.2377788      18612.658    
    142000   0.96554929     0.0023323615  -0.0032607373   20.806106      19.372266      1.4338407     -1.079754       18677.125    
    143000   0.79291941     0.0023323615   0.0036318997   20.767829      19.590344      1.1774853     -0.96550492     18690.829    
    144000   1.0722556      0.0023323615  -0.0027368537   20.857383      19.265083      1.5922995     -1.2400415      18676.699    
    145000   0.9409709      0.0023323615  -0.0081851315   20.729919      19.332577      1.3973418     -1.2035722      18555.417    
    146000   0.97902687     0.0023323615   0.0029733247   20.767469      19.313614      1.4538549     -1.2365557      18523.062    
    147000   0.89775954     0.0023323615  -0.00053485778  20.900304      19.567131      1.3331729     -0.93610661     18756.53     
    148000   1.0582009      0.0023323615  -0.0025571538   20.813187      19.241758      1.5714283     -1.1524926      19514.468    
    149000   0.93750403     0.0023323615   0.001047861    20.7572        19.365006      1.3921935     -1.1076597      19949.131    
    150000   1.0078347      0.0023323615  -0.00041287023  20.982613      19.485978      1.4966346     -1.0742092      20015.169    
    151000   0.87116813     0.0023323615  -0.0038677035   21.117587      19.823902      1.2936847     -0.83637812     19091.49     
    152000   1.0970806      0.0023323615   0.0024123277   20.793712      19.164547      1.6291647     -1.3327086      18796.31     
    153000   1.0125893      0.0023323615  -0.0041143358   20.992777      19.489082      1.5036951     -1.2378915      18538.137    
    154000   0.94269363     0.0023323615  -0.0032484571   20.755112      19.355212      1.3999        -1.2804359      18456.368    
    155000   1.0328831      0.0023323615   0.00093359513  20.796652      19.26282       1.5338314     -1.2784241      18459.215    
    156000   1.192969       0.0023323615   0.00039879273  20.8821        19.110541      1.771559      -1.4218619      18447.881    
    157000   1.0100651      0.0023323615   0.0029217314   20.612961      19.113015      1.4999466     -1.363114       18498.314    
    158000   0.94554677     0.0023323615  -0.00046777569  20.61462       19.210483      1.404137      -1.2462017      18440.063    
    159000   0.91566183     0.0023323615   0.0023944015   20.616511      19.256754      1.3597578     -1.3255534      18398.187    
    160000   1.0352102      0.0023323615   0.00057605229  20.881138      19.343851      1.5372871     -1.2176396      18478.061    
    161000   1.117767       0.0023323615  -0.0015588287   21.060763      19.400879      1.6598841     -1.1231495      18471.096    
    162000   1.0711828      0.0023323615   0.0031973321   20.850435      19.259728      1.5907064     -1.2821346      18511.114    
    163000   0.97858794     0.0023323615   0.0021407862   20.637795      19.184591      1.4532031     -1.3918822      18530.955    
    164000   1.0831291      0.0023323615  -0.0036256664   20.762977      19.15453       1.6084467     -1.3784387      18471.444    
    165000   0.9966814      0.0023323615   0.0054279646   20.788486      19.308414      1.4800719     -1.1161268      18565.906    
    166000   1.0022516      0.0023323615   0.0018057951   20.846548      19.358205      1.4883436     -1.3033263      18546.78     
    167000   1.1248962      0.0023323615  -0.0024511016   20.928601      19.25813       1.6704709     -1.1962613      18677.912    
    168000   0.88438207     0.0023323615  -0.0018059865   20.676073      19.362766      1.3133074     -1.195179       18859.958    
    169000   1.0012362      0.0023323615  -0.00065211504  20.687228      19.200392      1.4868357     -1.2582315      18710.751    
    170000   0.85668895     0.0023323615  -0.0015337196   20.416135      19.143952      1.2721831     -1.3659606      18530.514    
    171000   0.98690721     0.0023323615   0.0014411473   20.660644      19.195087      1.4655572     -1.3114128      18581.739    
    172000   1.0517921      0.0023323615   0.00060617306  20.659838      19.097927      1.5619112     -1.4083577      18532.052    
    173000   1.0743635      0.0023323615  -0.0033157067   21.116346      19.520916      1.5954298     -1.189646       18740.035    
    174000   0.91979461     0.0023323615  -0.0022884758   20.707822      19.341927      1.365895      -1.2227848      18661.15     
    175000   0.93105522     0.0023323615   0.00050020956  20.844723      19.462106      1.382617      -1.0818726      18818.42     
    176000   1.0689038      0.0023323615   0.00068235214  20.928278      19.340956      1.5873222     -1.1846672      18601.114    
    177000   1.1846146      0.0023323615   0.0017799317   21.137976      19.378823      1.7591527     -1.1914147      18610.351    
    178000   1.1107976      0.0023323615  -0.003883408    20.975817      19.326282      1.6495344     -1.2020178      18665.998    
    179000   1.0613379      0.0023323615  -0.0038392073   21.096696      19.520609      1.5760867     -0.92599783     18732.938    
    180000   1.0656842      0.0023323615  -0.00091392947  21.182152      19.599611      1.582541      -1.0819042      19002.393    
    181000   0.94494704     0.0023323615  -0.0026525549   20.727001      19.323754      1.4032464     -1.0862369      19143.591    
    182000   1.0019375      0.0023323615   0.0025054537   21.106402      19.618525      1.4878772     -1.0514161      18661.555    
    183000   0.9736501      0.0023323615   0.0048013149   20.859024      19.413153      1.4458704     -1.1319363      18715.137    
    184000   0.9583542      0.0023323615   0.0036369334   20.747039      19.323883      1.423156      -1.1615697      18685.125    
    185000   0.97183271     0.0023323615  -0.0012894737   20.962306      19.519134      1.4431716     -0.95611709     18732.326    
    186000   1.0961823      0.0023323615  -0.00057350381  20.801763      19.173932      1.6278307     -1.1732763      18707.837    
    187000   1.0320057      0.0023323615   0.0012874961   20.811276      19.278747      1.5325285     -1.2153412      18549.803    
    188000   1.0294954      0.0023323615  -0.0040174911   20.973194      19.444393      1.5288006     -1.1701371      18602.425    
    189000   0.86581528     0.0023323615  -0.0055282334   20.608749      19.323013      1.2857357     -1.2318277      18668.861    
    190000   1.1159198      0.0023323615   0.00081042046  20.865149      19.208008      1.6571409     -1.2957316      18717.716    
    191000   0.93241724     0.0023323615   0.0016471593   20.834341      19.449702      1.3846396     -1.1310533      18782.215    
    192000   0.95269783     0.0023323615   0.0027936523   20.717456      19.3027        1.4147563     -1.1791726      19042.115    
    193000   0.84966838     0.0023323615  -0.0024232384   20.806734      19.544977      1.2617575     -1.0093012      18974.433    
    194000   1.0393983      0.0023323615   0.0052488197   21.138647      19.59514       1.5435065     -1.0204028      19429.06     
    195000   1.01599        0.0023323615  -0.0007747508   20.932665      19.423919      1.5087452     -1.0860578      19043.71     
    196000   1.0663267      0.0023323615  -0.0012027125   20.844527      19.261032      1.5834951     -1.2411732      18791.557    
    197000   0.81359401     0.0023323615   0.0028981804   20.652284      19.444097      1.2081871     -1.0167784      18749.128    
    198000   1.0620572      0.0023323615  -0.0027797832   21.023169      19.446014      1.5771549     -1.0129525      18763.759    
    199000   0.89571223     0.0023323615  -0.0015501592   20.701421      19.371288      1.3301327     -1.1381273      19098.438    
    200000   1.0909972      0.0023323615  -0.0007373239   20.892512      19.272381      1.6201309     -1.1055374      18802.092    
    201000   0.99898752     0.0023323615   0.00017345046  20.712667      19.22917       1.4834965     -1.2685289      18723.502    
    202000   1.0470631      0.0023323615   0.0013119608   21.055468      19.50058       1.5548888     -1.0473369      18603.944    
    203000   1.0543662      0.0023323615  -0.0016500161   20.952749      19.387015      1.5657339     -1.1095404      18801.904    
    204000   1.0172507      0.0023323615  -0.00073810908  20.669765      19.159148      1.5106173     -1.2887221      18772.705    
    205000   1.0644124      0.0023323615   0.0017780477   21.082286      19.501633      1.5806525     -1.0979088      18538.964    
    206000   0.97598415     0.0023323615   0.0044768775   20.681621      19.232284      1.4493365     -1.3006747      18512.872    
    207000   0.9622974      0.0023323615   5.4499921e-05  20.722317      19.293305      1.4290116     -1.2656859      18459.099    
    208000   0.92142324     0.0023323615  -0.0046372016   20.648721      19.280408      1.3683135     -1.1934304      18690.104    
    209000   1.0077042      0.0023323615   0.0025646462   20.927673      19.431232      1.4964408     -1.1459679      18684.719    
    210000   1.0054494      0.0023323615  -0.0019964891   21.06866       19.575568      1.4930923     -0.96970098     18860.508    
    211000   1.0663738      0.0023323615   0.00088542866  20.732804      19.149239      1.5835651     -1.3657026      18646.902    
    212000   1.035808       0.0023323615  -0.0026938761   21.035242      19.497068      1.5381748     -1.069111       18795.694    
    213000   0.90058758     0.0023323615  -0.0020380287   20.564043      19.226671      1.3373726     -1.2537631      18695.471    
    214000   0.88904809     0.0023323615  -0.0028006728   20.418561      19.098324      1.3202364     -1.3979896      18718.523    
    215000   0.95279497     0.0023323615   0.0044825292   20.92265       19.507749      1.4149005     -1.2440166      18732.235    
    216000   1.0172464      0.0023323615  -0.0023534584   20.742804      19.232193      1.5106109     -1.226283       18647.797    
    217000   0.85243517     0.0023323615   0.0031469497   20.504895      19.239029      1.2658662     -1.2597712      18715.438    
    218000   1.0729184      0.0023323615  -5.0846575e-05  21.077964      19.48468       1.5932838     -1.1051753      18567.557    
    219000   1.0195996      0.0023323615  -0.001643524    20.977508      19.463403      1.5141054     -1.2023688      18750.188    
    220000   1.0382333      0.0023323615   0.0015257887   20.790621      19.248844      1.5417765     -1.2033143      18728.671    
    221000   0.95840081     0.0023323615   0.0017716522   20.831672      19.408447      1.4232252     -1.0940454      18703.914    
    222000   1.1200843      0.0023323615  -0.0064102939   21.06675       19.403425      1.6633252     -1.1383088      18718.26     
    223000   1.0315324      0.0023323615   0.00029972425  20.892141      19.360315      1.5318256     -1.2068555      18626.781    
    224000   0.93574193     0.0023323615   0.0021175452   20.494434      19.104857      1.3895768     -1.3777247      18543.638    
    225000   0.98392322     0.0023323615  -0.0051181814   20.811288      19.350162      1.461126      -1.251599       18576.929    
    226000   0.95885462     0.0023323615   0.0015234647   20.668091      19.244191      1.4238991     -1.3107287      18555.476    
    227000   0.95806158     0.0023323615   0.0010782704   20.678562      19.25584       1.4227215     -1.2782059      18659.005    
    228000   0.98144571     0.0023323615   0.0066208636   20.885152      19.427705      1.4574469     -1.0818455      18629.298    
    229000   0.91012973     0.0023323615  -0.00066363736  20.555991      19.204448      1.3515426     -1.2204621      18661.649    
    230000   0.90087741     0.0023323615  -0.00056097977  20.658436      19.320633      1.337803      -1.2617176      18575.376    
    231000   1.0315143      0.0023323615  -0.00014552878  20.855252      19.323454      1.5317987     -1.2211949      18543.324    
    232000   0.95415515     0.0023323615   0.0029433311   20.809046      19.392125      1.4169204     -1.1180459      18598.148    
    233000   1.0004095      0.0023323615  -0.0029721802   21.045003      19.559395      1.4856082     -1.1605286      18659.898    
    234000   1.1935549      0.0023323615   0.00068701971  20.759163      18.986734      1.7724291     -1.5369089      18590.579    
    235000   1.0689498      0.0023323615  -0.00046742981  20.676463      19.089073      1.5873905     -1.3837812      18408.116    
    236000   1.0066829      0.0023323615   0.0005028399   20.990505      19.495581      1.4949242     -1.1191078      18432.329    
    237000   1.0460998      0.0023323615   0.00039011096  20.646224      19.092765      1.5534583     -1.3184374      18582.836    
    238000   0.93765511     0.0023323615   0.0015878696   20.741918      19.3495        1.3924178     -1.2245353      18757.017    
    239000   1.0054772      0.0023323615   0.0058125116   20.907005      19.413871      1.4931336     -1.0698304      18762.161    
    240000   0.99692923     0.0023323615  -0.002024551    20.902012      19.421572      1.4804399     -1.2173775      18855.612    
    241000   0.8549346      0.0023323615  -0.0011402038   20.304214      19.034636      1.2695779     -1.431228       18634.971    
    242000   1.0336934      0.0023323615   0.002311703    20.915082      19.380048      1.5350346     -1.1669223      18669.391    
    243000   0.99272083     0.0023323615  -0.0019398925   20.907853      19.433662      1.4741904     -1.0510147      18720.718    
    244000   1.1157667      0.0023323615  -0.0019885868   20.88897       19.232057      1.6569136     -1.0900729      18763.995    
    245000   1.0294864      0.0023323615  -0.0011785482   20.903382      19.374595      1.5287873     -1.161674       18744.927    
    246000   0.93814033     0.0023323615   0.0012379381   20.786735      19.393597      1.3931384     -1.1181028      18558.84     
    247000   0.81535558     0.0023323615  -0.0020756578   20.446831      19.236028      1.210803      -1.2200519      18534.354    
    248000   1.0508747      0.0023323615   0.0011278756   20.750716      19.190167      1.5605489     -1.2371607      18588.723    
    249000   0.99781713     0.0023323615  -0.0028668074   20.734319      19.252561      1.4817584     -1.317727       18588.245    
    250000   1.0499108      0.0023323615  -0.0021950515   20.936956      19.377838      1.5591176     -1.1349473      18546.659    
    251000   1.1501894      0.0023323615   0.0040234391   21.29495       19.586919      1.7080312     -1.0391117      18636.648    
    252000   0.98082784     0.0023323615  -0.0020533939   20.697137      19.240608      1.4565293     -1.2720192      18506.604    
    253000   0.99224493     0.0023323615   0.00095589646  20.920666      19.447182      1.4734837     -1.0363601      18615.251    
    254000   1.0673149      0.0023323615   0.00030542448  20.878088      19.293125      1.5849626     -1.2373873      18723.457    
    255000   0.83031755     0.0023323615   0.00097370807  20.586506      19.353484      1.2330216     -1.157762       18536.368    
    256000   1.0248035      0.0023323615  -0.0050572088   20.84341       19.321577      1.5218332     -1.1938456      18860.111    
    257000   1.020159       0.0023323615  -0.0012656195   21.010454      19.495517      1.5149362     -1.0957994      18617.977    
    258000   0.87824442     0.0023323615  -0.0026886932   20.625051      19.320858      1.304193      -1.1894288      18552.241    
    259000   0.94859832     0.0023323615   0.0038201825   20.551979      19.143311      1.4086685     -1.4071951      18575.131    
    260000   0.86859618     0.0023323615  -0.00035873297  20.532818      19.242952      1.2898653     -1.2659956      18442.032    
    261000   0.93958396     0.0023323615  -0.0028565297   20.916991      19.521709      1.3952822     -1.1371874      18600.612    
    262000   1.0646224      0.0023323615   0.0011379415   20.735904      19.15494       1.5809643     -1.3381922      18678.939    
    263000   1.1932893      0.0023323615   9.9708504e-06  20.991256      19.219222      1.7720346     -1.3086747      18669.611    
    264000   0.91820158     0.0023323615   0.0016436401   20.392883      19.029354      1.3635293     -1.4633557      18564.411    
    265000   1.0397165      0.0023323615   0.0018662414   20.526871      18.982892      1.543979      -1.5641485      18489.82     
    266000   0.96769602     0.0023323615   0.0032094333   20.644496      19.207468      1.4370286     -1.4423362      18441.129    
    267000   0.89553887     0.0023323615   0.0020993857   20.764264      19.434389      1.3298752     -1.2237797      18564        
    268000   0.85587961     0.0023323615  -0.0043111435   20.752168      19.481187      1.2709812     -1.1652001      18515.908    
    269000   0.93634969     0.0023323615   0.0029448761   20.96045       19.56997       1.3904793     -1.0414236      18790.881    
    270000   1.1079554      0.0023323615  -0.0020617394   20.672757      19.027443      1.6453137     -1.5221323      18747.082    
    271000   1.1000144      0.0023323615  -0.0043368063   20.98294       19.349419      1.6335214     -1.1994595      18504.724    
    272000   0.84701905     0.0023323615   0.0032204704   20.425172      19.167349      1.2578233     -1.3298963      18800.523    
    273000   0.99680405     0.0023323615   0.0013737851   20.662449      19.182195      1.480254      -1.4183971      18705.575    
    274000   1.0962186      0.0023323615   0.00035463735  21.049002      19.421117      1.6278847     -1.0066242      18693.962    
    275000   0.98063604     0.0023323615   0.00017253469  20.98216       19.525915      1.4562445     -1.0987336      18613.582    
    276000   1.0199258      0.0023323615   0.0031568498   20.651289      19.136699      1.5145898     -1.3204145      18783.855    
    277000   0.86805034     0.0023323615   0.003301641    20.629447      19.340393      1.2890547     -1.2278537      18752.992    
    278000   0.95596169     0.0023323615  -0.0032335971   20.658291      19.238688      1.4196031     -1.2601973      18653.98     
    279000   0.91774897     0.0023323615  -0.00015284444  20.690393      19.327536      1.3628572     -1.1868377      18650.407    
    280000   0.86544549     0.0023323615   0.0013616091   20.452295      19.167109      1.2851865     -1.2261182      18647.752    
    281000   0.91697908     0.0023323615  -0.0037454346   20.595586      19.233872      1.3617139     -1.1720967      18588.941    
    282000   1.009068       0.0023323615  -0.0040037341   20.896044      19.397578      1.4984659     -1.1723993      18568.227    
    283000   0.87408824     0.0023323615   0.00024634819  20.465321      19.1673        1.298021      -1.4220143      18454.464    
    284000   0.96361517     0.0023323615   2.2453221e-05  20.71663       19.285662      1.4309685     -1.1342476      18509.278    
    285000   1.0808069      0.0023323615   0.0023439216   20.817409      19.212411      1.6049983     -1.356201       18514.397    
    286000   1.0801959      0.0023323615   0.0028108004   20.895323      19.291232      1.6040908     -1.2711853      18624.189    
    287000   1.0155375      0.0023323615  -0.0055325162   20.78477       19.276697      1.5080732     -1.2906749      18532.289    
    288000   0.94790041     0.0023323615   0.00019736272  20.760008      19.352376      1.4076321     -1.2844949      18451.199    
    289000   1.0317968      0.0023323615   5.3331774e-05  20.635696      19.103478      1.5322183     -1.4019731      18491.724    
    290000   0.98438021     0.0023323615  -0.0042138689   20.621427      19.159623      1.4618046     -1.3111774      18400.059    
    291000   1.1071106      0.0023323615   0.0013630637   21.162071      19.518011      1.6440592     -0.96792595     18523.832    
    292000   0.90381364     0.0023323615   0.0036206271   20.552057      19.209894      1.3421633     -1.2741886      18501.373    
    293000   0.9116273      0.0023323615   0.00022543874  20.535751      19.181985      1.3537665     -1.3608192      18475.072    
    294000   1.080382       0.0023323615  -0.0014531928   20.744403      19.140036      1.6043673     -1.3431735      18330.371    
    295000   0.90399571     0.0023323615  -0.0038591603   20.589848      19.247414      1.3424336     -1.332932       18463.705    
    296000   0.91297102     0.0023323615  -0.0031625923   20.470265      19.114503      1.355762      -1.2568797      18643.663    
    297000   0.9012365      0.0023323615   0.0020972048   20.645715      19.307378      1.3383362     -1.2056136      18684.387    
    298000   0.95486788     0.0023323615  -0.0038960813   20.68747       19.269491      1.4179788     -1.3434415      18629.764    
    299000   1.0503376      0.0023323615  -0.0015689955   20.633743      19.073992      1.5597514     -1.4935752      18469.886    
    300000   0.92089082     0.0023323615   0.0030279315   20.708693      19.34117       1.3675229     -1.194333       18689.96     
    301000   0.95319929     0.0023323615  -0.00042483291  20.69268       19.277179      1.4155009     -1.3941505      18689.167    
    302000   0.96522895     0.0023323615  -0.003088693    20.672135      19.23877       1.433365      -1.3358739      18710.151    
    303000   1.042815       0.0023323615   0.0049140947   20.999918      19.451338      1.5485802     -1.2824262      18600.165    
    304000   1.0909486      0.0023323615   0.00037544718  20.933925      19.313867      1.6200587     -1.26646        18719.643    
    305000   1.0631804      0.0023323615   0.0012682634   20.767046      19.188223      1.5788228     -1.328397       18561.435    
    306000   0.96108289     0.0023323615   0.00098025261  20.825827      19.398619      1.4272081     -1.0853579      18658.206    
    307000   1.0056017      0.0023323615  -0.0017766141   21.034811      19.541493      1.4933185     -1.0092469      18848.085    
    308000   1.130383       0.0023323615   0.00083720595  21.05526       19.376642      1.6786188     -1.074783       18905.38     
    309000   1.1548727      0.0023323615  -0.0017173541   21.317005      19.602019      1.7149859     -1.0196595      18919.57     
    310000   1.0058398      0.0023323615   0.0014700089   20.856526      19.362854      1.4936721     -1.1523738      18807.945    
    311000   0.95482132     0.0023323615  -0.0027445009   20.990716      19.572806      1.4179097     -0.97720587     18693.059    
    312000   1.0841408      0.0023323615   0.0016106865   20.817774      19.207825      1.6099492     -1.2298113      18764.327    
    313000   0.98110603     0.0023323615   0.0026587662   20.642366      19.185424      1.4569425     -1.3653065      18793.563    
    314000   1.0199151      0.0023323615   0.0014017864   20.650079      19.135505      1.5145739     -1.258603       18529.035    
    315000   1.0068145      0.0023323615   0.0028092105   21.034405      19.539285      1.4951195     -1.0612642      18824.489    
    316000   1.0361458      0.0023323615  -0.002451999    20.971708      19.433032      1.5386765     -1.1532244      18785.757    
    317000   1.0244042      0.0023323615   0.0026853337   20.859965      19.338725      1.5212402     -1.17648        18590.516    
    318000   1.0839921      0.0023323615   0.0031853179   21.107356      19.497627      1.6097283     -1.0912355      18501.654    
    319000   0.98853084     0.0023323615  -0.0040451681   20.892781      19.424812      1.4679683     -1.1017064      18826.662    
    320000   0.95177131     0.0023323615  -0.00099404299  20.957144      19.543764      1.4133804     -1.0789412      18730.452    
    321000   1.0503391      0.0023323615  -0.0015325604   21.102617      19.542864      1.5597536     -1.0491798      18674.082    
    322000   1.0248598      0.0023323615   0.0015698022   20.991834      19.469918      1.5219168     -1.1743358      18577.036    
    323000   1.0230901      0.0023323615  -0.0011732899   20.802127      19.282838      1.5192888     -1.3337671      18639.328    
    324000   0.91955988     0.0023323615  -0.0014884095   20.793106      19.42756       1.3655464     -1.1548504      18629.333    
    325000   0.94804212     0.0023323615   0.00089707774  20.629077      19.221234      1.4078425     -1.2634234      18707.265    
    326000   1.040727       0.0023323615  -0.00077341262  20.94449       19.39901       1.5454796     -1.0870189      18685.318    
    327000   0.96179975     0.0023323615  -0.0004878451   20.890545      19.462273      1.4282726     -1.1085497      18706.406    
    328000   1.1176662      0.0023323615  -0.00040787957  20.893705      19.233971      1.6597342     -1.322727       18620.634    
    329000   0.93081051     0.0023323615   0.00429747     20.79791       19.415657      1.3822536     -1.2137194      18756.922    
    330000   1.2039255      0.0023323615   0.00042972684  20.921908      19.134079      1.7878293     -1.3619584      18666.05     
    331000   1.036802       0.0023323615   0.0025154001   20.860373      19.320722      1.539651      -1.2762525      18588.765    
    332000   1.052283       0.0023323615  -0.00069802915  20.708551      19.145911      1.5626402     -1.3423416      18520.24     
    333000   1.0692849      0.0023323615   0.0041717375   20.917745      19.329857      1.5878881     -1.2123438      18486.131    
    334000   0.93308498     0.0023323615   0.0043954446   20.573696      19.188065      1.3856312     -1.3579607      18513.298    
    335000   1.0361162      0.0023323615  -0.0034610434   20.776756      19.238124      1.5386325     -1.2940446      18641.048    
    336000   0.92284322     0.0023323615  -0.00050095203  20.55499       19.184568      1.3704222     -1.283012       18457.993    
    337000   1.0112675      0.0023323615   0.0054870719   20.846481      19.344749      1.5017322     -1.1147336      18560.865    
    338000   0.90050754     0.0023323615  -2.8828042e-05  20.609103      19.271849      1.3372537     -1.1536485      18612.068    
    339000   0.94759004     0.0023323615  -0.0013320784   20.843029      19.435858      1.4071712     -1.0528629      18802.545    
    340000   1.0953777      0.0023323615  -0.0050506052   20.928642      19.302006      1.6266359     -1.1991386      18798.147    
    341000   1.1466446      0.0023323615  -0.0050223689   21.227819      19.525052      1.7027672     -0.99925024     18947.272    
    342000   1.0711364      0.0023323615   0.004196296    20.942411      19.351773      1.5906376     -1.1602109      18938.277    
    343000   0.94746609     0.0023323615  -0.00086317895  20.909653      19.502666      1.4069871     -1.0773187      18859.51     
    344000   0.99320654     0.0023323615   0.00076099888  21.032138      19.557227      1.4749117     -1.023618       18772.246    
    345000   1.0485127      0.0023323615  -0.00054405671  20.726547      19.169506      1.5570413     -1.2055589      18839.241    
    346000   1.0101474      0.0023323615  -0.0017679479   20.679432      19.179363      1.5000688     -1.2645007      18721.325    
    347000   1.0662479      0.0023323615  -0.00096027309  20.850857      19.267479      1.5833781     -1.1591676      18593.194    
    348000   0.99368607     0.0023323615   7.1841286e-05  20.539234      19.06361       1.4756238     -1.4720323      18578.115    
    349000   1.065408       0.0023323615   0.0021683875   20.784882      19.202751      1.5821308     -1.2700971      18590.738    
    350000   0.85747092     0.0023323615  -0.0027533262   20.846627      19.573283      1.2733443     -1.0036338      18607.325    
    351000   1.0104509      0.0023323615   0.00078414259  20.621475      19.120955      1.5005195     -1.3091839      18583.314    
    352000   1.0476308      0.0023323615   0.0035948592   20.751273      19.195541      1.5557317     -1.399916       18567.505    
    353000   0.93696999     0.0023323615  -0.0028732191   20.590875      19.199475      1.3914004     -1.3435238      18532.114    
    354000   0.96669345     0.0023323615   0.0013349545   20.723233      19.287693      1.4355398     -1.257996       18555.582    
    355000   1.0123277      0.0023323615  -0.0061937186   20.906734      19.403427      1.5033067     -1.133773       18804.299    
    356000   0.93223345     0.0023323615  -0.0010303543   20.860235      19.475869      1.3843667     -1.0607028      18733.399    
    357000   0.88295731     0.0023323615   0.00045154271  20.68025       19.369058      1.3111916     -1.3050615      18738.688    
    358000   0.9657964      0.0023323615   0.0019495879   20.947551      19.513343      1.4342077     -0.99709017     18823.097    
    359000   1.0060207      0.0023323615   0.00072416299  20.711693      19.217752      1.4939408     -1.3156994      18730.15     
    360000   0.97619213     0.0023323615  -0.0023233402   20.719115      19.26947       1.4496453     -1.2103424      18698.469    
    361000   1.0449598      0.0023323615   0.0010136531   20.712087      19.160321      1.5517653     -1.3251312      18681.443    
    362000   1.0741219      0.0023323615  -0.0045073383   20.677938      19.082867      1.595071      -1.5268395      18573.665    
    363000   1.0991627      0.0023323615  -0.0036222378   20.854978      19.222722      1.6322566     -1.3319066      18532.926    
    364000   1.1526684      0.0023323615  -0.0037655548   21.278968      19.567256      1.7117126     -1.1358002      18520.419    
    365000   1.0588949      0.0023323615  -0.0026483625   20.977234      19.404775      1.5724589     -1.2347028      18659.716    
    366000   1.0723808      0.0023323615   0.0036030438   20.899844      19.307359      1.5924854     -1.2327618      18712.337    
    367000   1.0089979      0.0023323615  -0.00041133751  20.69428       19.195919      1.4983618     -1.247271       18476.663    
    368000   0.93764806     0.0023323615  -0.00071259593  20.624471      19.232064      1.3924074     -1.3181621      18575.321    
    369000   0.8805513      0.0023323615  -0.0029067956   20.48925       19.181631      1.3076187     -1.2885213      18704.17     
    370000   0.87202109     0.0023323615   0.00073589668  20.544892      19.249941      1.2949513     -1.2483245      18607.644    
    371000   1.0634992      0.0023323615  -0.00036509637  20.651265      19.071969      1.5792964     -1.4410791      18568.124    
    372000   1.0334585      0.0023323615   0.0028170157   20.921669      19.386983      1.5346859     -1.1101966      18602.224    
    373000   1.1119065      0.0023323615  -0.0025945823   21.25634       19.605159      1.6511812     -0.97277364     18797.708    
    374000   1.022976       0.0023323615  -0.0016902381   20.927606      19.408487      1.5191194     -1.0569966      18577.261    
    375000   0.90177168     0.0023323615   0.00030972781  20.79398       19.454849      1.3391309     -1.1227547      18765.375    
    376000   0.98414702     0.0023323615  -0.0015650237   20.830644      19.369185      1.4614583     -1.2132482      18602.65     
    377000   1.1598332      0.0023323615  -0.0011206849   21.180471      19.458119      1.7223524     -1.0977099      18504.477    
    378000   0.99798216     0.0023323615   0.0020254239   20.950587      19.468583      1.4820035     -1.0370466      18757.123    
    379000   0.9699277      0.0023323615  -0.0031396578   20.733335      19.292992      1.4403426     -1.2608559      18727.353    
    380000   0.94983113     0.0023323615  -0.0016467758   20.786221      19.375722      1.4104992     -1.0607198      18615.074    
    381000   1.0493217      0.0023323615  -0.0001123214   20.965535      19.407293      1.5582427     -1.0967172      18585.452    
    382000   1.1335017      0.0023323615   0.00063943704  21.080656      19.397406      1.68325       -1.1503143      18505.736    
    383000   0.93809587     0.0023323615  -0.0013871089   20.931617      19.538545      1.3930724     -1.0008396      18677.188    
    384000   0.86745842     0.0023323615   0.00030482031  20.472859      19.184683      1.2881758     -1.2357127      18604.942    
    385000   1.0159141      0.0023323615   0.0039677386   20.68436       19.175728      1.5086325     -1.2171595      18491.32     
    386000   0.98245293     0.0023323615  -0.0018795652   20.873228      19.414286      1.4589426     -1.2134561      18459.57     
    387000   0.98546176     0.0023323615   0.004159977    20.75423       19.290819      1.4634107     -1.0799659      18584.829    
    388000   1.1284095      0.0023323615   0.0015460702   20.86866       19.192971      1.6756881     -1.279068       18722.674    
    389000   1.1241602      0.0023323615  -0.0018266727   21.091537      19.422159      1.6693778     -1.1373005      18658.164    
    390000   0.95029689     0.0023323615   0.00036677896  20.835608      19.424417      1.4111909     -1.1509699      18640.438    
    391000   0.8328301      0.0023323615  -0.0011302671   20.81787       19.581117      1.2367527     -0.87705311     19015.872    
    392000   0.9611383      0.0023323615   0.0021819226   20.78665       19.359359      1.4272904     -1.1115481      19151.595    
    393000   0.93666723     0.0023323615  -0.0010305597   20.613332      19.222381      1.3909508     -1.3624334      18546.863    
    394000   0.96438783     0.0023323615   0.0030616318   20.716406      19.28429       1.4321159     -1.1253077      18566.728    
    395000   0.92322944     0.0023323615   0.0023071508   20.662051      19.291055      1.3709957     -1.2038454      18481.243    
    396000   1.0059195      0.0023323615   0.0010381522   20.716425      19.222634      1.4937904     -1.3450205      18525.789    
    397000   0.91203646     0.0023323615  -0.00065362817  20.735354      19.38098       1.3543741     -1.2612789      18537.191    
    398000   1.0672214      0.0023323615   0.00039629216  20.716341      19.131518      1.5848238     -1.3385329      18420.362    
    399000   1.0977927      0.0023323615   0.0016856785   20.847682      19.21746       1.6302222     -1.2688634      18468.816    
    400000   1.132623       0.0023323615  -0.0038393984   21.204914      19.522969      1.6819452     -1.1936684      18598.48     
    401000   1.0307515      0.0023323615   0.001861083    20.96273       19.432064      1.530666      -1.159681       18581.549    
    402000   1.2169747      0.0023323615   0.00031091235  21.182544      19.375336      1.8072075     -1.2093556      18660.111    
    403000   1.0133142      0.0023323615  -0.0012716276   20.728466      19.223694      1.5047716     -1.2733019      18641.765    
    404000   0.96723452     0.0023323615   0.0030641188   21.00059       19.564247      1.4363433     -0.94179571     18676.954    
    405000   0.88255205     0.0023323615  -0.0038838747   20.875383      19.564793      1.3105898     -0.94968561     18744.35     
    406000   1.0398206      0.0023323615   0.0045518228   20.850462      19.306328      1.5441336     -1.1647285      18817.916    
    407000   0.94609895     0.0023323615   7.8762093e-05  20.737057      19.332101      1.4049569     -1.1166466      18626.91     
    408000   0.93083631     0.0023323615  -0.0048840633   20.921077      19.538785      1.3822919     -0.99243505     18706.214    
    409000   1.0510494      0.0023323615   0.004056613    20.870145      19.309337      1.5608083     -1.1729827      18837.943    
    410000   1.1848484      0.0023323615   0.00051948792  21.175491      19.415991      1.7594999     -1.17307        18734.394    
    411000   0.96591663     0.0023323615  -0.0014226486   20.824319      19.389933      1.4343862     -1.1978299      18683.174    
    412000   1.1018101      0.0023323615  -0.0029652319   20.616437      18.980249      1.6361881     -1.54015        18508.344    
    413000   1.0367055      0.0023323615   0.0015891346   20.725805      19.186297      1.5395077     -1.4029118      18582.518    
    414000   0.9519959      0.0023323615   0.0028077834   20.686548      19.272834      1.4137139     -1.2501073      18556.469    
    415000   0.81946725     0.0023323615  -0.00011132254  20.494319      19.27741       1.2169089     -1.2751884      18450.64     
    416000   0.97966033     0.0023323615   0.000325499    20.959525      19.504729      1.4547956     -1.1025877      18622.507    
    417000   0.8741271      0.0023323615   0.0016768629   20.68338       19.385302      1.2980787     -1.1775798      18540.903    
    418000   0.96022479     0.0023323615  -0.0019965092   20.789206      19.363272      1.4259338     -1.2386136      18647.313    
    419000   1.2221762      0.0023323615  -0.00082753794  21.135093      19.320162      1.8149316     -1.201187       18681.838    
    420000   1.0234163      0.0023323615  -0.00087468833  20.930049      19.410276      1.5197732     -1.2597162      18624.789    
    421000   1.0060713      0.0023323615  -4.2442653e-05  20.929008      19.434992      1.4940159     -1.1757038      18541.085    
    422000   0.9374782      0.0023323615   0.0055758512   20.708605      19.31645       1.3921551     -1.1766335      18687.945    
    423000   1.0078348      0.0023323615   0.0019756842   20.735054      19.238419      1.4966347     -1.2617488      18651.64     
    424000   1.0685707      0.0023323615   0.00071624145  21.115578      19.52875       1.5868275     -0.93860762     18635.281    
    425000   0.86182882     0.0023323615   0.0016820256   20.50044       19.220624      1.2798158     -1.3124804      18626.639    
    426000   1.0119702      0.0023323615  -0.0075305659   20.867282      19.364506      1.5027757     -1.2295225      18584.698    
    427000   1.1430891      0.0023323615   0.0054175127   20.723491      19.026004      1.6974873     -1.393519       18564.093    
    428000   1.0766256      0.0023323615   0.00014235744  21.089116      19.490327      1.598789      -1.0919155      18575.926    
    429000   1.0718767      0.0023323615   0.00096151768  20.984676      19.392939      1.5917369     -1.0560357      18694.218    
    430000   0.91111771     0.0023323615  -0.00064762019  20.810732      19.457722      1.3530098     -1.1373426      18714.129    
    431000   0.94311311     0.0023323615   0.00088431813  20.921867      19.521344      1.400523      -1.003976       18617.442    
    432000   1.0512217      0.0023323615  -6.3724974e-05  20.939949      19.378885      1.5610642     -1.1822529      18787.044    
    433000   0.92515897     0.0023323615   0.0016939378   20.62697       19.253109      1.3738611     -1.185163       18568.127    
    434000   0.96057917     0.0023323615   0.0040413811   20.81491       19.38845       1.4264601     -1.1295906      18575.55     
    435000   1.0212877      0.0023323615   0.003351453    20.777479      19.260867      1.5166122     -1.143922       18643.297    
    436000   1.1604806      0.0023323615   0.00088829686  21.249688      19.526374      1.7233137     -1.0967803      18672.947    
    437000   0.94973116     0.0023323615   0.00051691837  20.96809       19.557739      1.4103508     -1.102002       18901.076    
    438000   0.98177253     0.0023323615  -0.0029485044   20.904844      19.446911      1.4579322     -1.1073971      18572.995    
    439000   0.97945738     0.0023323615  -0.0012462682   20.699571      19.245077      1.4544942     -1.170848       18601.354    
    440000   1.0349613      0.0023323615   0.0011757884   21.084188      19.54727       1.5369176     -1.1307131      18646.842    
    441000   0.99291188     0.0023323615   0.006380005    21.139822      19.665348      1.4744741     -0.96528611     18768.9      
    442000   1.0092182      0.0023323615   0.0028188226   21.008656      19.509967      1.4986891     -1.1682295      18728.041    
    443000   1.080186       0.0023323615   0.0017395233   21.064163      19.460087      1.6040762     -1.0175654      18783.47     
    444000   1.0017028      0.0023323615  -0.0044950444   20.918141      19.430612      1.4875286     -1.1495781      18709.418    
    445000   1.0568315      0.0023323615   0.0054140021   20.926419      19.357025      1.5693947     -1.1074321      18725.396    
    446000   1.0846322      0.0023323615  -0.0008836211   20.865937      19.255258      1.6106788     -1.2154341      18488.182    
    447000   1.1893619      0.0023323615   0.0012631456   21.435377      19.669175      1.7662024     -0.77900216     18634.352    
    448000   0.95023093     0.0023323615  -0.00090276101  20.843731      19.432638      1.4110929     -1.2301534      18677.604    
    449000   1.0292638      0.0023323615  -0.0026794637   20.773308      19.244851      1.5284568     -1.2086595      18448.631    
    450000   1.0875571      0.0023323615  -0.0020921527   20.845078      19.230056      1.6150223     -1.3354113      18477.415    
    451000   0.96852513     0.0023323615  -0.0030134039   20.775476      19.337216      1.4382598     -1.1841747      18606.461    
    452000   0.96238988     0.0023323615   0.0012202265   20.641965      19.212816      1.429149      -1.3418498      18619.415    
    453000   1.0124516      0.0023323615  -0.00041636802  20.626645      19.123155      1.5034906     -1.3063537      18644.213    
    454000   0.92863369     0.0023323615   0.0014050727   20.637357      19.258336      1.379021      -1.2526221      18929.144    
    455000   0.90683818     0.0023323615   0.0033233987   20.499316      19.152661      1.3466547     -1.2955608      18803.618    
    456000   1.0673368      0.0023323615  -0.0024036625   20.796831      19.211835      1.5849951     -1.3537901      18846.113    
    457000   0.98704765     0.0023323615  -0.0016576406   20.9765        19.510734      1.4657658     -1.2549627      18486.994    
    458000   0.9569431      0.0023323615   0.0058916219   20.91743       19.49637       1.4210605     -1.0932837      18474.354    
    459000   0.98702655     0.0023323615  -0.0013472939   20.817521      19.351787      1.4657344     -1.2516788      18505.283    
    460000   0.99929398     0.0023323615   0.0014800443   20.970764      19.486813      1.4839516     -1.1218139      18761.995    
    461000   1.0049422      0.0023323615  -0.0018959859   20.555175      19.062836      1.4923391     -1.356806       18504.024    
    462000   0.85260194     0.0023323615  -0.0019570918   20.508748      19.242634      1.2661139     -1.2111635      18408.726    
    463000   1.057358       0.0023323615   0.0016109782   20.643024      19.072847      1.5701766     -1.2424944      18633.006    
    464000   0.89123868     0.0023323615  -0.00087343009  20.651484      19.327995      1.3234894     -1.2034453      18764.842    
    465000   0.98519514     0.0023323615   0.0035940168   20.653485      19.19047       1.4630148     -1.2635341      18531.336    
    466000   1.0505844      0.0023323615  -0.0010642464   20.536317      18.976199      1.5601178     -1.589093       18405        
    467000   1.0776238      0.0023323615   7.6011893e-05  20.89722       19.296948      1.6002713     -1.1844528      18540.789    
    468000   1.0188798      0.0023323615   0.0032190742   20.951734      19.438697      1.5130365     -1.0212893      19233.901    
    469000   1.0867644      0.0023323615   0.00056803761  21.104038      19.490193      1.6138452     -0.99163148     19650.266    
    470000   0.92329908     0.0023323615  -0.0019150164   20.763603      19.392503      1.3710991     -1.2058078      19171.702    
    471000   0.90669422     0.0023323615  -0.00058878236  20.862306      19.515865      1.3464409     -1.0125277      18780.296    
    472000   0.96227611     0.0023323615  -0.0047902343   20.789545      19.360565      1.42898       -1.1833218      18726.938    
    473000   1.0579625      0.0023323615  -0.00093127512  20.968651      19.397577      1.5710744     -1.1683643      18745.125    
    474000   0.93748806     0.0023323615  -0.0028273529   20.450955      19.058785      1.3921698     -1.3845455      18928.4      
    475000   1.126803       0.0023323615   0.00026831241  21.172406      19.499103      1.6733025     -1.0248837      18766.98     
    476000   1.0755693      0.0023323615  -0.00023577478  20.728452      19.131231      1.5972204     -1.3763357      18555.99     
    477000   0.93499519     0.0023323615  -0.00065366218  20.34975       18.961282      1.3884679     -1.5014159      18454.27     
    478000   1.0000473      0.0023323615  -0.0011519854   20.950601      19.465531      1.4850703     -1.1490782      18491.806    
    479000   1.0342583      0.0023323615   0.00045483589  20.688174      19.152301      1.5358736     -1.3213431      18568.842    
    480000   1.101515       0.0023323615  -0.001902248    21.135895      19.500145      1.6357498     -1.0580941      18522.196    
    481000   1.0932057      0.0023323615  -0.00047941037  20.766201      19.14279       1.6234104     -1.2595494      18675.98     
    482000   0.93641472     0.0023323615  -0.0027144523   20.692194      19.301618      1.3905759     -1.2193747      18622.013    
    483000   1.0297545      0.0023323615  -0.0029174459   20.848243      19.319058      1.5291854     -1.2654847      18421.933    
    484000   0.89741475     0.0023323615  -0.0029170286   20.476736      19.144075      1.3326609     -1.272071       18515.403    
    485000   1.0989128      0.0023323615  -0.0010622442   20.995901      19.364015      1.6318855     -1.1689579      18722.312    
    486000   1.0269842      0.0023323615  -0.00017656787  20.913426      19.388354      1.5250716     -1.1724559      18534.808    
    487000   0.89111631     0.0023323615  -0.0011526883   20.547918      19.22461       1.3233077     -1.3192867      18591.008    
    488000   1.0454788      0.0023323615   0.0029555716   20.758961      19.206424      1.5525361     -1.2332008      18538.182    
    489000   1.0769214      0.0023323615   0.0030336586   20.859153      19.259925      1.5992283     -1.2182921      18456.761    
    490000   0.98607622     0.0023323615  -0.00179779     21.037342      19.573019      1.4643232     -0.97205763     18542.036    
    491000   1.1997675      0.0023323615   0.0033448774   21.24933       19.467675      1.7816547     -1.087235       18791.921    
    492000   1.0250227      0.0023323615   0.001718465    20.873657      19.351499      1.5221587     -1.1792798      18525.761    
    493000   0.98913923     0.0023323615   0.0020253137   21.023135      19.554263      1.4688718     -1.1099152      18564.763    
    494000   0.99087783     0.0023323615  -0.0026706992   20.96835       19.496897      1.4714536     -1.1191172      18524.269    
    495000   0.98429016     0.0023323615  -0.00041434355  20.86452       19.40285       1.4616709     -1.12185        18614.657    
    496000   1.0636811      0.0023323615   0.0016944804   21.097061      19.517495      1.5795664     -1.0231819      18666.029    
    497000   0.87682934     0.0023323615   0.0019676152   20.599881      19.29779       1.3020916     -1.2354309      18807.544    
    498000   1.0547892      0.0023323615   0.0011924356   20.874549      19.308187      1.566362      -1.2446433      18779.985    
    499000   1.042181       0.0023323615  -0.0007101857   20.763049      19.21541       1.5476387     -1.2691208      18685.678    
    500000   1.0226565      0.0023323615   0.00080252913  20.745668      19.227023      1.5186449     -1.2803805      18680.401    
    501000   0.8765682      0.0023323615  -0.00061012307  20.60163       19.299926      1.3017038     -1.1983342      18601.652    
    502000   0.92237896     0.0023323615   0.00039696822  20.83227       19.462537      1.3697328     -1.1212866      18587.961    
    503000   0.92778928     0.0023323615  -0.00031657539  20.705728      19.327961      1.3777671     -1.1685739      18585.514    
    504000   1.1107915      0.0023323615  -0.00223554     20.885159      19.235634      1.6495253     -1.2163852      18601.347    
    505000   0.98892093     0.0023323615   1.7194156e-05  20.893697      19.425149      1.4685476     -1.1503963      18578.305    
    506000   1.0701859      0.0023323615   0.0030649918   20.81176       19.222534      1.5892261     -1.2796135      18552.489    
    507000   1.0224741      0.0023323615   0.0025609839   20.723235      19.204861      1.5183741     -1.2853857      18568.846    
    508000   1.0640636      0.0023323615   0.0059813343   21.055866      19.475731      1.5801344     -1.0553907      18666.964    
    509000   0.94289205     0.0023323615   0.0020889108   20.471216      19.071021      1.4001947     -1.4861519      18516.99     
    510000   0.94882734     0.0023323615  -0.0017400685   20.561012      19.152004      1.4090086     -1.3156774      18554.493    
    511000   0.99535677     0.0023323615   0.0016341183   20.723177      19.245072      1.4781048     -1.1772815      18527.518    
    512000   0.85841124     0.0023323615   0.0010625697   20.590966      19.316225      1.2747407     -1.1739524      18458.491    
    513000   1.0947521      0.0023323615   0.0035256392   20.956144      19.330438      1.6257068     -1.2527106      18513.051    
    514000   0.97766786     0.0023323615   0.0027296587   20.965275      19.513438      1.4518368     -1.1228331      18567.439    
    515000   1.0404104      0.0023323615  -0.0015905187   20.87356       19.32855       1.5450095     -1.2204941      18609.663    
    516000   0.93884582     0.0023323615  -0.0015696113   20.979204      19.585018      1.394186      -1.0158466      18606.645    
    517000   1.07519        0.0023323615  -0.0014999061   21.046959      19.450301      1.5966572     -1.0489166      18711.705    
    518000   0.96738678     0.0023323615  -0.0023605177   20.491457      19.054887      1.4365694     -1.3612488      18605.008    
    519000   1.0631061      0.0023323615   0.0033925609   20.943495      19.364782      1.5787125     -1.1852453      18574.371    
    520000   1.083396       0.0023323615  -0.0013976632   20.896303      19.28746       1.6088431     -1.256809       18761.72     
    521000   1.1119279      0.0023323615  -0.0016464354   21.028377      19.377164      1.6512129     -1.1702449      18574.944    
    522000   1.1217168      0.0023323615   0.0019037627   20.864154      19.198404      1.6657495     -1.2573383      18637.358    
    523000   1.0668179      0.0023323615  -0.003986647    20.93699       19.352765      1.5842246     -1.2233691      18545.071    
    524000   1.1859018      0.0023323615   0.00051980909  20.909159      19.148095      1.7610642     -1.4507767      18467.47     
    525000   0.94536551     0.0023323615   0.001249649    20.836616      19.432748      1.4038678     -0.99662458     18456.034    
    526000   0.95592348     0.0023323615  -0.0011834301   20.773507      19.353961      1.4195464     -1.2028323      18564.166    
    527000   0.97263435     0.0023323615  -0.0030505874   20.971748      19.527386      1.444362      -0.99903434     18540.479    
    528000   1.0016374      0.0023323615   0.0012382522   20.56354       19.076109      1.4874316     -1.3766516      18544.74     
    529000   0.89569903     0.0023323615   0.0023544216   20.834513      19.5044        1.3301131     -0.97682319     18552.841    
    530000   0.95273175     0.0023323615   0.0010601663   20.627664      19.212857      1.4148066     -1.3109725      18614.797    
    531000   0.93774455     0.0023323615  -0.00080307074  20.62915       19.236599      1.3925507     -1.1585686      18577.15     
    532000   0.94805271     0.0023323615  -0.0044307022   20.809133      19.401275      1.4078583     -1.1152039      18684.611    
    533000   0.89338069     0.0023323615   0.0015833582   20.736595      19.409925      1.3266703     -1.1126479      18797.673    
    534000   0.87347563     0.0023323615  -0.0042928546   20.773811      19.4767        1.2971113     -1.0793072      18748.346    
    535000   0.98316483     0.0023323615   0.0018522123   20.927594      19.467594      1.4599998     -1.072839       18666.587    
    536000   0.95047775     0.0023323615   2.3505224e-05  20.758088      19.346628      1.4114595     -1.1438696      18522.519    
    537000   1.0629317      0.0023323615  -0.0019847335   21.04967       19.471217      1.5784535     -0.98181234     18554.72     
    538000   0.99692769     0.0023323615   0.0013930601   20.931756      19.451319      1.4804376     -1.1952676      18532.017    
    539000   0.93280681     0.0023323615   0.00032931618  20.805746      19.420528      1.3852181     -1.0169106      18668.518    
    540000   0.9651657      0.0023323615   0.0011852392   20.791229      19.357958      1.4332711     -1.1208933      18605.147    
    541000   0.88842126     0.0023323615  -0.00022146247  20.775912      19.456606      1.3193056     -0.98545256     18825.273    
    542000   1.0052694      0.0023323615  -0.0009116085   20.884762      19.391937      1.4928251     -0.98312014     18894.242    
    543000   0.90503202     0.0023323615   0.0008377302   20.776249      19.432276      1.3439725     -1.270653       18727.065    
    544000   0.98655398     0.0023323615  -0.00043255115  20.751301      19.286268      1.4650327     -1.3038303      18711.147    
    545000   0.9738128      0.0023323615  -0.0026076266   20.873378      19.427266      1.446112      -1.2987122      18585.362    
    546000   0.97079556     0.0023323615  -0.00046517055  21.111487      19.669856      1.4416314     -0.93695483     18568.462    
    547000   0.9973228      0.0023323615  -0.00048497163  20.860083      19.379058      1.4810244     -1.1154477      18660.777    
    548000   1.0462584      0.0023323615  -0.00098391594  21.061962      19.508268      1.5536937     -1.101757       18697.393    
    549000   0.95534168     0.0023323615   0.0025149469   20.751445      19.332763      1.4186824     -1.1847457      18613.155    
    550000   1.0363782      0.0023323615  -0.0014164679   20.925677      19.386655      1.5390217     -1.1417742      18634.223    
    551000   0.88936401     0.0023323615   0.00083352152  20.916229      19.595524      1.3207056     -0.93914849     18671.972    
    552000   1.0258353      0.0023323615  -0.0026913944   21.052581      19.529215      1.5233653     -0.95395133     18831.109    
    553000   0.82470786     0.0023323615  -0.0061496911   20.72274       19.498048      1.2246912     -1.1049851      18817.238    
    554000   1.0167607      0.0023323615  -8.9260249e-05  20.819534      19.309644      1.5098897     -1.2069415      18817.377    
    555000   0.9431009      0.0023323615  -0.00043013041  20.55273       19.152225      1.4005048     -1.3160624      18758.391    
    556000   0.96095435     0.0023323615  -0.00088108696  20.74882       19.321802      1.4270172     -1.2617559      18745.994    
    557000   1.0244488      0.0023323615   0.0049351048   20.794297      19.27299       1.5213064     -1.2383074      18642.085    
    558000   0.93367744     0.0023323615  -0.00083027757  20.48305       19.096539      1.386511      -1.2919627      18655.165    
    559000   0.96768842     0.0023323615  -0.0034436242   20.880799      19.443782      1.4370173     -1.1337174      18714.835    
    560000   0.96752227     0.0023323615   0.0012688975   20.642298      19.205528      1.4367706     -1.2813045      18714.733    
    561000   0.92511988     0.0023323615  -0.0039938776   20.862934      19.489131      1.373803      -1.2007854      18722.705    
    562000   1.1160246      0.0023323615   0.0014457402   21.01351       19.356214      1.6572966     -1.196862       18747.117    
    563000   0.98724508     0.0023323615  -0.0018160932   20.608608      19.142549      1.4660589     -1.2394618      18724.184    
    564000   0.97245075     0.0023323615   0.0012614648   20.64391       19.199821      1.4440894     -1.3356591      18727.536    
    565000   0.89382771     0.0023323615   0.0023245102   20.519236      19.191901      1.3273342     -1.2163784      18801.596    
    566000   1.0337248      0.0023323615   0.0028808119   20.756563      19.221481      1.5350813     -1.302804       18680.236    
    567000   0.88672614     0.0023323615   0.00020416515  20.479535      19.162747      1.3167883     -1.3982113      18548.831    
    568000   1.104049       0.0023323615  -0.0005488509   21.058606      19.419093      1.6395128     -1.2708187      18625.391    
    569000   0.98071624     0.0023323615  -0.0024208922   20.789205      19.332842      1.4563636     -1.1993508      18601.122    
    570000   1.0184117      0.0023323615  -0.00092794444  21.040737      19.528395      1.5123414     -0.97371169     18597.26     
    571000   1.0532247      0.0023323615   5.7647796e-06  21.006523      19.442484      1.5640387     -1.1421214      18738.509    
    572000   1.1560757      0.0023323615  -0.0013167946   20.973544      19.256771      1.7167725     -1.1518696      18624.227    
    573000   0.93327596     0.0023323615   0.00026571636  20.785055      19.39914       1.3859148     -1.1037367      18650.174    
    574000   1.0193486      0.0023323615   0.0029286077   20.828088      19.314355      1.5137326     -1.1220795      18949.976    
    575000   1.0592799      0.0023323615   0.0017955185   21.327911      19.754881      1.5730306     -0.91422772     19670.14     
    576000   1.041502       0.0023323615  -0.0021812809   21.092736      19.546105      1.5466304     -0.97787234     20332.23     
    577000   1.117718       0.0023323615   0.0038018031   21.130531      19.47072       1.6598113     -1.0019202      20296.715    
    578000   1.0624343      0.0023323615  -0.0034720515   20.967186      19.389471      1.5777149     -1.1831019      20042.205    
    579000   1.0490121      0.0023323615   0.00241934     21.107929      19.550146      1.557783      -0.90266041     19114.896    
    580000   1.0252566      0.0023323615   0.00045620609  21.118465      19.595959      1.522506      -1.0917045      19022.917    
    581000   1.1156996      0.0023323615   0.00042555931  20.823255      19.166441      1.6568139     -1.24243        18819.285    
    582000   0.93168036     0.0023323615   0.0011624523   20.957416      19.573871      1.3835453     -0.87809722     18959.904    
    583000   0.98643514     0.0023323615  -0.0041794238   21.214589      19.749733      1.4648562     -0.73396432     19312.989    
    584000   0.85099884     0.0023323615  -0.00025849628  20.491086      19.227352      1.2637333     -1.2653013      18735.547    
    585000   0.88843483     0.0023323615   0.0031686129   20.615683      19.296358      1.3193257     -1.1882787      18641.872    
    586000   0.85887452     0.0023323615   0.00076758473  20.55773       19.282301      1.2754287     -1.1797812      18554.093    
    587000   0.90493202     0.0023323615  -0.0026835176   20.724638      19.380814      1.343824      -1.1199815      18669.136    
    588000   0.89675527     0.0023323615  -0.0015586422   20.486306      19.154624      1.3316816     -1.2264055      18479.841    
    589000   0.89007313     0.0023323615   0.0016792836   20.354376      19.032617      1.3217586     -1.3487285      18535.71     
    590000   0.90600694     0.0023323615  -0.0016558771   20.390047      19.044627      1.3454203     -1.4287701      18613.863    
    591000   1.0664814      0.0023323615  -0.0025131568   20.661669      19.077944      1.5837249     -1.3719288      18647.759    
    592000   1.1044343      0.0023323615  -0.00052100538  20.795381      19.155296      1.6400849     -1.3441901      18622.548    
    593000   1.0798614      0.0023323615   0.00089847244  20.798286      19.194691      1.6035942     -1.3233627      18603.798    
    594000   1.026844       0.0023323615   0.0023035112   20.738329      19.213465      1.5248634     -1.2754141      18589.904    
    595000   0.98556886     0.0023323615   0.00024703634  20.876994      19.413424      1.4635698     -1.0950519      18665.599    
    596000   1.065295       0.0023323615  -0.0043990458   20.868156      19.286193      1.5819631     -1.1912202      18657.33     
    597000   1.04494        0.0023323615  -0.0010291137   20.942776      19.39104       1.5517359     -1.1221502      18691.249    
    598000   1.0572932      0.0023323615   0.00045776261  21.260782      19.690702      1.5700804     -0.94392309     18801.922    
    599000   1.1416385      0.0023323615  -0.0017927663   21.453603      19.75827       1.6953331     -1.1335007      19061.046    
    600000   1.1108713      0.0023323615  -0.0005462434   21.057258      19.407614      1.6496438     -1.1708996      18723.113    
    601000   0.97899716     0.0023323615   0.0028829937   20.971086      19.517275      1.4538108     -1.1016691      18960.924    
    602000   1.100601       0.0023323615  -0.0038134441   21.214903      19.580511      1.6343925     -0.90529759     19216.66     
    603000   1.0012645      0.0023323615  -0.003301557    20.755123      19.268246      1.4868778     -1.3148475      18847.01     
    604000   0.97026873     0.0023323615   0.0011448977   20.827477      19.386628      1.4408491     -1.0652492      18582.556    
    605000   0.95146864     0.0023323615  -0.00045843066  20.490587      19.077656      1.4129309     -1.363115       18570.189    
    606000   0.9990501      0.0023323615   0.00079810615  20.695126      19.211536      1.4835894     -1.1975717      18561.542    
    607000   0.99572095     0.0023323615  -0.0048002604   20.953799      19.475154      1.4786456     -1.0980848      18648.368    
    608000   1.038058       0.0023323615  -0.00077786494  21.110074      19.568558      1.5415161     -1.0465201      18701.5      
    609000   0.93997925     0.0023323615   0.00014066418  20.689205      19.293335      1.3958692     -1.1883501      18678.565    
    610000   1.0779231      0.0023323615   0.0012445989   21.055314      19.454598      1.6007158     -1.1294821      18622.792    
    611000   0.81970048     0.0023323615   0.00014271428  20.650756      19.433501      1.2172552     -1.025256       18813.883    
    612000   1.0190838      0.0023323615   0.0025122726   21.03999       19.526651      1.5133395     -1.0671619      19235.254    
    613000   1.0481521      0.0023323615  -0.00096583999  21.128599      19.572094      1.5565059     -1.0161652      19141.044    
    614000   1.1798518      0.0023323615  -0.0028017933   21.154916      19.402836      1.7520799     -1.144055       19137.366    
    615000   1.1050089      0.0023323615  -0.00093953334  21.28321       19.642271      1.6409382     -1.0531429      18854.761    
    616000   1.0433876      0.0023323615   0.0029670054   21.053674      19.504243      1.5494305     -1.1303549      18579.471    
    617000   0.98477176     0.0023323615  -0.00045185096  20.678411      19.216025      1.4623861     -1.3052256      18599.631    
    618000   0.98069319     0.0023323615   0.0044104303   20.727346      19.271016      1.4563294     -1.1835969      18620.926    
    619000   0.83051714     0.0023323615   0.0029965542   20.297851      19.064533      1.2333179     -1.2954726      18612.228    
    620000   1.0775279      0.0023323615  -0.0035426265   21.027216      19.427087      1.6001289     -1.1403952      18675.347    
    621000   1.0657869      0.0023323615   0.00098887097  20.834174      19.25148       1.5826936     -1.3360623      18662.975    
    622000   0.87505174     0.0023323615  -0.0044177396   20.490848      19.191396      1.2994518     -1.1524105      18553.185    
    623000   0.95982582     0.0023323615  -0.00068945818  20.613938      19.188596      1.4253413     -1.3408123      18515.331    
    624000   0.99176768     0.0023323615   0.00043379243  20.550373      19.077598      1.472775      -1.3764219      18572.511    
    625000   0.95488528     0.0023323615   0.0060510731   20.636726      19.218721      1.4180046     -1.2460819      18511.125    
    626000   0.96012467     0.0023323615  -0.00020793884  20.65905       19.233265      1.4257851     -1.2651378      18633.778    
    627000   1.0839635      0.0023323615  -0.00086250635  20.707671      19.097985      1.6096858     -1.326355       18487.59     
    628000   0.96935509     0.0023323615   0.0025250427   20.796103      19.35661       1.4394923     -1.1824729      18677.192    
    629000   1.0697229      0.0023323615   0.0021939972   20.865309      19.27677       1.5885386     -1.3641619      18554.644    
    630000   0.99555844     0.0023323615   0.0012115961   20.839596      19.361192      1.4784043     -1.1187124      18689.303    
    631000   0.85500839     0.0023323615  -0.0011805971   20.424403      19.154715      1.2696875     -1.3310413      18636.526    
    632000   0.97203433     0.0023323615   9.528827e-06   20.775966      19.332495      1.443471      -1.1929711      18803.877    
    633000   0.86092691     0.0023323615  -0.00066403788  20.793165      19.514688      1.2784765     -0.99853433     18867.616    
    634000   1.0345367      0.0023323615  -0.0012858682   21.278448      19.742161      1.5362869     -1.0368079      18868.544    
    635000   1.0201461      0.0023323615  -0.0057689136   21.091393      19.576476      1.514917      -0.91113859     18865.502    
    636000   1.0043819      0.0023323615  -0.0029475929   20.772255      19.280748      1.4915071     -1.1950137      18672.3      
    637000   0.84356896     0.0023323615  -0.0037756723   20.540435      19.287735      1.2526999     -1.177197       18764.581    
    638000   0.97080725     0.0023323615   0.0013278753   20.942895      19.501246      1.4416488     -0.98681125     18687.536    
    639000   0.94399278     0.0023323615  -0.0011028823   20.77224       19.370411      1.4018293     -1.200239       18700.704    
    640000   0.92839975     0.0023323615  -0.0016611344   20.626131      19.247457      1.3786736     -1.124655       18693.363    
    641000   1.0056468      0.0023323615   0.00044283511  21.20646       19.713075      1.4933855     -0.86505066     18683.149    
    642000   0.96876258     0.0023323615  -0.0021673261   20.838254      19.399642      1.4386124     -1.2170193      18654.133    
    643000   1.0981424      0.0023323615   0.0022875433   20.757856      19.127115      1.6307415     -1.3988734      18664.643    
    644000   0.8848184      0.0023323615   0.0052672897   20.610239      19.296284      1.3139553     -1.2563074      18479.984    
    645000   0.89964247     0.0023323615  -0.0046553815   20.816363      19.480394      1.3359691     -1.1114342      18657.369    
    646000   0.95103778     0.0023323615  -0.0020800837   20.760301      19.34801       1.4122911     -1.164708       18585.234    
    647000   1.0185215      0.0023323615   0.0028881329   20.68321       19.170705      1.5125044     -1.3510884      18513.768    
    648000   1.052166       0.0023323615   0.0017742827   20.706454      19.143988      1.5624665     -1.2527203      18522.622    
    649000   1.0270751      0.0023323615  -0.001671478    20.924246      19.399039      1.5252066     -1.0020034      18569.605    
    650000   1.0582853      0.0023323615   0.00068690586  20.927818      19.356264      1.5715537     -1.1538769      18729.858    
    651000   1.02089        0.0023323615   0.0017701011   20.856443      19.340422      1.5160217     -1.2919358      18524.575    
    652000   0.93861734     0.0023323615   0.0014683769   20.635643      19.241797      1.3938468     -1.3308632      18448.73     
    653000   0.92261989     0.0023323615  -0.00080588659  20.819567      19.449476      1.3700905     -1.1267686      18492.138    
    654000   1.0841087      0.0023323615  -0.0019758228   21.122762      19.512861      1.6099014     -1.0532378      18756.227    
    655000   1.116009       0.0023323615  -0.00069719089  21.449426      19.792153      1.6572733     -0.95457717     19346.092    
    656000   0.90892027     0.0023323615  -0.0019290387   20.834248      19.484501      1.3497466     -0.95958913     19055.864    
    657000   0.90652152     0.0023323615  -0.0011545467   20.699424      19.35324       1.3461845     -0.99294824     20223.293    
    658000   0.94283924     0.0023323615   0.0004505097   20.821461      19.421345      1.4001163     -1.202412       19943.395    
    659000   1.0356719      0.0023323615  -0.0028252909   21.029206      19.491233      1.5379728     -1.1901976      20207.983    
    660000   1.0604669      0.0023323615   0.0036982507   20.956167      19.381374      1.5747933     -1.1055916      20210.758    
    661000   1.0237981      0.0023323615   0.00074511364  20.94035       19.42001       1.5203402     -1.0632989      20713.954    
    662000   1.1034849      0.0023323615  -0.0034347948   21.111832      19.473157      1.6386751     -1.0683115      20509.607    
    663000   1.1175054      0.0023323615   0.0056067869   20.994244      19.334748      1.6594955     -1.1476885      20206.936    
    664000   0.92169855     0.0023323615  -0.00050227511  20.674716      19.305994      1.3687223     -1.23177        20087.538    
    665000   1.0390674      0.0023323615   0.0027948375   20.831558      19.288543      1.543015      -1.1929184      20401.826    
    666000   0.97627716     0.0023323615  -0.0093697078   21.164557      19.714785      1.4497716     -0.93452667     20405.308    
    667000   1.0654773      0.0023323615  -0.0039831315   21.302011      19.719777      1.5822338     -0.84451146     21320.566    
    668000   0.90815247     0.0023323615   0.00098913393  21.021632      19.673026      1.3486064     -0.78229364     22059.109    
    669000   0.99275782     0.0023323615   0.0026879499   20.990895      19.516649      1.4742454     -1.0718004      21339.022    
    670000   0.99003242     0.0023323615  -0.0019002348   20.932482      19.462284      1.4701981     -0.93647735     21198.137    
    671000   0.94174344     0.0023323615   0.0022159474   20.854738      19.456249      1.398489      -1.0820133      20842.514    
    672000   0.83658689     0.0023323615  -0.0018526652   20.765736      19.523405      1.2423315     -1.0067839      20341.612    
    673000   0.8821958      0.0023323615  -0.00082674848  20.782106      19.472045      1.3100608     -1.1241979      20118.078    
    674000   0.96550128     0.0023323615  -0.0043828474   20.767216      19.333447      1.4337694     -1.150933       20414.244    
    675000   0.98583256     0.0023323615  -0.00192474     20.97182       19.507859      1.4639614     -1.0230784      20314.792    
    676000   1.0216946      0.0023323615   0.00019581541  20.818881      19.301664      1.5172164     -1.2756791      20273.113    
    677000   0.92237575     0.0023323615   0.0022423283   20.76878       19.399052      1.369728      -1.0918939      19994.813    
    678000   1.0395662      0.0023323615  -0.0018384241   21.064909      19.521153      1.5437558     -1.017699       20011.714    
    679000   0.96954482     0.0023323615  -0.0032099192   20.762131      19.322357      1.4397741     -1.2190796      20134.234    
    680000   0.89740003     0.0023323615   0.0028877454   20.717171      19.384532      1.332639      -0.9950052      20157.558    
    681000   0.99581206     0.0023323615  -0.0009110117   20.777799      19.299019      1.4787809     -1.2874946      20280.062    
    682000   0.90227214     0.0023323615   0.002438122    20.815751      19.475877      1.3398741     -1.0338065      20219.888    
    683000   0.91049593     0.0023323615   0.0014934428   20.968287      19.6162        1.3520865     -1.0478031      20357.651    
    684000   0.91705563     0.0023323615  -0.0013163357   21.065172      19.703345      1.3618276     -0.86870604     20471.001    
    685000   0.90592195     0.0023323615   0.0034848522   21.074828      19.729534      1.3452941     -0.88164841     20502.193    
    686000   1.1161706      0.0023323615   0.0045594106   21.060854      19.403341      1.6575134     -1.1295368      20387.907    
    687000   1.2784247      0.0023323615   0.001926074    21.197144      19.298684      1.8984606     -1.2179192      20296.872    
    688000   1.0215854      0.0023323615  -0.00048828163  20.869644      19.35259       1.5170543     -1.1854518      20104.276    
    689000   0.99211857     0.0023323615   0.0024715929   20.97163       19.498334      1.4732961     -1.0412347      20190.153    
    690000   1.1334204      0.0023323615   0.0028667054   21.039905      19.356775      1.6831294     -1.1224174      20279.103    
    691000   1.0729878      0.0023323615  -0.001673537    20.966593      19.373206      1.5933869     -1.0892896      20194.43     
    692000   1.0164912      0.0023323615   0.0011026512   20.959635      19.450145      1.5094895     -1.0820423      20225.845    
    693000   0.87850932     0.0023323615  -0.0032515737   20.632476      19.32789       1.3045863     -1.1575906      20108.525    
    694000   0.95471816     0.0023323615   0.0033018048   20.492234      19.074477      1.4177565     -1.4091129      20153.158    
    695000   0.99241861     0.0023323615   0.0028525807   20.929386      19.455644      1.4737416     -1.0078131      20106.338    
    696000   0.99993904     0.0023323615  -0.0019761096   20.955109      19.4702        1.4849095     -1.0077915      20434.84     
    697000   0.94826192     0.0023323615  -0.0008567216   20.763375      19.355206      1.4081689     -1.1772149      20344.473    
    698000   0.86983708     0.0023323615   0.00049029448  20.909165      19.617457      1.2917081     -1.0333196      20509.249    
    699000   0.97298851     0.0023323615  -0.00044723433  20.626273      19.181385      1.4448879     -1.357567       20375.97     
    700000   0.95751158     0.0023323615  -0.0048373093   20.971599      19.549694      1.4219047     -0.99087684     20183.192    
    701000   1.0137924      0.0023323615   0.0055824622   20.947393      19.441911      1.5054818     -1.0561341      20374.752    
    702000   1.083382       0.0023323615   0.00092221993  20.96032       19.351497      1.6088223     -1.1404313      20227.784    
    703000   1.0326142      0.0023323615  -0.0005244905   21.139599      19.606167      1.5334321     -0.86691975     20268.63     
    704000   0.94479188     0.0023323615   0.0032023017   20.602185      19.19917       1.4030159     -1.239102       20151.221    
    705000   1.0234533      0.0023323615  -0.0018114765   20.859151      19.339323      1.5198282     -1.1749771      20146.958    
    706000   1.0074024      0.0023323615   0.0020782649   20.81157       19.315577      1.4959925     -1.1526169      20019.589    
    707000   0.89814524     0.0023323615  -0.0013259813   20.630605      19.29686       1.3337457     -1.2896059      19980.255    
    708000   0.9937616      0.0023323615  -0.00029129339  20.719212      19.243476      1.475736      -1.2978681      20104.912    
    709000   0.90297295     0.0023323615   0.00029466959  20.540974      19.200059      1.3409148     -1.2737263      20077.804    
    710000   1.2706028      0.0023323615   0.0020271327   21.159815      19.27297       1.8868451     -1.3791832      20117.198    
    711000   0.7951884      0.0023323615  -0.0012279862   20.384866      19.204011      1.1808548     -1.2967729      20158.477    
    712000   1.016574       0.0023323615  -0.0021618632   20.677873      19.16826       1.5096124     -1.288          20134.246    
    713000   1.0556984      0.0023323615   0.0025251321   20.982607      19.414895      1.5677121     -1.1893802      20140.556    
    714000   0.95556352     0.0023323615   0.0012312683   20.892152      19.47314       1.4190118     -1.0900255      20069.16     
    715000   1.0093911      0.0023323615  -0.00040889001  20.866395      19.367449      1.4989457     -1.109685       19963.747    
    716000   1.0220994      0.0023323615   0.0047081665   20.942108      19.424291      1.5178176     -1.1038927      20263.404    
    717000   1.0477473      0.0023323615   0.0026205378   20.957568      19.401664      1.5559047     -1.0495141      20220.871    
    718000   1.0232625      0.0023323615   0.0024113764   20.742094      19.22255       1.5195448     -1.2348643      20298.411    
    719000   1.0111811      0.0023323615  -0.00034387538  21.040402      19.538798      1.5016039     -0.89979376     20279.008    
    720000   0.98732694     0.0023323615   0.00020545808  20.964204      19.498024      1.4661805     -1.0815045      20378.683    
    721000   1.0561009      0.0023323615  -0.0020641919   20.876735      19.308425      1.5683098     -1.0914286      20304.328    
    722000   1.0515373      0.0023323615   3.4805441e-06  20.869429      19.307896      1.5615329     -1.2298566      20259.008    
    723000   0.97878658     0.0023323615  -0.0040069386   20.983561      19.530063      1.4534981     -1.0446275      20010.787    
    724000   0.88005653     0.0023323615  -0.00034074052  20.550024      19.24314       1.3068839     -1.1129852      20219.585    
    725000   0.93628616     0.0023323615  -0.0017955828   20.945663      19.555278      1.3903849     -0.92234752     20106.881    
    726000   0.88972248     0.0023323615  -0.0043643163   20.707395      19.386157      1.3212379     -1.0599285      20200.205    
    727000   0.96868915     0.0023323615   0.00029916889  20.753605      19.315101      1.4385034     -1.1695098      20190.092    
    728000   0.97233997     0.0023323615  -0.0027955038   20.896335      19.45241       1.4439249     -1.0838718      20171.437    
    729000   1.0163753      0.0023323615   0.0026608251   20.785845      19.276528      1.5093173     -1.1618974      20225.85     
    730000   0.98446383     0.0023323615   0.0019432163   20.916263      19.454334      1.4619288     -1.0086874      20381.388    
    731000   0.97183946     0.0023323615  -0.0007183712   20.794738      19.351557      1.4431816     -1.1537524      20153.845    
    732000   0.92356448     0.0023323615  -0.0032645143   20.877561      19.506068      1.3714932     -0.94995731     20211.662    
    733000   1.0493222      0.0023323615   0.0021184826   20.595582      19.037338      1.5582435     -1.4355215      20051.115    
    734000   1.2971905      0.0023323615   0.00057343513  20.998403      19.072075      1.9263279     -1.4334563      19997.857    
    735000   0.94829412     0.0023323615  -0.0049921529   20.495723      19.087506      1.4082168     -1.488621       19927.17     
    736000   0.94454717     0.0023323615   0.0013165724   20.83597       19.433317      1.4026526     -0.99363519     20215.883    
    737000   1.0423257      0.0023323615   0.0020061418   20.967237      19.419384      1.5478537     -1.1781014      20126.95     
    738000   0.96937839     0.0023323615   0.0017405717   20.598064      19.158537      1.4395269     -1.3631118      20036.87     
    739000   1.116599       0.0023323615   0.0042888325   21.180725      19.522576      1.6581496     -0.99992688     20148.28     
    740000   1.0044088      0.0023323615   0.00225182     20.799361      19.307814      1.4915471     -1.1423602      20136.362    
    741000   1.0415395      0.0023323615   0.00039681485  21.043369      19.496683      1.5466862     -1.0153012      20122.807    
    742000   1.0269243      0.0023323615  -0.0014948744   21.122016      19.597033      1.5249826     -1.0022763      20159.142    
    743000   0.95079807     0.0023323615  -0.0022408163   20.885258      19.473322      1.4119351     -1.0717619      20120.487    
    744000   1.006232       0.0023323615   0.00074004867  20.57453       19.080276      1.4942545     -1.3451309      20107.918    
    745000   0.92180348     0.0023323615   0.005042495    21.053014      19.684136      1.3688782     -0.96858612     20136.322    
    746000   0.87470443     0.0023323615  -0.0015891109   20.796498      19.497561      1.2989361     -1.0326223      20224.141    
    747000   0.98696861     0.0023323615   0.0020395306   20.850535      19.384886      1.4656484     -1.1201801      20110.968    
    748000   1.0999859      0.0023323615   0.001078421    20.915444      19.281965      1.633479      -1.2729666      20174.311    
    749000   1.0492098      0.0023323615  -0.00091832326  20.527102      18.969025      1.5580765     -1.4275449      20070.658    
    750000   1.0329943      0.0023323615   0.0018187603   20.720803      19.186807      1.5339966     -1.2726359      20062.803    
    751000   1.0299677      0.0023323615   0.0012884717   20.773937      19.244435      1.529502      -1.2153085      20096.573    
    752000   0.97828324     0.0023323615  -0.0031217527   20.691352      19.238601      1.4527506     -1.3310198      19966.694    
    753000   0.89258049     0.0023323615   0.00020112381  20.493016      19.167534      1.325482      -1.2614327      20069.657    
    754000   0.96358383     0.0023323615  -0.00020674902  20.439724      19.008802      1.430922      -1.4661063      20152.47     
    755000   1.1225449      0.0023323615   0.0028345692   21.001745      19.334765      1.6669791     -1.2605636      20082.748    
    756000   1.1913535      0.0023323615   0.0023762723   21.227827      19.458667      1.7691599     -1.1283003      20128.972    
    757000   0.96492649     0.0023323615   0.0017342858   20.613885      19.180969      1.4329158     -1.2493192      20182.78     
    758000   1.078852       0.0023323615   0.00027998825  20.94191       19.339815      1.6020952     -1.2375762      19964.314    
    759000   1.0780366      0.0023323615   0.0023407514   20.689654      19.088769      1.6008844     -1.3505743      20315.871    
    760000   1.0078879      0.0023323615  -0.0019051839   20.667454      19.170741      1.4967136     -1.3329515      20418.257    
    761000   1.0230958      0.0023323615  -0.0011777139   20.872565      19.353268      1.5192973     -1.2782781      20273.912    
    762000   1.1134593      0.0023323615   0.0017247154   21.087499      19.434012      1.6534871     -1.220363       20249.362    
    763000   0.98359866     0.0023323615   0.0042126393   20.749276      19.288632      1.460644      -1.105541       20237.808    
    764000   0.9047176      0.0023323615   0.0018532282   20.550086      19.20658       1.3435056     -1.2173608      20128.631    
    765000   0.9480167      0.0023323615  -0.0011842329   20.697029      19.289224      1.4078048     -1.3027437      20301.793    
    766000   1.0299488      0.0023323615   0.0010300722   21.012049      19.482575      1.529474      -1.182126       20282.012    
    767000   0.9036989      0.0023323615   0.00033612437  20.30988       18.967888      1.3419929     -1.4936916      20043.235    
    768000   0.94415632     0.0023323615  -0.0011171034   20.608406      19.206334      1.4020721     -1.2482945      20095.986    
    769000   1.0493713      0.0023323615   0.0034784065   20.573044      19.014728      1.5583163     -1.4133645      20043.11     
    770000   0.86662906     0.0023323615  -0.0029439801   20.511381      19.224437      1.2869441     -1.3038121      19758.678    
    771000   0.83083313     0.0023323615   0.0021855042   20.76456       19.530773      1.2337872     -1.10862        18995.406    
    772000   0.96791568     0.0023323615  -0.0030859363   21.147062      19.709708      1.4373548     -0.83767028     19409.259    
    773000   0.93229528     0.0023323615  -0.001169619    20.954621      19.570162      1.3844585     -0.9655163      18970.456    
    774000   0.93503017     0.0023323615  -0.00163746     20.709897      19.321377      1.3885198     -1.0404841      19434.319    
    775000   0.96326303     0.0023323615   0.0057688231   20.72965       19.299204      1.4304456     -1.2739749      20069.507    
    776000   0.92098739     0.0023323615   0.0026635014   20.517594      19.149927      1.3676663     -1.3200456      20045.127    
    777000   0.97026144     0.0023323615   0.0010426436   20.738897      19.298059      1.4408382     -1.1432564      20180.682    
    778000   0.99774645     0.0023323615   0.0035532242   20.974696      19.493043      1.4816535     -0.97271372     20483.436    
    779000   0.91582452     0.0023323615   0.0015005071   21.041071      19.681071      1.3599994     -0.89519197     21527.527    
    780000   0.8799447      0.0023323615   0.00066024263  20.991924      19.685206      1.3067179     -0.86555644     22963.818    
    781000   1.1232149      0.0023323615  -0.0016885893   21.223621      19.555647      1.6679741     -0.9704399      24076.404    
    782000   1.0647898      0.0023323615   0.00079949832  21.281583      19.70037       1.5812128     -0.8346262      24628.415    
    783000   0.93761649     0.0023323615   0.00048089176  20.95704       19.56468       1.3923605     -0.92990765     24211.43     
    784000   0.82434583     0.0023323615  -0.0027288492   20.794926      19.570773      1.2241536     -0.92790777     23320.849    
    785000   1.0934429      0.0023323615  -0.0034435263   21.028238      19.404475      1.6237627     -1.1356194      21991.296    
    786000   0.91218502     0.0023323615   0.0021102345   20.744589      19.389994      1.3545948     -1.0776978      20615.05     
    787000   0.96516122     0.0023323615  -0.0024122377   20.767021      19.333756      1.4332644     -1.2682833      20328.595    
    788000   0.98193287     0.0023323615   0.001293701    20.628769      19.170598      1.4581703     -1.2283001      20225.476    
    789000   1.0835293      0.0023323615   0.00061620732  20.88956       19.280519      1.609041      -1.1711454      20124.365    
    790000   0.88258226     0.0023323615  -0.00027414621  20.783018      19.472383      1.3106347     -1.0455983      20157.118    
    791000   0.94011958     0.0023323615   0.0036453406   20.877928      19.481851      1.3960776     -1.10114        20186.114    
    792000   1.0715584      0.0023323615  -0.0001215509   20.955166      19.363902      1.5912643     -1.0769765      20191.227    
    793000   1.115776       0.0023323615  -0.00335976     20.916999      19.260072      1.6569274     -1.2683155      20193.822    
    794000   1.1884583      0.0023323615   0.0032462405   20.95863       19.19377       1.7648606     -1.3175012      20305.439    
    795000   0.93533516     0.0023323615   0.00071606489  20.734564      19.345591      1.3889727     -1.1635519      20222.629    
    796000   0.91514533     0.0023323615  -0.0031037794   20.628889      19.269899      1.3589908     -1.207424       20513.055    
    797000   0.92361734     0.0023323615  -0.0028367691   21.034334      19.662763      1.3715718     -0.9071267      20656.737    
    798000   0.99199989     0.0023323615  -0.00081649574  20.924073      19.450953      1.4731198     -1.1030008      20776.245    
    799000   0.94147096     0.0023323615   0.0011123301   20.748067      19.349982      1.3980844     -1.2492249      20359.607    
    800000   1.0332135      0.0023323615  -0.00025098697  20.971097      19.436775      1.5343221     -1.052949       20217.054    
    801000   0.93597107     0.0023323615   0.0039990234   20.807606      19.417689      1.389917      -1.203367       20307.518    
    802000   0.96439802     0.0023323615   0.0030900158   20.706076      19.273945      1.4321311     -1.2200008      20183.253    
    803000   0.98846983     0.0023323615  -0.0003966468   20.852783      19.384905      1.4678777     -1.1316062      20214.487    
    804000   0.91057306     0.0023323615  -0.00049046797  20.887194      19.534993      1.352201      -0.93171063     20174.719    
    805000   1.0635241      0.0023323615  -0.0022159404   21.132403      19.55307       1.5793333     -0.97917617     20203.57     
    806000   0.83451329     0.0023323615  -0.0035324369   20.268454      19.029201      1.2392522     -1.4166282      20309.381    
    807000   1.0032564      0.0023323615   0.0032791504   20.661772      19.171936      1.4898357     -1.341371       20068.196    
    808000   1.0365848      0.0023323615   0.002774386    20.928858      19.389529      1.5393284     -1.1058056      20095.655    
    809000   1.0157648      0.0023323615   0.00034239403  21.178539      19.670128      1.5084107     -0.9952865      20456.081    
    810000   1.0203448      0.0023323615  -0.0028841123   20.844981      19.329769      1.515212      -1.2946558      20343.71     
    811000   0.96581885     0.0023323615   0.00014413667  20.48676       19.052519      1.434241      -1.4363831      20192.154    
    812000   1.1037514      0.0023323615  -0.0015636481   21.127428      19.488358      1.6390708     -0.99459812     20067.24     
    813000   0.96363837     0.0023323615   0.0051792616   20.697642      19.266639      1.431003      -1.2765375      20138.861    
    814000   1.1242667      0.0023323615   0.0043614451   21.020435      19.350899      1.669536      -1.1262545      20300.806    
    815000   0.99348087     0.0023323615  -0.005977273    21.088097      19.612778      1.4753191     -1.0091646      20411.918    
    816000   0.94416766     0.0023323615  -0.0030241229   20.840834      19.438745      1.402089      -0.95972026     20852.302    
    817000   0.91522738     0.0023323615  -0.0013483151   20.866362      19.50725       1.3591127     -1.0983493      20952.336    
    818000   0.93934879     0.0023323615   0.00016771057  20.818565      19.423632      1.3949329     -1.0545811      20465.976    
    819000   0.90898801     0.0023323615   0.0020902936   20.812509      19.462661      1.3498472     -1.1159046      20218.156    
    820000   0.96889846     0.0023323615  -0.0021969174   20.610432      19.171618      1.4388142     -1.3155565      20117.194    
    821000   0.95263573     0.0023323615   0.00081547424  20.724421      19.309757      1.4146641     -1.1075405      20210.901    
    822000   1.0338156      0.0023323615   0.0017902539   20.900246      19.36503       1.5352162     -1.0902257      20219.663    
    823000   1.031018       0.0023323615  -0.00032715341  20.821032      19.289971      1.5310617     -1.1276124      20151.449    
    824000   1.0634231      0.0023323615   0.00036148684  20.808572      19.229388      1.5791833     -1.1965199      20234.772    
    825000   0.93421726     0.0023323615   0.0033115872   20.752643      19.365331      1.3873126     -1.0374871      20180.083    
    826000   0.95439777     0.0023323615   0.0010686064   20.790022      19.372742      1.4172807     -1.2690721      20157.932    
    827000   1.0779623      0.0023323615  -0.0012929808   21.081553      19.480779      1.600774      -1.1089923      20308.964    
    828000   0.99151364     0.0023323615   0.00047469675  20.772883      19.300486      1.4723978     -1.1381071      20364.783    
    829000   0.97264209     0.0023323615   0.00088328991  20.986719      19.542346      1.4443735     -1.1192834      20383.856    
    830000   1.0151717      0.0023323615  -0.0043036496   20.57968       19.07215       1.50753       -1.3990949      20081.366    
    831000   1.0693539      0.0023323615   0.0010041399   21.080414      19.492423      1.5879905     -0.99141234     20188.315    
    832000   1.0498467      0.0023323615   0.0042274413   20.687309      19.128287      1.5590223     -1.4705833      20195.554    
    833000   1.0214409      0.0023323615  -0.00062082268  20.90241       19.38557       1.5168398     -1.1395297      20187.58     
    834000   1.0092206      0.0023323615  -0.000620503    20.424283      18.925591      1.4986926     -1.5043472      20226.686    
    835000   1.0111029      0.0023323615  -5.3293802e-05  20.959984      19.458496      1.5014877     -1.0909655      18834.104    
    836000   0.98745468     0.0023323615  -0.0012015536   20.915931      19.449561      1.4663702     -1.1371032      18572.791    
    837000   0.96256998     0.0023323615  -0.00052082934  20.771033      19.341617      1.4294164     -1.1884555      18510.397    
    838000   0.89114034     0.0023323615   0.0045003794   20.455817      19.132474      1.3233434     -1.3168893      18503.63     
    839000   0.91620832     0.0023323615   0.00027962438  21.01173       19.651161      1.3605693     -0.97664245     18687.581    
    840000   0.95831834     0.0023323615  -0.002068878    20.72598       19.302877      1.4231027     -1.2554387      18564.949    
    841000   1.1053738      0.0023323615   0.0030021433   21.065763      19.424283      1.6414801     -1.138227       18746.107    
    842000   1.0545282      0.0023323615  -0.00051483881  21.018623      19.452649      1.5659744     -1.0722598      18802.457    
    843000   1.014825       0.0023323615   0.0011418115   20.803966      19.29695       1.5070151     -1.2918164      18769.065    
    844000   0.93877677     0.0023323615  -0.0031513793   21.079739      19.685655      1.3940835     -1.029852       18559.454    
    845000   1.0779487      0.0023323615  -0.00079243294  20.819807      19.219053      1.6007538     -1.2610026      18535.149    
    846000   1.0412524      0.0023323615   0.0034981622   20.82174       19.27548       1.5462597     -1.2753036      18732.4      
    847000   0.98725576     0.0023323615   0.0013231555   21.009177      19.543103      1.4660748     -0.92230499     18674.868    
    848000   0.95220502     0.0023323615  -0.0035461588   20.774905      19.36088       1.4140244     -1.1030671      18589.814    
    849000   0.87746945     0.0023323615  -0.0018456679   20.406481      19.103439      1.3030421     -1.2813973      18514.627    
    850000   1.01112        0.0023323615  -0.0042890888   20.794689      19.293176      1.5015132     -1.1771337      18604.727    
    851000   1.032888       0.0023323615   0.0014298627   20.863418      19.329579      1.5338387     -1.1406963      18733.588    
    852000   1.0249528      0.0023323615  -0.0012186376   20.913968      19.391913      1.5220548     -1.0347333      18764.404    
    853000   1.1046963      0.0023323615   0.0016094924   21.140831      19.500357      1.640474      -1.0358943      18723.165    
    854000   1.096089       0.0023323615  -0.0023406732   21.01734       19.389648      1.6276921     -1.0565687      19060.278    
    855000   1.0350321      0.0023323615  -0.0044035756   21.095651      19.558628      1.5370226     -1.0050371      19314.028    
    856000   0.94226148     0.0023323615  -0.0012273575   20.746879      19.347621      1.3992583     -1.1599901      18741.07     
    857000   0.86020732     0.0023323615  -0.0004586339   20.801389      19.523982      1.2774079     -1.0651812      18647.989    
    858000   1.018502       0.0023323615   0.0036036738   20.740009      19.227533      1.5124754     -1.2335421      18588.1      
    859000   0.99721848     0.0023323615  -0.0031909154   21.028047      19.547177      1.4808694     -1.0921392      18699.81     
    860000   1.1390217      0.0023323615  -0.0030962236   21.190576      19.499129      1.6914472     -1.1546746      18608.643    
    861000   0.94517674     0.0023323615   5.9503252e-05  20.683281      19.279693      1.4035875     -1.226997       18462.011    
    862000   0.95791249     0.0023323615  -0.00085507923  20.798031      19.375531      1.4225        -1.1389534      18490.857    
    863000   1.062451       0.0023323615   0.0035129145   20.977         19.39926       1.5777398     -1.0744686      18705.674    
    864000   1.0938021      0.0023323615  -0.00047831321  21.002369      19.378073      1.6242961     -1.0580165      18549.141    
    865000   0.95840875     0.0023323615   0.0010887703   20.713376      19.290139      1.423237      -1.1729401      18493.132    
    866000   0.89717037     0.0023323615  -0.0012703778   20.487956      19.155658      1.332298      -1.3422367      18445.928    
    867000   1.1050361      0.0023323615  -0.00039576053  21.033981      19.393002      1.6409786     -1.1825601      18686.693    
    868000   0.90338473     0.0023323615   0.00040347839  20.69198       19.350454      1.3415263     -1.2569641      18695.67     
    869000   1.0748057      0.0023323615   0.00024660931  20.918034      19.321947      1.5960865     -1.1538619      18617.158    
    870000   1.0451366      0.0023323615  -0.00085649652  20.783769      19.231741      1.5520278     -1.3171171      18523.01     
    871000   1.0949018      0.0023323615   0.0043479416   20.723971      19.098042      1.6259291     -1.3186828      18614.05     
    872000   1.0658715      0.0023323615   0.0032631015   20.890388      19.307569      1.5828192     -1.3024119      18682.856    
    873000   0.9704374      0.0023323615   0.0016544357   20.76644       19.32534       1.4410995     -1.145235       18712.754    
    874000   1.0483856      0.0023323615   0.0027865409   20.694469      19.137617      1.5568526     -1.3028079      18659.978    
    875000   0.9709603      0.0023323615  -0.00086066042  20.909967      19.468091      1.441876      -1.0219352      19684.349    
    876000   1.0453815      0.0023323615   0.0014250495   20.720947      19.168555      1.5523915     -1.2823047      20236.569    
    877000   0.93077443     0.0023323615  -0.0018904662   20.484818      19.102618      1.3822        -1.3738903      20063.101    
    878000   0.97644201     0.0023323615   0.0033953564   20.983311      19.533295      1.4500164     -1.0460006      20038.004    
    879000   0.93863571     0.0023323615   0.0022870059   20.769318      19.375444      1.393874      -1.1079815      20058.722    
    880000   0.97337781     0.0023323615   0.0035585942   20.651213      19.205747      1.4454661     -1.2439585      20125.859    
    881000   0.90773129     0.0023323615   0.0026678751   20.550167      19.202186      1.347981      -1.3182213      20121.59     
    882000   1.1779167      0.0023323615   0.001782915    21.05972       19.310514      1.7492063     -1.1254884      20129.67     
    883000   0.98514702     0.0023323615  -0.00030486221  20.757227      19.294284      1.4629433     -1.1869902      20236.807    
    884000   0.95952871     0.0023323615   0.00051001431  20.663543      19.238643      1.4249001     -1.2338167      20132.114    
    885000   1.0594154      0.0023323615   0.0040939089   20.768853      19.195621      1.5732318     -1.3256237      20232.627    
    886000   0.97037425     0.0023323615   0.001553524    20.800184      19.359178      1.4410058     -1.2072298      20338.084    
    887000   0.94144281     0.0023323615   0.00050645948  20.963829      19.565786      1.3980426     -1.1285381      20097.492    
    888000   1.1059687      0.0023323615  -0.00036275323  20.954594      19.31223       1.6423635     -1.2765888      20290.035    
    889000   1.0497726      0.0023323615   0.0052630047   21.017867      19.458955      1.5589124     -1.0361761      20078.054    
    890000   1.1458929      0.0023323615  -0.0022510698   20.849503      19.147852      1.7016509     -1.3166221      20166.77     
    891000   1.0575594      0.0023323615   0.00062043891  20.806845      19.236369      1.5704758     -1.1943192      20353.87     
    892000   1.0293404      0.0023323615  -0.00080596048  21.005869      19.477299      1.5285704     -1.1695766      20526.905    
    893000   0.93104223     0.0023323615   0.0012294982   20.804216      19.421618      1.3825977     -1.0530716      20557.801    
    894000   1.03787        0.0023323615  -0.0031941606   20.888459      19.347222      1.541237      -1.1294236      20360.475    
    895000   0.97402257     0.0023323615   0.0017152049   20.777883      19.331459      1.4464235     -1.1440533      20043.923    
    896000   1.0074418      0.0023323615   0.0018055554   20.903998      19.407947      1.4960511     -1.0876736      20183.625    
    897000   0.89775921     0.0023323615  -0.0027633763   20.523917      19.190744      1.3331724     -1.3237262      20347.741    
    898000   0.88445604     0.0023323615  -0.0050352118   20.923606      19.610189      1.3134172     -0.95258282     20174.702    
    899000   1.0065507      0.0023323615  -0.0015674748   20.884524      19.389796      1.4947279     -1.1754626      20179.067    
    900000   1.025752       0.0023323615   0.0020735308   20.844269      19.321027      1.5232417     -1.3094881      20129.012    
    901000   1.0326255      0.0023323615  -0.0013584109   20.857842      19.324393      1.5334488     -1.1816603      20156.06     
    902000   1.0010227      0.0023323615  -0.0025329971   21.081046      19.594527      1.4865186     -0.9840617      20284.295    
    903000   1.0406667      0.0023323615  -0.0013006965   20.950461      19.405071      1.5453901     -1.1024705      20203.901    
    904000   1.0775974      0.0023323615   0.0025589221   21.023385      19.423153      1.6002321     -1.1952002      20332.131    
    905000   1.1784788      0.0023323615  -0.0050202111   21.043649      19.293608      1.750041      -1.3149573      20268.108    
    906000   1.1145527      0.0023323615   0.0012862519   20.925196      19.270085      1.6551108     -1.308234       20084.247    
    907000   0.91183615     0.0023323615  -0.0025479315   20.768304      19.414227      1.3540767     -1.0903556      20189.463    
    908000   1.0575429      0.0023323615   0.00064962324  20.878596      19.308145      1.5704512     -1.2004279      20138.589    
    909000   0.909814       0.0023323615  -0.00066826939  20.83462       19.483546      1.3510738     -1.166826       20195.86     
    910000   1.0527704      0.0023323615   0.0028395308   20.968162      19.404798      1.563364      -1.1016099      20201.17     
    911000   1.0285556      0.0023323615  -0.00083121783  21.02578       19.498375      1.5274051     -0.95702458     20220.032    
    912000   0.88225068     0.0023323615   0.0013291544   20.59379       19.283648      1.3101423     -1.1911913      20166.586    
    913000   1.0741535      0.0023323615   0.001631129    20.70109       19.105972      1.595118      -1.4293242      20102.495    
    914000   1.1355904      0.0023323615   0.0035720762   20.966537      19.280185      1.6863517     -1.2898954      20153.187    
    915000   1.0176471      0.0023323615   0.0032945578   20.908183      19.396977      1.511206      -1.2282377      20070.242    
    916000   1.0585111      0.0023323615  -0.0012437893   20.766527      19.194638      1.5718889     -1.1753156      20232.676    
    917000   0.98268783     0.0023323615   0.00057623344  20.759876      19.300584      1.4592914     -1.2049049      19667.771    
    918000   0.8550009      0.0023323615  -0.00014746054  20.765001      19.495325      1.2696763     -1.1161401      20020.982    
    919000   0.96191247     0.0023323615   0.0026969094   20.797654      19.369214      1.42844       -1.1557582      20119.197    
    920000   0.98479177     0.0023323615  -0.0026457386   20.904677      19.442262      1.4624158     -1.0901954      20097.844    
    921000   1.0735025      0.0023323615   0.0036902913   20.968511      19.37436       1.5941512     -1.0572065      20168.527    
    922000   1.0032736      0.0023323615   0.0026364644   20.938564      19.448703      1.4898613     -0.99416528     20246.872    
    923000   0.90853447     0.0023323615   0.00036174969  20.640098      19.290925      1.3491737     -1.2472477      20164.403    
    924000   0.9678823      0.0023323615  -0.0029443997   20.925176      19.487871      1.4373052     -1.1194107      20251.67     
    925000   1.1247646      0.0023323615   0.0039499515   20.852284      19.182008      1.6702755     -1.3273406      20133.82     
    926000   1.0829473      0.0023323615  -0.003944453    21.187798      19.579621      1.6081768     -0.95400836     20124.661    
    927000   1.0068708      0.0023323615   0.002775365    21.007783      19.51258       1.4952031     -1.0568419      20341.566    
    928000   1.0594491      0.0023323615   1.3057778e-05  20.805323      19.232041      1.5732818     -1.2371124      20145.365    
    929000   0.97815773     0.0023323615   0.0012581219   21.002316      19.549752      1.4525642     -1.0426706      20042.712    
    930000   0.96076878     0.0023323615  -0.002603682    20.587075      19.160334      1.4267416     -1.3730408      20068.24     
    931000   0.98747781     0.0023323615  -0.00090731563  20.801766      19.335361      1.4664045     -1.1550396      20000.618    
    932000   0.95614231     0.0023323615  -0.00018591293  20.743364      19.323493      1.4198713     -1.0628454      20141.178    
    933000   0.77009854     0.0023323615   0.0013081553   20.508591      19.364995      1.1435963     -1.1115965      20160.827    
    934000   0.97888091     0.0023323615   8.2271436e-05  20.908719      19.455081      1.4536382     -1.0514112      20237.845    
    935000   0.98533736     0.0023323615   0.00021145928  20.755344      19.292118      1.463226      -1.2786795      20326.028    
    936000   0.93944694     0.0023323615   0.0016126745   21.06608       19.671001      1.3950787     -0.97357915     20154.855    
    937000   1.0298647      0.0023323615   0.0034405877   20.968153      19.438803      1.529349      -1.055845       20316.185    
    938000   1.0936915      0.0023323615   0.0011174074   20.9932        19.369068      1.6241318     -1.2115233      20219.679    
    939000   1.0224643      0.0023323615  -0.0016317176   20.681192      19.162832      1.5183596     -1.3943607      20172.55     
    940000   0.80838203     0.0023323615   0.00049262901  20.654472      19.454024      1.2004473     -1.164017       20064.21     
    941000   1.0513217      0.0023323615  -0.0012266337   20.771887      19.210675      1.5612128     -1.3137077      20253.298    
    942000   1.0804252      0.0023323615  -0.0012724647   20.949303      19.344872      1.6044314     -1.1261748      20218.09     
    943000   1.1379364      0.0023323615   0.0036432821   20.90818       19.218344      1.6898355     -1.2689824      20232.044    
    944000   1.1989917      0.0023323615   0.00039715702  21.303181      19.522678      1.7805027     -1.019552       20169.827    
    945000   0.92668972     0.0023323615  -0.0033749954   21.019202      19.643068      1.3761342     -0.94911026     20140.783    
    946000   0.93467362     0.0023323615   0.0014933373   20.890644      19.502654      1.3879903     -0.99880508     20325.114    
    947000   0.91387941     0.0023323615  -0.0049612322   20.812319      19.455208      1.3571109     -0.99437173     20263.939    
    948000   0.95723193     0.0023323615   0.00050233818  20.784846      19.363356      1.4214894     -1.1528297      20328.802    
    949000   1.0363907      0.0023323615  -0.00069594657  21.082685      19.543644      1.5390402     -1.0446909      20213.828    
    950000   1.1005098      0.0023323615   0.0014646724   21.140893      19.506636      1.6342571     -1.0639149      20217.926    
    951000   1.0662464      0.0023323615  -0.0029748533   20.955643      19.372267      1.5833759     -1.2103927      20170.238    
    952000   1.065935       0.0023323615  -0.0012573569   21.102452      19.519539      1.5829134     -0.98623122     20204.396    
    953000   1.0447586      0.0023323615   0.0055220118   20.700122      19.148656      1.5514665     -1.3140672      20266.252    
    954000   0.9885353      0.0023323615   0.0013986522   20.798537      19.330562      1.4679749     -1.1332028      20224.944    
    955000   0.88184622     0.0023323615  -0.001480359    20.580431      19.270889      1.3095416     -1.1844653      20124.081    
    956000   1.0916814      0.0023323615   0.0041376133   20.920901      19.299755      1.6211469     -1.1725404      19690.799    
    957000   1.0434886      0.0023323615   0.0014248279   20.785225      19.235644      1.5495806     -1.2738388      20269.322    
    958000   1.0977399      0.0023323615  -0.0028790989   20.895287      19.265143      1.6301437     -1.333843       20235.043    
    959000   0.93873363     0.0023323615   0.0010968614   20.611762      19.217743      1.3940194     -1.219414       20053.862    
    960000   1.0254715      0.0023323615   0.0033170749   20.717807      19.194981      1.5228251     -1.2635214      20204.052    
    961000   0.97461298     0.0023323615  -0.0018874453   20.782278      19.334978      1.4473003     -1.1261302      20046.282    
    962000   1.0062509      0.0023323615   0.00091342447  21.158185      19.663902      1.4942826     -0.88779362     18718.056    
    963000   1.016141       0.0023323615   0.0069057071   20.973787      19.464818      1.5089694     -1.0722899      18602.872    
    964000   1.0716099      0.0023323615  -0.002809002    20.977318      19.385977      1.5913406     -1.0869298      19788.399    
    965000   1.0611818      0.0023323615  -0.00070769141  20.69297       19.117115      1.5758549     -1.399291       20104.033    
    966000   1.0053221      0.0023323615   0.0031323276   20.841096      19.348193      1.4929033     -1.1749513      19874.425    
    967000   1.0838133      0.0023323615  -0.00069744225  20.914164      19.304701      1.6094627     -1.1628196      20002.566    
    968000   1.0349941      0.0023323615   0.00063309004  20.891436      19.35447       1.5369662     -1.1776642      19923.578    
    969000   0.95458452     0.0023323615   0.0010641419   20.855845      19.438287      1.417558      -1.1340415      20189.459    
    970000   1.0751272      0.0023323615  -0.0049488373   21.093597      19.497033      1.5965639     -1.0800144      20476.409    
    971000   1.1461954      0.0023323615   0.0018409635   20.915633      19.213532      1.7021002     -1.2727272      19827.11     
    972000   1.0808723      0.0023323615  -0.0036135214   21.023651      19.418556      1.6050953     -1.1850124      19985.4      
    973000   0.87823459     0.0023323615   0.0012236886   20.690089      19.385911      1.3041784     -1.0519953      19933.112    
    974000   0.87100341     0.0023323615  -0.00056042397  20.652865      19.359425      1.2934401     -1.176776       20010.273    
    975000   1.0824096      0.0023323615  -0.00038300928  21.038758      19.431379      1.6073783     -1.2638234      20018.95     
    976000   0.96229689     0.0023323615  -0.0037333109   20.816498      19.387487      1.4290109     -1.1596266      19840.514    
    977000   0.98544999     0.0023323615   0.0010246504   20.929657      19.466263      1.4633932     -1.2109178      19778.18     
    978000   1.0076054      0.0023323615   0.0025019715   20.895054      19.39876       1.496294      -1.1528497      19962.768    
    979000   1.0537538      0.0023323615   0.002059438    21.017223      19.452399      1.5648243     -1.1124492      20040.696    
    980000   1.1161204      0.0023323615  -0.002386557    20.997778      19.340339      1.6574388     -1.1461579      19842.454    
    981000   1.0606732      0.0023323615  -0.00067837413  20.979856      19.404756      1.5750998     -1.1429254      20192.547    
    982000   0.86788741     0.0023323615  -0.00096443165  20.721576      19.432763      1.2888128     -1.1420199      20060.226    
    983000   1.0107253      0.0023323615  -0.00055232759  20.796179      19.295252      1.5009271     -1.2310574      20073.29     
    984000   1.0827517      0.0023323615  -0.00019011417  20.765637      19.157751      1.6078863     -1.314311       20017.404    
    985000   1.1137487      0.0023323615  -1.1608003e-05  21.005693      19.351776      1.6539168     -1.2569488      20097.917    
    986000   0.90880427     0.0023323615  -0.0029181172   20.525692      19.176118      1.3495743     -1.2898655      19995.55     
    987000   1.0310556      0.0023323615   0.0047186078   20.985117      19.454         1.5311175     -1.1089132      20348.238    
    988000   1.1184336      0.0023323615   0.0030454374   20.920427      19.259553      1.6608739     -1.2515082      20363.516    
    989000   1.0670227      0.0023323615  -0.00088896366  21.202792      19.618263      1.5845287     -1.0012263      20225.104    
    990000   0.91232897     0.0023323615  -0.00028320051  21.015811      19.661002      1.3548085     -0.89892585     20231.692    
    991000   0.89431262     0.0023323615   0.0028447848   20.525941      19.197887      1.3280542     -1.2599914      20090.76     
    992000   0.90382114     0.0023323615  -0.0024440707   20.638322      19.296148      1.3421744     -1.2702359      20116.671    
    993000   1.1022411      0.0023323615   0.0021428947   20.966342      19.329514      1.636828      -1.2118804      20200.994    
    994000   1.0119163      0.0023323615   0.00085463217  20.782654      19.279959      1.5026957     -1.1952911      20290.666    
    995000   1.2190129      0.0023323615   0.0033182557   21.096502      19.286268      1.8102342     -1.2049605      20042.736    
    996000   1.0403425      0.0023323615   0.001460325    20.838676      19.293768      1.5449086     -1.3075288      20082.712    
    997000   0.99978759     0.0023323615  -2.6662061e-05  20.819578      19.334894      1.4846846     -1.122563       20014.635    
    998000   0.98469189     0.0023323615  -0.0012898753   20.827582      19.365315      1.4622675     -1.2128976      20098.337    
    999000   0.97040634     0.0023323615   0.00064032705  20.912048      19.470994      1.4410534     -1.1913783      20105.208    
   1000000   0.96794628     0.0023323615  -0.002426496    20.864943      19.427543      1.4374002     -1.0808208      20063.509    
Loop time of 52.2382 on 1 procs for 1000000 steps with 100 atoms

Performance: 8269812.203 tau/day, 19143.084 timesteps/s
99.4% CPU use with 1 MPI tasks x 1 OpenMP threads

MPI task timing breakdown:
Section |  min time  |  avg time  |  max time  |%varavg| %total
---------------------------------------------------------------
Pair    | 43.435     | 43.435     | 43.435     |   0.0 | 83.15
Bond    | 1.2357     | 1.2357     | 1.2357     |   0.0 |  2.37
Neigh   | 3.7258     | 3.7258     | 3.7258     |   0.0 |  7.13
Comm    | 1.3569     | 1.3569     | 1.3569     |   0.0 |  2.60
Output  | 0.20589    | 0.20589    | 0.20589    |   0.0 |  0.39
Modify  | 1.9326     | 1.9326     | 1.9326     |   0.0 |  3.70
Other   |            | 0.3466     |            |       |  0.66

Nlocal:            100 ave         100 max         100 min
Histogram: 1 0 0 0 0 0 0 0 0 0
Nghost:            316 ave         316 max         316 min
Histogram: 1 0 0 0 0 0 0 0 0 0
Neighs:           4849 ave        4849 max        4849 min
Histogram: 1 0 0 0 0 0 0 0 0 0

Total # of neighbors = 4849
Ave neighs/atom = 48.49
Ave special neighs/atom = 1.98
Neighbor list builds = 97900
Dangerous builds = 80081

write_data      ${outputfile_assembled} nofix nocoeff
write_data      7_assembled.data nofix nocoeff
System init for write_data ...
Generated 0 of 6 mixed pair_coeff terms from geometric mixing rule

Total wall time: 0:00:54
