LAMMPS (23 Jun 2022 - Update 1)
OMP_NUM_THREADS environment is not set. Defaulting to 1 thread. (src/comm.cpp:98)
  using 1 OpenMP thread(s) per MPI task


variable        runtime equal 1000000
variable		subsample_rate equal 1000

variable		outputfile_created string '3_created.data'
variable		outputfile_relaxed string '5_relaxed.data'
variable		outputfile_selfasb string '6_a_self_assemble.lammpstrj'
variable		outputfile_trajlin string '6_b_trajlin.data'
variable		outputfile_assembled string '7_assembled.data'

units           lj
atom_style      full
dimension       3
boundary        p p p
timestep        0.005

read_data       ${outputfile_created}
read_data       3_created.data
Reading data file ...
  orthogonal box = (0 0 0) to (35 35 35)
  1 by 1 by 1 MPI processor grid
  reading atoms ...
  100 atoms
  reading velocities ...
  100 velocities
  scanning bonds ...
  1 = max bonds/atom
  reading bonds ...
  99 bonds
Finding 1-2 1-3 1-4 neighbors ...
  special bond factors lj:    0        0        0       
  special bond factors coul:  0        0        0       
     2 = max # of 1-2 neighbors
     2 = max # of 1-3 neighbors
     4 = max # of 1-4 neighbors
     6 = max # of special neighbors
  special bonds CPU = 0.000 seconds
  read_data CPU = 0.006 seconds

bond_style      fene
bond_coeff      * 30.0 1.5 1.0 1.0
special_bonds   fene
Finding 1-2 1-3 1-4 neighbors ...
  special bond factors lj:    0        1        1       
  special bond factors coul:  0        1        1       
     2 = max # of 1-2 neighbors
     6 = max # of special neighbors
  special bonds CPU = 0.000 seconds

variable        Temp equal 1.0
variable        velSeed equal 926458

velocity        all create ${Temp} ${velSeed}
velocity        all create 1 ${velSeed}
velocity        all create 1 926458

### Output
thermo_style    custom step temp density press etotal pe ke epair spcpu
thermo          1000

###########################################################################
# Soft relaxation (to remove overlaps of particles)
######################################################################

pair_style      soft 1.0
pair_coeff      * * 0.0
variable        prefactor equal ramp(0,300)
fix             rampSoft all adapt 1 pair soft a * * v_prefactor

minimize        0.0 1.0e-8 1000 100000
WARNING: Using 'neigh_modify every 1 delay 0 check yes' setting during minimization (src/min.cpp:187)
Generated 0 of 6 mixed pair_coeff terms from geometric mixing rule
Neighbor list info ...
  update every 1 steps, delay 0 steps, check yes
  max neighbors/atom: 2000, page size: 100000
  master list distance cutoff = 1.3
  ghost atom cutoff = 1.3
  binsize = 0.65, bins = 54 54 54
  1 neighbor lists, perpetual/occasional/extra = 1 0 0
  (1) pair soft, perpetual
      attributes: half, newton on
      pair build: half/bin/newton
      stencil: half/bin/3d
      bin: standard
WARNING: Communication cutoff 1.3 is shorter than a bond length based estimate of 1.7550000000000001. This may lead to errors. (src/comm.cpp:727)
Per MPI rank memory allocation (min/avg/max) = 8.346 | 8.346 | 8.346 Mbytes
   Step          Temp         Density         Press          TotEng         PotEng         KinEng         E_pair         S/CPU     
         0   1              0.0023323615  -0.0039617958   21.524174      20.039174      1.485          0              0            
       362   1              0.0023323615   0.0023090379   21.485548      20.000548      1.485          0              67831.38     
Loop time of 0.00533928 on 1 procs for 362 steps with 100 atoms

95.3% CPU use with 1 MPI tasks x 1 OpenMP threads

Minimization stats:
  Stopping criterion = force tolerance
  Energy initial, next-to-last, final = 
      20.0391741078675   20.0005480767337   20.0005480767337
  Force two-norm initial, final = 11.878422 7.9509778e-09
  Force max component initial, final = 6.6117807 1.3572772e-09
  Final line search alpha, max atom move = 1 1.3572772e-09
  Iterations, force evaluations = 362 738

MPI task timing breakdown:
Section |  min time  |  avg time  |  max time  |%varavg| %total
---------------------------------------------------------------
Pair    | 0.00022676 | 0.00022676 | 0.00022676 |   0.0 |  4.25
Bond    | 0.0024758  | 0.0024758  | 0.0024758  |   0.0 | 46.37
Neigh   | 0.0014682  | 0.0014682  | 0.0014682  |   0.0 | 27.50
Comm    | 0.00019073 | 0.00019073 | 0.00019073 |   0.0 |  3.57
Output  | 0          | 0          | 0          |   0.0 |  0.00
Modify  | 0          | 0          | 0          |   0.0 |  0.00
Other   |            | 0.0009778  |            |       | 18.31

Nlocal:            100 ave         100 max         100 min
Histogram: 1 0 0 0 0 0 0 0 0 0
Nghost:             20 ave          20 max          20 min
Histogram: 1 0 0 0 0 0 0 0 0 0
Neighs:              0 ave           0 max           0 min
Histogram: 1 0 0 0 0 0 0 0 0 0

Total # of neighbors = 0
Ave neighs/atom = 0
Ave special neighs/atom = 1.98
Neighbor list builds = 17
Dangerous builds = 0

fix             nvtSoft all nvt temp ${Temp} ${Temp} 0.5
fix             nvtSoft all nvt temp 1 ${Temp} 0.5
fix             nvtSoft all nvt temp 1 1 0.5
run             100000
Generated 0 of 6 mixed pair_coeff terms from geometric mixing rule
WARNING: Communication cutoff 1.3 is shorter than a bond length based estimate of 1.7550000000000001. This may lead to errors. (src/comm.cpp:727)
Per MPI rank memory allocation (min/avg/max) = 7.221 | 7.221 | 7.221 Mbytes
   Step          Temp         Density         Press          TotEng         PotEng         KinEng         E_pair         S/CPU     
       362   1              0.0023323615   0.0023090379   21.485548      20.000548      1.485          0              0            
      1000   0.90989032     0.0023323615  -0.0021940042   21.776974      20.425787      1.3511871      0.00036425437  78031.312    
      2000   0.86546688     0.0023323615   0.0034714157   21.677128      20.39191       1.2852183      0.0025814786   75935.939    
      3000   0.98199538     0.0023323615   0.0028144228   21.866132      20.407869      1.4582631      0.0011756043   73623.943    
      4000   1.004495       0.0023323615  -0.0014058211   21.945624      20.453949      1.4916751      0.011986179    71438.644    
      5000   1.1222705      0.0023323615   0.0044495116   21.986385      20.319813      1.6665718      0.0050317639   73755.761    
      6000   1.0538243      0.0023323615   0.0023957538   21.985713      20.420784      1.564929       0.012100514    74629.054    
      7000   1.0210598      0.0023323615  -0.00038820026  21.904665      20.388391      1.5162738      0              76169.01     
      8000   0.94819751     0.0023323615   0.0024943091   21.747889      20.339816      1.4080733      0              76198.662    
      9000   0.92364502     0.0023323615   0.0020053029   21.724166      20.352554      1.3716129      1.7780894e-05  75584.139    
     10000   0.86685188     0.0023323615   0.00078277366  21.644879      20.357604      1.287275       0.0098636418   75835.433    
     11000   1.0057103      0.0023323615   0.00010113276  21.8558        20.362321      1.4934798      0.020705341    75447.703    
     12000   0.97901664     0.0023323615  -0.0026996968   21.871206      20.417366      1.4538397      0.0052928539   74977.301    
     13000   0.97718436     0.0023323615  -6.1641422e-06  21.963706      20.512587      1.4511188      0.025022446    73852.08     
     14000   1.0530014      0.0023323615  -0.0009993112   21.947994      20.384287      1.5637071      0.0020860456   73781.549    
     15000   0.99094527     0.0023323615   0.0011068478   21.895146      20.423592      1.4715537      0.0015091113   73370.279    
     16000   0.91285091     0.0023323615  -0.00025424173  21.87524       20.519657      1.3555836      0.0047853639   74391.112    
     17000   0.82806978     0.0023323615  -0.00054698156  21.701984      20.472301      1.2296836      0              74890.329    
     18000   1.043278       0.0023323615  -6.6143919e-05  22.003299      20.454031      1.5492679      0.0034319132   73916.451    
     19000   1.0879249      0.0023323615  -0.0017804642   21.998985      20.383416      1.6155685      0.015376175    69082.199    
     20000   1.1144506      0.0023323615   0.0025198298   22.190904      20.535944      1.6549592      0              73555.416    
     21000   1.0427751      0.0023323615   0.0011345349   22.099492      20.550971      1.548521       0.00040047813  74336.04     
     22000   1.0586695      0.0023323615   0.0017882747   22.05673       20.484606      1.5721242      0              74234.2      
     23000   1.0058426      0.0023323615  -0.0055245362   21.954628      20.460951      1.4936763      0.0027619031   71386.433    
     24000   0.98273442     0.0023323615   0.0015147357   21.862067      20.402707      1.4593606      0              74359.687    
     25000   0.95835343     0.0023323615   0.0017808774   21.937761      20.514606      1.4231548      0.00020839942  74212.676    
     26000   0.93993778     0.0023323615  -0.0021777292   21.884849      20.489042      1.3958076      0.0088889834   74750.114    
     27000   0.9308188      0.0023323615  -0.00011239942  21.842252      20.459986      1.3822659      0.021612409    73636.163    
     28000   1.0149581      0.0023323615   0.0041996387   21.906846      20.399633      1.5072129      0.0064059022   74514.621    
     29000   0.92841138     0.0023323615  -2.5398808e-05  21.987185      20.608494      1.3786909      0.0046112484   74594.645    
     30000   1.021043       0.0023323615   0.001589158    22.097958      20.581709      1.5162489      0.016799508    72082.92     
     31000   1.0465985      0.0023323615  -0.0021744286   22.037917      20.483718      1.5541987      0.0057879149   75009.138    
     32000   0.98907108     0.0023323615  -0.0015558606   22.044089      20.575318      1.4687705      0.009448173    74570.632    
     33000   1.0918536      0.0023323615  -0.0025643847   22.039275      20.417873      1.6214025      0              73800.858    
     34000   0.99801543     0.0023323615   0.0016279766   21.932339      20.450286      1.4820529      0.017384617    76038.099    
     35000   1.0352271      0.0023323615  -0.0052971711   22.076004      20.538692      1.5373122      0.00010473809  74827.728    
     36000   1.1141579      0.0023323615  -0.00093279925  22.222491      20.567966      1.6545245      0.00033678641  75893.851    
     37000   1.0369415      0.0023323615   0.00013065175  22.217841      20.677983      1.5398581      0.013788831    74940.598    
     38000   1.0515596      0.0023323615   0.0021717558   22.070766      20.5092        1.561566       0.0067894678   75262.463    
     39000   1.0238495      0.0023323615   0.00026414509  22.040141      20.519725      1.5204165      0.00044464649  74404.867    
     40000   1.0749111      0.0023323615  -0.0026849368   22.039327      20.443084      1.596243       0.012651334    73080.835    
     41000   0.99070886     0.0023323615  -0.0030385564   22.03241       20.561207      1.4712027      0.00092855646  76168.894    
     42000   0.95315224     0.0023323615   0.0019788197   21.965263      20.549832      1.4154311      0.020233689    74377.64     
     43000   1.0644183      0.0023323615  -0.0011168725   22.287172      20.706511      1.5806611      0.039694129    74438.209    
     44000   1.0253747      0.0023323615  -0.006676522    22.066233      20.543552      1.5226814      0              73234.734    
     45000   0.94179556     0.0023323615  -0.0047206018   21.970644      20.572077      1.3985664      0.019869988    73997.062    
     46000   1.0083495      0.0023323615  -0.0017646918   21.972114      20.474715      1.497399       0.00026040605  73326.674    
     47000   0.98767959     0.0023323615  -0.00080218158  22.091674      20.62497       1.4667042      0.024266258    73741.919    
     48000   1.1473449      0.0023323615  -0.0025885687   22.080512      20.376705      1.7038072      0.00065962995  74479.818    
     49000   1.0679312      0.0023323615   0.0017688272   21.970482      20.384604      1.5858779      0.014142422    75492.038    
     50000   0.9581935      0.0023323615   0.0014398836   21.955202      20.532284      1.4229173      0.0055011948   75078.254    
     51000   1.0215759      0.0023323615  -0.00093292688  21.934681      20.41764       1.5170402      0              74633.02     
     52000   0.98079591     0.0023323615   0.0040701936   21.977374      20.520892      1.4564819      0.0020862422   75195.846    
     53000   1.0090927      0.0023323615   0.0013324753   22.095438      20.596935      1.4985027      0              74738.304    
     54000   0.97519627     0.0023323615   0.0013260734   22.070151      20.621984      1.4481665      0.026885444    76003.765    
     55000   1.1805087      0.0023323615  -0.001586238    22.424088      20.671033      1.7530554      0.024690954    75280.293    
     56000   0.98387121     0.0023323615   0.0037155145   22.104425      20.643376      1.4610487      0.01435493     74690.04     
     57000   1.0723812      0.0023323615  -0.0037916262   22.122726      20.53024       1.592486       0.013635549    75247.659    
     58000   1.0152349      0.0023323615   0.00021908047  22.082827      20.575203      1.5076238      0.00077375639  75143.816    
     59000   1.1424502      0.0023323615  -0.0052108657   22.30072       20.604182      1.6965385      0.013308184    75886.059    
     60000   1.0359703      0.0023323615  -0.00097887545  22.188218      20.649802      1.538416       0.00011346294  74344.788    
     61000   1.1646839      0.0023323615  -0.002085017    22.239945      20.51039       1.7295556      0.012918477    74164.318    
     62000   1.101836       0.0023323615   0.0010338878   22.171386      20.53516       1.6362265      0.001396566    75152.643    
     63000   0.96616435     0.0023323615   0.00097550571  21.903821      20.469067      1.4347541      0.013027663    76175.694    
     64000   1.0068907      0.0023323615  -0.0020278726   22.061652      20.566419      1.4952327      0.013750276    75094.463    
     65000   0.98723233     0.0023323615   0.0022441476   22.031073      20.565033      1.46604        0.0066686189   75689.026    
     66000   1.0273881      0.0023323615  -0.0003515278   22.183579      20.657908      1.5256713      0              73754.45     
     67000   0.96528212     0.0023323615  -0.00014822656  21.9396        20.506156      1.4334439      0.010365557    76003.534    
     68000   1.069702       0.0023323615   9.4754668e-05  22.081119      20.492611      1.5885075      0.00049153926  73146.394    
     69000   1.1229502      0.0023323615   0.0011504079   22.200329      20.532748      1.6675811      0.0068454249   75782.808    
     70000   1.0062775      0.0023323615  -0.00085311964  22.094021      20.599699      1.4943221      0.013222355    74418.954    
     71000   1.0906935      0.0023323615   0.00015260357  22.145362      20.525682      1.6196798      0.018338513    75136.408    
     72000   1.010401       0.0023323615  -6.0487182e-06  22.154105      20.653659      1.5004455      0.0013793953   73950.954    
     73000   1.1177599      0.0023323615  -0.0034084797   22.254435      20.594562      1.6598735      0.00011231735  76537.323    
     74000   0.9768019      0.0023323615   0.00016143893  22.07312       20.622569      1.4505508      0.0084515956   74273.755    
     75000   1.1360996      0.0023323615   0.002159116    22.161595      20.474487      1.6871079      0.0089909162   75027.456    
     76000   0.97379329     0.0023323615  -0.00068458621  21.988928      20.542845      1.446083       0              73744.371    
     77000   0.94876793     0.0023323615  -0.0016073976   21.923496      20.514575      1.4089204      0.017745108    74530.093    
     78000   0.83947996     0.0023323615  -0.00062768559  21.726727      20.480099      1.2466277      0.0054510099   75218.397    
     79000   1.0090614      0.0023323615  -0.00080262643  22.068192      20.569736      1.4984562      0.00023011166  75758.706    
     80000   1.1217643      0.0023323615  -0.0038177864   22.367902      20.702082      1.66582        0.032902439    75049.349    
     81000   1.0240158      0.0023323615   0.00023547123  22.031597      20.510933      1.5206635      0.0068767308   74689.878    
     82000   1.003236       0.0023323615  -0.0022802982   21.894199      20.404393      1.4898055      0.019136282    73562.731    
     83000   1.0554159      0.0023323615   0.004011718    22.104562      20.537269      1.5672927      0.0080869707   73543.764    
     84000   0.83527346     0.0023323615  -0.0034122221   21.874648      20.634267      1.2403811      0.0030083664   74574.752    
     85000   1.036002       0.0023323615   0.0013573923   21.962923      20.42446       1.5384629      0.015709144    75215.217    
     86000   0.9432002      0.0023323615  -0.0032183248   21.913588      20.512936      1.4006523      0.013730309    74896.123    
     87000   0.95566008     0.0023323615  -0.00049614223  21.91653       20.497375      1.4191552      0.0035862035   74250.328    
     88000   0.93373351     0.0023323615  -0.00097093893  21.870485      20.483891      1.3865943      0.0018212145   74052.451    
     89000   0.9684944      0.0023323615  -0.00047342045  21.973429      20.535215      1.4382142      0.00087524744  74135.453    
     90000   0.98293324     0.0023323615  -0.0032204602   22.050919      20.591263      1.4596559      0.015353933    75601.653    
     91000   1.0832827      0.0023323615   0.0048517083   22.11977       20.511095      1.6086749      0.0052867789   76430.015    
     92000   0.85899662     0.0023323615  -0.0013049519   21.765697      20.490087      1.27561        0.0024124001   74344.506    
     93000   0.96176266     0.0023323615  -4.4223672e-05  21.874222      20.446004      1.4282176      0.0045653365   76323.352    
     94000   0.96019503     0.0023323615   0.00024459347  21.944954      20.519064      1.4258896      3.8053462e-05  75389.805    
     95000   0.94702149     0.0023323615  -0.0033658915   21.86315       20.456823      1.4063269      0              76259.967    
     96000   0.91119348     0.0023323615  -0.0013197298   21.825018      20.471896      1.3531223      0.00043282989  75051.607    
     97000   1.0016687      0.0023323615  -0.0019514304   22.013024      20.525546      1.487478       0.0048369955   74471.87     
     98000   1.02143        0.0023323615  -0.0057874974   22.177965      20.661142      1.5168235      0              73240.317    
     99000   1.032786       0.0023323615   0.0018228259   21.975336      20.441649      1.5336871      7.1595851e-05  76379.537    
    100000   1.0594928      0.0023323615   0.0036169719   22.011024      20.437677      1.5733468      0.00032948157  74855.902    
    100362   1.1904942      0.0023323615  -0.00089755607  22.316856      20.548972      1.7678839      0.00063845255  73823.871    
Loop time of 1.34007 on 1 procs for 100000 steps with 100 atoms

Performance: 32237206.524 tau/day, 74623.163 timesteps/s
98.5% CPU use with 1 MPI tasks x 1 OpenMP threads

MPI task timing breakdown:
Section |  min time  |  avg time  |  max time  |%varavg| %total
---------------------------------------------------------------
Pair    | 0.050465   | 0.050465   | 0.050465   |   0.0 |  3.77
Bond    | 0.13927    | 0.13927    | 0.13927    |   0.0 | 10.39
Neigh   | 0.80674    | 0.80674    | 0.80674    |   0.0 | 60.20
Comm    | 0.056449   | 0.056449   | 0.056449   |   0.0 |  4.21
Output  | 0.0013216  | 0.0013216  | 0.0013216  |   0.0 |  0.10
Modify  | 0.25079    | 0.25079    | 0.25079    |   0.0 | 18.71
Other   |            | 0.03503    |            |       |  2.61

Nlocal:            100 ave         100 max         100 min
Histogram: 1 0 0 0 0 0 0 0 0 0
Nghost:             60 ave          60 max          60 min
Histogram: 1 0 0 0 0 0 0 0 0 0
Neighs:             36 ave          36 max          36 min
Histogram: 1 0 0 0 0 0 0 0 0 0

Total # of neighbors = 36
Ave neighs/atom = 0.36
Ave special neighs/atom = 1.98
Neighbor list builds = 9821
Dangerous builds = 8265
unfix           nvtSoft
unfix           rampSoft
reset_timestep  0

write_data      ${outputfile_relaxed}
write_data      5_relaxed.data
System init for write_data ...
Generated 0 of 6 mixed pair_coeff terms from geometric mixing rule
WARNING: Communication cutoff 1.3 is shorter than a bond length based estimate of 1.7550000000000001. This may lead to errors. (src/comm.cpp:727)
WARNING: Not all mixed pair coeffs generated from mixing. Use write_data with 'pair ij' option to store all pair coeffs. (src/write_data.cpp:309)

###########################################################################
# Full LJ with Coulomb
######################################################################

# Cutoffs and parameters:
# - Values: Marcel Verkade's Bachelor Thesis
# - Mapping to atom groups: Patrick Onck's paper
# - 1: aliphatic, 2: aromatic, 3: anion, 4: cation
# pair_style	lj/cut/coul/cut <lj_cut_global> <coul_cut_global>
# pair_coeff	<type_1>  <type_2>  <eps>  <sigma>  <r_cut_lj>  <r_cut_coul>

# Problem: Onck's model is much more complex, and Marcel has no sigma reported
# Using sigma=1 randomly

variable		glob_ljeps equal 1.0
variable		glob_ljsig 	equal 1.0
variable		glob_coulcut equal 10.0
variable		att_ljcut equal 2.50
variable		rep_ljcut equal 1.12

pair_style		lj/cut/coul/cut 						${att_ljcut} 	${glob_coulcut}
pair_style		lj/cut/coul/cut 						2.5 	${glob_coulcut}
pair_style		lj/cut/coul/cut 						2.5 	10
pair_coeff		1 1 	${glob_ljeps} 	${glob_ljsig}	${att_ljcut} 	${glob_coulcut}
pair_coeff		1 1 	1 	${glob_ljsig}	${att_ljcut} 	${glob_coulcut}
pair_coeff		1 1 	1 	1	${att_ljcut} 	${glob_coulcut}
pair_coeff		1 1 	1 	1	2.5 	${glob_coulcut}
pair_coeff		1 1 	1 	1	2.5 	10
pair_coeff		1 2 	${glob_ljeps} 	${glob_ljsig}	${att_ljcut} 	${glob_coulcut}
pair_coeff		1 2 	1 	${glob_ljsig}	${att_ljcut} 	${glob_coulcut}
pair_coeff		1 2 	1 	1	${att_ljcut} 	${glob_coulcut}
pair_coeff		1 2 	1 	1	2.5 	${glob_coulcut}
pair_coeff		1 2 	1 	1	2.5 	10
pair_coeff		1 3 	${glob_ljeps} 	${glob_ljsig}	${rep_ljcut} 	${glob_coulcut}
pair_coeff		1 3 	1 	${glob_ljsig}	${rep_ljcut} 	${glob_coulcut}
pair_coeff		1 3 	1 	1	${rep_ljcut} 	${glob_coulcut}
pair_coeff		1 3 	1 	1	1.12 	${glob_coulcut}
pair_coeff		1 3 	1 	1	1.12 	10
pair_coeff		1 4 	${glob_ljeps} 	${glob_ljsig}	${rep_ljcut} 	${glob_coulcut}
pair_coeff		1 4 	1 	${glob_ljsig}	${rep_ljcut} 	${glob_coulcut}
pair_coeff		1 4 	1 	1	${rep_ljcut} 	${glob_coulcut}
pair_coeff		1 4 	1 	1	1.12 	${glob_coulcut}
pair_coeff		1 4 	1 	1	1.12 	10
pair_coeff		2 2 	${glob_ljeps} 	${glob_ljsig}	${att_ljcut} 	${glob_coulcut}
pair_coeff		2 2 	1 	${glob_ljsig}	${att_ljcut} 	${glob_coulcut}
pair_coeff		2 2 	1 	1	${att_ljcut} 	${glob_coulcut}
pair_coeff		2 2 	1 	1	2.5 	${glob_coulcut}
pair_coeff		2 2 	1 	1	2.5 	10
pair_coeff		2 3 	${glob_ljeps} 	${glob_ljsig}	${rep_ljcut} 	${glob_coulcut}
pair_coeff		2 3 	1 	${glob_ljsig}	${rep_ljcut} 	${glob_coulcut}
pair_coeff		2 3 	1 	1	${rep_ljcut} 	${glob_coulcut}
pair_coeff		2 3 	1 	1	1.12 	${glob_coulcut}
pair_coeff		2 3 	1 	1	1.12 	10
pair_coeff		2 4 	${glob_ljeps} 	${glob_ljsig}	${att_ljcut} 	${glob_coulcut}
pair_coeff		2 4 	1 	${glob_ljsig}	${att_ljcut} 	${glob_coulcut}
pair_coeff		2 4 	1 	1	${att_ljcut} 	${glob_coulcut}
pair_coeff		2 4 	1 	1	2.5 	${glob_coulcut}
pair_coeff		2 4 	1 	1	2.5 	10
pair_coeff		3 3 	${glob_ljeps} 	${glob_ljsig}	${rep_ljcut} 	${glob_coulcut}
pair_coeff		3 3 	1 	${glob_ljsig}	${rep_ljcut} 	${glob_coulcut}
pair_coeff		3 3 	1 	1	${rep_ljcut} 	${glob_coulcut}
pair_coeff		3 3 	1 	1	1.12 	${glob_coulcut}
pair_coeff		3 3 	1 	1	1.12 	10
pair_coeff		3 4 	${glob_ljeps} 	${glob_ljsig}	${att_ljcut} 	${glob_coulcut}
pair_coeff		3 4 	1 	${glob_ljsig}	${att_ljcut} 	${glob_coulcut}
pair_coeff		3 4 	1 	1	${att_ljcut} 	${glob_coulcut}
pair_coeff		3 4 	1 	1	2.5 	${glob_coulcut}
pair_coeff		3 4 	1 	1	2.5 	10
pair_coeff		4 4 	${glob_ljeps} 	${glob_ljsig}	${rep_ljcut} 	${glob_coulcut}
pair_coeff		4 4 	1 	${glob_ljsig}	${rep_ljcut} 	${glob_coulcut}
pair_coeff		4 4 	1 	1	${rep_ljcut} 	${glob_coulcut}
pair_coeff		4 4 	1 	1	1.12 	${glob_coulcut}
pair_coeff		4 4 	1 	1	1.12 	10


fix             noDriftRot 	all momentum 10 linear 1 1 1 angular
fix             nvt1 		all nvt temp ${Temp} ${Temp} 0.5
fix             nvt1 		all nvt temp 1 ${Temp} 0.5
fix             nvt1 		all nvt temp 1 1 0.5

# dump          assemble 	all custom 1000 				${outputfile_selfasb} id type xu yu zu vx vy vz
dump            lindump 	all custom ${subsample_rate} 	${outputfile_trajlin} id type xu yu zu vx vy vz
dump            lindump 	all custom 1000 	${outputfile_trajlin} id type xu yu zu vx vy vz
dump            lindump 	all custom 1000 	6_b_trajlin.data id type xu yu zu vx vy vz

run             ${runtime}
run             1000000
Generated 0 of 6 mixed pair_coeff terms from geometric mixing rule
Neighbor list info ...
  update every 1 steps, delay 10 steps, check yes
  max neighbors/atom: 2000, page size: 100000
  master list distance cutoff = 10.3
  ghost atom cutoff = 10.3
  binsize = 5.15, bins = 7 7 7
  1 neighbor lists, perpetual/occasional/extra = 1 0 0
  (1) pair lj/cut/coul/cut, perpetual
      attributes: half, newton on
      pair build: half/bin/newton
      stencil: half/bin/3d
      bin: standard
Per MPI rank memory allocation (min/avg/max) = 7.712 | 7.712 | 7.712 Mbytes
   Step          Temp         Density         Press          TotEng         PotEng         KinEng         E_pair         S/CPU     
         0   1.1904942      0.0023323615  -0.0014002642   21.969372      20.201488      1.7678839     -0.34684595     0            
      1000   1.0145794      0.0023323615   0.0031010526   21.252246      19.745596      1.5066504     -0.76823164     32842.44     
      2000   0.99554537     0.0023323615   0.00095144131  21.229359      19.750974      1.4783849     -0.86024167     29220.645    
      3000   0.8914348      0.0023323615   0.0024562956   20.958874      19.635093      1.3237807     -0.8985255      23822.083    
      4000   0.99684872     0.0023323615   0.0038839474   20.469696      18.989376      1.4803203     -1.3179266      18837.167    
      5000   0.96226128     0.0023323615   0.001952498    20.586796      19.157838      1.428958      -1.2360517      18060.747    
      6000   0.8627904      0.0023323615  -0.0011049338   20.402474      19.121231      1.2812437     -1.3914706      17872.968    
      7000   0.93385563     0.0023323615   0.0015034599   20.429622      19.042846      1.3867756     -1.5386121      17937.494    
      8000   0.96213119     0.0023323615   2.6716149e-05  20.384238      18.955473      1.4287648     -1.5509739      18002.276    
      9000   1.0172239      0.0023323615   0.001282741    20.476986      18.966408      1.5105776     -1.4799835      17999.159    
     10000   0.97433598     0.0023323615   0.0033688448   20.315359      18.86847       1.4468889     -1.5942008      17817.706    
     11000   1.0294203      0.0023323615  -0.00088039839  20.789199      19.26051       1.5286891     -1.4017024      17808.229    
     12000   0.92183721     0.0023323615   0.0015072016   20.242169      18.87324       1.3689283     -1.5453         17914.134    
     13000   0.89564174     0.0023323615  -0.0031887394   20.390948      19.06092       1.330028      -1.550415       17811.54     
     14000   1.0797035      0.0023323615   0.0043431819   20.704071      19.100711      1.6033597     -1.3152682      17796.846    
     15000   0.95949924     0.0023323615   0.0011158633   20.219797      18.79494       1.4248564     -1.5936445      17873.577    
     16000   0.94520699     0.0023323615  -7.4260582e-05  20.17078       18.767148      1.4036324     -1.7398503      17757.225    
     17000   0.96994646     0.0023323615  -0.0030822339   20.708188      19.267817      1.4403705     -1.2468164      17687.459    
     18000   1.0668254      0.0023323615   0.0014764616   20.555046      18.97081       1.5842357     -1.4209858      17771.851    
     19000   1.1708462      0.0023323615  -0.0012624759   21.020479      19.281773      1.7387066     -1.2879095      17970.738    
     20000   0.98350556     0.0023323615   0.0022355555   20.458921      18.998415      1.4605058     -1.5623763      17609.68     
     21000   1.0744951      0.0023323615   0.0030972066   20.619212      19.023586      1.5956252     -1.5720949      17775.506    
     22000   1.0067793      0.0023323615  -0.0026586517   20.519985      19.024918      1.4950672     -1.483553       17618.038    
     23000   1.1429904      0.0023323615   0.0075722202   20.555496      18.858155      1.6973407     -1.6513869      17667.185    
     24000   1.1066107      0.0023323615   0.00047907046  20.635618      18.992301      1.6433169     -1.5782098      17600.997    
     25000   1.0721043      0.0023323615  -0.0034830692   20.688887      19.096812      1.5920749     -1.3950863      17609.888    
     26000   1.0609443      0.0023323615   0.0026249892   20.622931      19.047428      1.5755023     -1.4072353      17718.072    
     27000   1.2315453      0.0023323615   0.00051132128  20.915433      19.086589      1.8288448     -1.5380753      17646.878    
     28000   1.0619889      0.0023323615  -0.003941848    20.382083      18.805029      1.5770536     -1.6585778      17621.998    
     29000   0.9849472      0.0023323615  -0.0031156717   20.57614       19.113493      1.4626466     -1.4776964      17606.567    
     30000   0.99831778     0.0023323615   0.0018909175   20.371702      18.8892        1.4825019     -1.621211       17610.77     
     31000   0.8824187      0.0023323615   0.0034915389   20.630842      19.32045       1.3103918     -1.3187777      17846.531    
     32000   1.042854       0.0023323615  -0.00021642695  20.561778      19.01314       1.5486381     -1.5534137      17870.239    
     33000   1.0081214      0.0023323615  -0.0015422643   20.442887      18.945826      1.4970603     -1.5700367      17809.951    
     34000   1.0326012      0.0023323615  -0.0036197253   20.401915      18.868502      1.5334127     -1.5420658      17725.642    
     35000   0.91179328     0.0023323615  -0.0038457644   20.300401      18.946388      1.354013      -1.5890176      17761.427    
     36000   0.97509606     0.0023323615   0.00020851003  20.644498      19.19648       1.4480177     -1.4078847      17687.193    
     37000   1.0387         0.0023323615  -0.0022430765   20.760819      19.21835       1.5424695     -1.4018728      17798.15     
     38000   1.0028112      0.0023323615  -0.0010452927   20.465699      18.976524      1.4891747     -1.5527684      17566.811    
     39000   1.1136961      0.0023323615  -0.002788329    20.47024       18.816401      1.6538387     -1.618841       17686.356    
     40000   0.91585152     0.0023323615  -0.0013368494   20.402126      19.042087      1.3600395     -1.5359739      17740.166    
     41000   0.98995143     0.0023323615  -0.0017973727   20.824485      19.354407      1.4700779     -1.208212       17898.278    
     42000   0.94076104     0.0023323615  -0.00099863052  20.208208      18.811177      1.3970301     -1.6170272      17765.123    
     43000   0.97534136     0.0023323615  -0.0013149222   20.18348       18.735098      1.4483819     -1.7112647      17514.522    
     44000   0.90400884     0.0023323615  -0.00027817206  20.460088      19.117635      1.3424531     -1.5566434      17494.841    
     45000   0.9764121      0.0023323615  -0.0054543472   20.267886      18.817914      1.449972      -1.6965185      17502.584    
     46000   1.0037098      0.0023323615  -0.0045067269   20.381711      18.891201      1.4905091     -1.6006423      17812.046    
     47000   0.97871207     0.0023323615   0.001393382    20.112762      18.659374      1.4533874     -1.8743506      17735.173    
     48000   1.0286745      0.0023323615  -0.0029335051   20.358483      18.830902      1.5275817     -1.6304365      17728.193    
     49000   0.93375077     0.0023323615  -0.0017105752   20.236664      18.850044      1.3866199     -1.6313223      17854.48     
     50000   1.0001128      0.0023323615   0.0025210476   20.12071       18.635542      1.4851675     -1.8587751      17360.537    
     51000   1.0533778      0.0023323615  -0.00025276188  20.350892      18.786626      1.5642661     -1.7921228      17597.733    
     52000   0.91519369     0.0023323615   0.00026846452  20.040789      18.681727      1.3590626     -1.7705599      17647.606    
     53000   0.99199445     0.0023323615   0.0029236694   20.393295      18.920184      1.4731118     -1.6879328      17713.352    
     54000   0.98838661     0.0023323615   0.0016326961   20.249997      18.782243      1.4677541     -1.6014778      17641.679    
     55000   0.78099907     0.0023323615  -0.0034239892   20.027849      18.868065      1.1597836     -1.6453325      17694.48     
     56000   0.97938654     0.0023323615  -0.0010980091   20.314913      18.860524      1.454389      -1.7397871      17716.883    
     57000   0.81335657     0.0023323615  -0.001439379    20.208691      19.000856      1.2078345     -1.4174888      17838.891    
     58000   0.95362465     0.0023323615  -0.001177762    20.383807      18.967675      1.4161326     -1.5382884      17695.565    
     59000   0.95485353     0.0023323615   0.00063420927  20.784952      19.366994      1.4179575     -1.2361732      17900.775    
     60000   1.0186264      0.0023323615  -0.0012102155   20.547833      19.035172      1.5126602     -1.5161548      17964.448    
     61000   0.99903554     0.0023323615   0.002365739    20.55909       19.075522      1.4835678     -1.4216463      18015.077    
     62000   1.0024702      0.0023323615   0.0015556712   20.745976      19.257308      1.4886682     -1.2009858      17900.015    
     63000   0.97119548     0.0023323615   0.00021122308  20.444987      19.002762      1.4422253     -1.4437266      17700.724    
     64000   1.0428855      0.0023323615   0.0020825517   20.467561      18.918876      1.548685      -1.5520762      17755.304    
     65000   1.0488961      0.0023323615   0.0023708067   20.907088      19.349478      1.5576107     -1.3053206      17897.152    
     66000   1.001448       0.0023323615  -0.0019607222   20.377538      18.890388      1.4871503     -1.6100292      17731.354    
     67000   0.97094475     0.0023323615  -0.0019375843   20.228797      18.786944      1.4418529     -1.719262       17726.678    
     68000   0.86615289     0.0023323615   0.0015039822   20.64426       19.358023      1.286237      -1.2275248      18174.086    
     69000   0.98502749     0.0023323615   0.00077089764  20.588176      19.12541       1.4627658     -1.4018774      18266.034    
     70000   1.0727178      0.0023323615  -0.0013735228   20.771999      19.179013      1.592986      -1.2796604      18564.339    
     71000   1.0213774      0.0023323615  -0.0021026401   20.926745      19.41          1.5167454     -1.2168713      18136.37     
     72000   0.99635236     0.0023323615   0.0027482382   20.581027      19.101443      1.4795832     -1.4295681      18024.688    
     73000   0.93208817     0.0023323615  -0.0059009093   20.36971       18.985559      1.3841509     -1.4867385      17898.49     
     74000   0.95492025     0.0023323615  -0.0035281721   20.364223      18.946166      1.4180566     -1.6803145      17646.298    
     75000   1.0003152      0.0023323615   0.0028831666   20.278871      18.793403      1.4854681     -1.6724862      17609.033    
     76000   0.96619342     0.0023323615  -0.0034367719   20.500456      19.065659      1.4347972     -1.4869743      17146.895    
     77000   1.1174795      0.0023323615  -0.0028948673   20.434482      18.775025      1.6594571     -1.6279454      17491.5      
     78000   1.0391799      0.0023323615   0.0039354534   20.676424      19.133241      1.5431822     -1.2647172      17915.221    
     79000   0.99404256     0.0023323615   0.00099416625  20.543292      19.067139      1.4761532     -1.527392       17762.154    
     80000   1.0219441      0.0023323615   0.0024985585   20.650255      19.132668      1.517587      -1.4151682      17896.099    
     81000   0.86739783     0.0023323615   0.00028730816  20.421345      19.133259      1.2880858     -1.5038774      17752.228    
     82000   0.99804876     0.0023323615  -0.0006657997   20.557152      19.075049      1.4821024     -1.4748266      17624.465    
     83000   0.96939294     0.0023323615   0.0015242659   20.573524      19.133975      1.4395485     -1.3690062      17567.142    
     84000   1.087968       0.0023323615   0.0037725357   20.61403       18.998398      1.6156326     -1.584125       17767.558    
     85000   0.98855461     0.0023323615  -0.0031161793   20.522844      19.054841      1.4680036     -1.5023358      17814.278    
     86000   1.0247143      0.0023323615   0.0012909255   20.468378      18.946678      1.5217008     -1.5984807      17739.394    
     87000   1.1553439      0.0023323615   0.00088177021  20.550038      18.834352      1.7156857     -1.4993382      17739.958    
     88000   1.1431227      0.0023323615   0.001337414    20.725015      19.027478      1.6975372     -1.5555062      17704.194    
     89000   0.92045458     0.0023323615  -0.0036404539   20.32964       18.962765      1.366875      -1.6059982      17653.739    
     90000   1.0833518      0.0023323615   0.0051003698   20.441403      18.832625      1.6087774     -1.5924655      17885.911    
     91000   0.94620323     0.0023323615  -0.0019943043   20.334105      18.928993      1.4051118     -1.5385454      17697.768    
     92000   0.99651463     0.0023323615  -0.0022861614   20.496619      19.016794      1.4798242     -1.5410414      17643.173    
     93000   0.97955819     0.0023323615   0.0016008678   20.352056      18.897412      1.4546439     -1.556065       17717.411    
     94000   1.0267214      0.0023323615   0.0023684223   20.518766      18.994085      1.5246813     -1.5397748      17834.098    
     95000   0.98638226     0.0023323615   0.00043705481  20.130909      18.666131      1.4647777     -1.780034       17729.128    
     96000   0.94048697     0.0023323615   0.00036424369  20.305026      18.908403      1.3966231     -1.6887035      17541.15     
     97000   1.0851897      0.0023323615   0.00049362653  20.643264      19.031757      1.6115067     -1.5797469      17741.528    
     98000   0.96812165     0.0023323615  -0.0041828253   20.437058      18.999397      1.4376607     -1.5508152      17674.815    
     99000   1.0034784      0.0023323615  -0.00090148212  20.143099      18.652934      1.4901655     -1.7876121      17594.519    
    100000   1.0121016      0.0023323615  -0.0028524484   20.698784      19.195813      1.5029709     -1.4796513      17630.455    
    101000   1.013203       0.0023323615  -0.00072609162  20.398371      18.893765      1.5046065     -1.4916855      17752.61     
    102000   1.1079295      0.0023323615   0.00015618702  20.41137       18.766095      1.6452753     -1.7506461      17575.231    
    103000   0.99590547     0.0023323615   0.0021410358   20.426888      18.947968      1.4789196     -1.5537502      17582.317    
    104000   0.87303988     0.0023323615   0.00096608441  20.079945      18.783481      1.2964642     -1.6223552      17576.348    
    105000   1.0453366      0.0023323615   0.0046471828   20.385839      18.833514      1.5523248     -1.7811435      17593.831    
    106000   0.96132897     0.0023323615   0.0029402143   20.309441      18.881867      1.4275735     -1.5969324      17679.527    
    107000   1.0459531      0.0023323615   0.0013942533   20.251708      18.698468      1.5532404     -1.7785048      17614.257    
    108000   1.0471976      0.0023323615   0.003879187    20.629209      19.074121      1.5550884     -1.514591       17579.1      
    109000   0.94617918     0.0023323615   0.0025729591   20.404349      18.999273      1.4050761     -1.4976375      17636.885    
    110000   0.91340247     0.0023323615   0.00055888878  20.641982      19.285579      1.3564027     -1.2501268      17724.579    
    111000   0.98299303     0.0023323615  -0.002638223    20.222675      18.76293       1.4597446     -1.6375061      17654.744    
    112000   1.0143908      0.0023323615   0.00046240505  20.398753      18.892382      1.5063703     -1.5110551      17597.1      
    113000   0.93790272     0.0023323615   0.0037321093   20.250881      18.858095      1.3927855     -1.5939548      17672.152    
    114000   0.97392126     0.0023323615   0.00089276293  20.336244      18.889971      1.4462731     -1.6316769      17745.802    
    115000   1.0278838      0.0023323615   0.0034164605   20.329741      18.803334      1.5264075     -1.7037851      17666.025    
    116000   0.93949042     0.0023323615   0.0072741642   20.281629      18.886486      1.3951433     -1.6383608      17488.223    
    117000   0.92885801     0.0023323615  -0.0002498976   20.131029      18.751675      1.3793541     -1.811824       17610.777    
    118000   1.0207161      0.0023323615   0.0072290709   20.475329      18.959565      1.5157635     -1.5679888      17586.825    
    119000   1.2142334      0.0023323615   0.0027634916   20.673966      18.870829      1.8031366     -1.7080005      17728.709    
    120000   1.1548049      0.0023323615   0.0030362369   20.600974      18.886089      1.7148853     -1.5484644      17809.004    
    121000   0.9558409      0.0023323615   0.00068079775  20.560514      19.14109       1.4194237     -1.3666338      17840.721    
    122000   1.0150851      0.0023323615   0.00038152547  20.65451       19.147109      1.5074013     -1.4133976      17829.131    
    123000   0.93136034     0.0023323615   0.0035509169   20.326434      18.943363      1.3830701     -1.5566527      17725.504    
    124000   0.90548772     0.0023323615   0.0013370624   20.171158      18.826509      1.3446493     -1.6460079      17834.955    
    125000   1.026443       0.0023323615   0.0060366621   20.500057      18.975789      1.5242678     -1.5911686      17812.631    
    126000   0.91351161     0.0023323615  -0.0028696662   20.437161      19.080596      1.3565647     -1.4171882      17797.258    
    127000   0.85577437     0.0023323615  -0.00026751103  20.050651      18.779826      1.2708249     -1.594438       17776.883    
    128000   1.0401473      0.0023323615  -0.0014276382   20.658775      19.114156      1.5446188     -1.5330051      17671.417    
    129000   1.0234859      0.0023323615  -0.00049513675  20.609478      19.089602      1.5198766     -1.4667305      17722.766    
    130000   1.0587641      0.0023323615  -0.0014148965   20.45656       18.884295      1.5722647     -1.5870238      17734.826    
    131000   0.99623322     0.0023323615  -0.0024672115   20.59656       19.117154      1.4794063     -1.4715654      17750.113    
    132000   1.0336846      0.0023323615  -0.002124253    20.544878      19.009856      1.5350217     -1.5244397      17706.998    
    133000   1.0398154      0.0023323615  -0.0010091919   20.903379      19.359253      1.5441259     -1.1183361      17830.622    
    134000   0.93773329     0.0023323615  -0.00021454075  20.452365      19.059831      1.3925339     -1.4423121      17940.486    
    135000   0.92235757     0.0023323615   0.0014161691   20.439967      19.070266      1.369701      -1.5093729      17752.774    
    136000   0.90896569     0.0023323615   0.0024272621   20.166315      18.816501      1.349814      -1.6641001      17872.245    
    137000   1.0287732      0.0023323615  -0.00064514792  20.473355      18.945627      1.5277282     -1.4951214      17952.37     
    138000   0.98407532     0.0023323615  -0.000375357    20.350664      18.889312      1.4613519     -1.6360896      18028.861    
    139000   1.0796342      0.0023323615   0.00039549423  20.692659      19.089402      1.6032568     -1.4928666      17693.58     
    140000   1.109456       0.0023323615  -0.00027838861  20.521455      18.873913      1.6475422     -1.6254618      17600.535    
    141000   0.96820882     0.0023323615  -0.00074047376  20.251789      18.813999      1.4377901     -1.6922011      17632.545    
    142000   0.82958987     0.0023323615  -0.0019376831   20.273836      19.041895      1.231941      -1.4813981      17592.215    
    143000   0.93095659     0.0023323615  -0.00048108096  20.272411      18.889941      1.3824705     -1.6319284      17672.077    
    144000   1.1276178      0.0023323615  -0.00070076957  20.638974      18.964461      1.6745124     -1.5460306      17623.762    
    145000   1.0219396      0.0023323615  -0.00013192992  20.50543       18.98785       1.5175803     -1.587892       17524.799    
    146000   1.0231233      0.0023323615  -0.0029166857   20.690019      19.170681      1.5193381     -1.3972164      17566.4      
    147000   1.1031043      0.0023323615  -0.0019603554   20.677953      19.039843      1.6381098     -1.4281261      17714.428    
    148000   0.94171501     0.0023323615   0.00058415928  20.228021      18.829574      1.3984468     -1.6129327      17668.004    
    149000   0.87703184     0.0023323615  -0.0038260001   20.340878      19.038486      1.3023923     -1.3794376      17662.505    
    150000   1.0303412      0.0023323615   0.00090389256  20.372144      18.842088      1.5300566     -1.6458947      17770.889    
    151000   0.98309493     0.0023323615  -0.00013523514  20.156727      18.696832      1.459896      -1.7913157      17499.028    
    152000   0.91036918     0.0023323615   0.003219144    20.14392       18.792022      1.3518982     -1.6585816      17181.254    
    153000   1.0045624      0.0023323615  -0.0015340137   20.291454      18.799679      1.4917751     -1.6526801      17472.586    
    154000   1.007659       0.0023323615  -0.0028582678   20.465121      18.968747      1.4963735     -1.4515672      17650.177    
    155000   0.9395868      0.0023323615   0.003328679    20.502492      19.107205      1.3952864     -1.3805288      17710.662    
    156000   0.98108865     0.0023323615   0.0032072115   20.508812      19.051896      1.4569167     -1.5002963      18034.52     
    157000   1.0237496      0.0023323615   0.0017397391   20.623948      19.10368       1.5202681     -1.4027124      17990.468    
    158000   0.94570251     0.0023323615  -0.0010372543   20.446123      19.041755      1.4043682     -1.451076       17638.658    
    159000   0.85652874     0.0023323615  -0.0022695047   20.269367      18.997422      1.2719452     -1.4102733      17674.731    
    160000   0.95591176     0.0023323615  -0.0038676836   20.300504      18.880975      1.419529      -1.7080404      17755.793    
    161000   0.98667298     0.0023323615   0.0021062118   20.483559      19.01835       1.4652094     -1.5450422      17594.274    
    162000   1.0795898      0.0023323615  -0.00062919483  20.638212      19.035021      1.6031908     -1.4736819      17534.682    
    163000   0.95682314     0.0023323615  -0.0018566454   20.233073      18.812191      1.4208824     -1.6658423      17633.046    
    164000   1.0864383      0.0023323615  -0.0017418596   20.644792      19.031431      1.6133609     -1.5416419      17579.195    
    165000   0.99259338     0.0023323615  -0.0028339181   20.440772      18.96677       1.4740012     -1.5664764      17909.477    
    166000   1.0401237      0.0023323615  -2.5591138e-05  20.196526      18.651942      1.5445837     -2.0218211      17707.083    
    167000   0.85435933     0.0023323615   0.00094207751  19.945712      18.676988      1.2687236     -1.7184444      17474.277    
    168000   1.1309917      0.0023323615   0.0030527197   20.772584      19.093062      1.6795227     -1.4808223      17623.267    
    169000   0.85415564     0.0023323615  -0.0052938144   20.14897       18.880549      1.2684211     -1.548114       17759.022    
    170000   0.96312761     0.0023323615  -0.0011447679   20.916323      19.486078      1.4302445     -1.2109845      17654.01     
    171000   1.0206249      0.0023323615   0.0028331371   20.365533      18.849905      1.5156279     -1.6413878      17684.607    
    172000   0.94731038     0.0023323615   0.00012405722  20.367971      18.961215      1.4067559     -1.5038817      17705.23     
    173000   0.93579724     0.0023323615  -0.00020073574  20.358673      18.969014      1.3896589     -1.6201613      17733.821    
    174000   1.0055729      0.0023323615  -0.0015815477   20.569685      19.076409      1.4932758     -1.5652404      17775.063    
    175000   1.0729726      0.0023323615  -0.0016540665   20.318094      18.72473       1.5933643     -1.7818848      17784.302    
    176000   0.96153419     0.0023323615   0.00069830889  20.447203      19.019324      1.4278783     -1.524824       17676.981    
    177000   1.0585466      0.0023323615  -0.0023713334   20.476019      18.904078      1.5719418     -1.6577713      17706.172    
    178000   1.0187372      0.0023323615  -0.0036250618   20.394104      18.88128       1.5128248     -1.5472498      17790.479    
    179000   1.1456848      0.0023323615  -0.0039807742   20.579911      18.878569      1.701342      -1.6180927      17625.505    
    180000   1.1961909      0.0023323615  -0.0011937735   20.816657      19.040313      1.7763435     -1.481843       17820.097    
    181000   0.85152063     0.0023323615  -0.0031066723   20.23572       18.971212      1.2645081     -1.5472683      17821.87     
    182000   0.98182789     0.0023323615  -0.0042842397   20.48682       19.028805      1.4580144     -1.4807652      17690.315    
    183000   1.0619628      0.0023323615  -0.0018534863   20.799826      19.222811      1.5770147     -1.2406334      17662.945    
    184000   0.84475456     0.0023323615  -0.0018373497   19.848039      18.593578      1.2544605     -1.8111575      17751.767    
    185000   1.0414998      0.0023323615   0.0047625329   20.499979      18.953352      1.5466273     -1.5272618      17486.609    
    186000   1.0129765      0.0023323615   4.5477688e-05  20.423318      18.919048      1.5042701     -1.6261004      17600.041    
    187000   0.89829985     0.0023323615  -0.001086873    20.370185      19.036209      1.3339753     -1.5395046      17458.766    
    188000   0.89066375     0.0023323615  -0.00084895727  19.953224      18.630588      1.3226357     -1.8639357      17677.968    
    189000   1.1358557      0.0023323615   0.0012180961   20.540178      18.853432      1.6867457     -1.6715737      17530.977    
    190000   1.0018057      0.0023323615  -0.0011936946   20.602983      19.115301      1.4876815     -1.3886039      17559.06     
    191000   0.99929994     0.0023323615   0.00040172384  20.223541      18.73958       1.4839604     -1.7741859      17616.21     
    192000   1.1035882      0.0023323615  -0.0030925097   20.696669      19.05784       1.6388284     -1.4488607      17753.643    
    193000   1.0371047      0.0023323615   0.00029527754  20.272144      18.732044      1.5401004     -1.7595734      17705.487    
    194000   0.9844027      0.0023323615  -0.0012518509   20.535702      19.073864      1.461838      -1.4674049      17718.625    
    195000   0.9748923      0.0023323615   0.0020400475   20.432379      18.984664      1.4477151     -1.5726372      17720.195    
    196000   1.0085624      0.0023323615   0.00037141727  20.705836      19.208121      1.4977152     -1.3737438      17853.224    
    197000   0.93287195     0.0023323615   0.0031573829   20.472214      19.086899      1.3853149     -1.4571292      17723.99     
    198000   1.0325647      0.0023323615  -0.0041626305   20.506849      18.973491      1.5333586     -1.5365374      17576.23     
    199000   1.0462605      0.0023323615   0.00072056287  20.40353       18.849833      1.5536969     -1.5568255      17738.965    
    200000   0.93960385     0.0023323615  -0.0025063787   20.297367      18.902055      1.3953117     -1.6379805      17587.37     
    201000   0.95438651     0.0023323615   0.0025959628   20.341896      18.924632      1.417264      -1.6351066      17630.389    
    202000   1.010026       0.0023323615   0.00026807517  20.361227      18.861338      1.4998886     -1.5948524      17801.769    
    203000   0.83567857     0.0023323615  -0.0014069761   19.857833      18.61685       1.2409827     -1.7700837      17621.027    
    204000   1.0649846      0.0023323615  -0.00012340534  20.40843       18.826928      1.5815022     -1.7248259      17737.701    
    205000   1.0550212      0.0023323615   0.00088958356  20.553179      18.986472      1.5667064     -1.5723144      17675.263    
    206000   0.92764162     0.0023323615   0.0019806123   20.515236      19.137688      1.3775478     -1.4379735      17781.957    
    207000   1.0098629      0.0023323615   0.00098934061  20.413314      18.913667      1.4996465     -1.535505       17625.094    
    208000   0.98681339     0.0023323615  -0.0012071339   20.258689      18.793271      1.4654179     -1.6931955      17132.238    
    209000   0.87639336     0.0023323615   0.0035411756   20.136188      18.834743      1.3014441     -1.6996897      17610.214    
    210000   1.0398732      0.0023323615  -0.0044527981   20.168872      18.62466       1.5442117     -1.8308202      17539.217    
    211000   1.0568315      0.0023323615  -0.00016868767  20.390194      18.820799      1.5693948     -1.7057904      17543.666    
    212000   0.97355258     0.0023323615  -0.0010239971   20.379231      18.933505      1.4457256     -1.6008074      17615.268    
    213000   0.99850478     0.0023323615  -0.00029295704  20.529523      19.046743      1.4827796     -1.4948551      17861.192    
    214000   1.0138951      0.0023323615   0.0014141785   20.473004      18.967369      1.5056342     -1.5584592      17814.681    
    215000   1.0706733      0.0023323615   0.0012547072   20.535636      18.945686      1.5899499     -1.6127138      17649.787    
    216000   0.97996679     0.0023323615  -0.0001115871   20.31171       18.856459      1.4552507     -1.6425669      17615.134    
    217000   0.97667562     0.0023323615  -0.0023506287   20.474761      19.024398      1.4503633     -1.4843391      17771.87     
    218000   0.89958806     0.0023323615   0.0018711731   20.517186      19.181298      1.3358883     -1.4324735      17851.769    
    219000   0.96776817     0.0023323615  -0.0012005945   20.505894      19.068758      1.4371357     -1.5207461      17756.473    
    220000   0.85732543     0.0023323615  -0.00055519862  20.330059      19.05693       1.2731283     -1.5983419      17776.14     
    221000   1.1612181      0.0023323615  -0.0016136931   20.490242      18.765833      1.7244089     -1.7445379      17738.917    
    222000   1.1741642      0.0023323615   0.0018802545   20.580987      18.837353      1.7436338     -1.5850178      17733.427    
    223000   1.0048605      0.0023323615  -0.0032229526   20.596019      19.103801      1.4922178     -1.5251466      17696.171    
    224000   1.0688252      0.0023323615  -0.0019713274   20.702224      19.115019      1.5872054     -1.4650252      17830.947    
    225000   0.97136822     0.0023323615   0.0012830622   20.497244      19.054762      1.4424818     -1.4254454      17777.985    
    226000   0.85941885     0.0023323615   0.00058028835  20.32995       19.053713      1.276237      -1.5292324      17632.937    
    227000   0.94740329     0.0023323615  -0.0021780561   20.407554      19.00066       1.4068939     -1.4878843      17692.212    
    228000   1.0326227      0.0023323615   0.0015688507   20.548804      19.01536       1.5334446     -1.4187128      17780.297    
    229000   0.90674447     0.0023323615  -0.003381816    20.426931      19.080416      1.3465155     -1.444553       17697.655    
    230000   0.9411791      0.0023323615  -0.0011716947   20.298022      18.900371      1.397651      -1.5275541      17710.944    
    231000   1.1643069      0.0023323615   0.0043655228   20.67871       18.949714      1.7289958     -1.6059402      17810.558    
    232000   0.96461909     0.0023323615  -0.0025982264   20.5344        19.101941      1.4324594     -1.5062918      17599.883    
    233000   1.0303436      0.0023323615   0.0038289872   20.430135      18.900075      1.5300603     -1.5931994      17655.921    
    234000   0.84503678     0.0023323615   0.0015433941   20.342455      19.087575      1.2548796     -1.4519221      17737.474    
    235000   0.95840955     0.0023323615  -0.0022698839   20.390174      18.966936      1.4232382     -1.5797275      17669.887    
    236000   0.94651994     0.0023323615  -0.0027214736   20.293366      18.887784      1.4055821     -1.5744853      17764.775    
    237000   0.96984366     0.0023323615  -0.00089364301  20.314455      18.874237      1.4402178     -1.650947       17593.486    
    238000   1.0441091      0.0023323615   0.0013687007   20.615917      19.065415      1.550502      -1.5522494      17556.046    
    239000   0.89724627     0.0023323615   0.00089300031  20.381537      19.049126      1.3324107     -1.5136465      17763.725    
    240000   0.98760953     0.0023323615  -0.0025055858   20.118706      18.652106      1.4666001     -1.802819       17534.882    
    241000   0.97034349     0.0023323615  -0.00070955613  20.563827      19.122867      1.4409601     -1.498901       17707.115    
    242000   0.96708033     0.0023323615  -0.0015527222   20.496815      19.060701      1.4361143     -1.5570067      17675.197    
    243000   1.1450374      0.0023323615  -0.0003578212   20.738781      19.038401      1.7003805     -1.4490059      17733.638    
    244000   0.9968783      0.0023323615   0.00093252624  20.532014      19.05165       1.4803643     -1.4374849      17928.108    
    245000   0.95834203     0.0023323615  -0.0024807952   20.288839      18.865701      1.4231379     -1.6891684      17604.993    
    246000   0.97433368     0.0023323615  -0.0017271294   20.261001      18.814116      1.4468855     -1.6724165      17513.388    
    247000   0.90794219     0.0023323615  -0.0016919255   20.269539      18.921245      1.3482942     -1.6001178      17484.899    
    248000   0.9177476      0.0023323615  -0.0048957471   20.276668      18.913813      1.3628552     -1.6109908      17795.773    
    249000   0.98825074     0.0023323615   0.0029661307   20.058691      18.591139      1.4675524     -1.8655651      17812.484    
    250000   0.95313415     0.0023323615  -0.00036362878  20.148706      18.733302      1.4154042     -1.6563296      17758.147    
    251000   1.0400975      0.0023323615  -0.0031015877   20.330048      18.785503      1.5445447     -1.7327236      17758.984    
    252000   1.0269627      0.0023323615  -0.0010110325   20.6525        19.127461      1.5250396     -1.4835961      17720.428    
    253000   0.83234124     0.0023323615  -0.00011054613  20.180419      18.944392      1.2360267     -1.4958024      17901.135    
    254000   1.0551735      0.0023323615   0.00017535331  20.310466      18.743534      1.5669326     -1.6656351      17926.334    
    255000   1.0020271      0.0023323615   0.0018875981   20.394307      18.906297      1.4880102     -1.724846       17721.932    
    256000   1.0472424      0.0023323615   0.00068923976  20.643248      19.088093      1.555155      -1.5473379      17836.412    
    257000   1.0877946      0.0023323615  -0.0025313183   20.570312      18.954937      1.615375      -1.5451383      17831.973    
    258000   1.028233       0.0023323615  -0.0014485754   20.624062      19.097136      1.526926      -1.3682958      17625.417    
    259000   0.93442654     0.0023323615   0.00026201624  20.473995      19.086372      1.3876234     -1.4611821      17894.876    
    260000   0.97284032     0.0023323615  -0.00096321879  20.504531      19.059863      1.4446679     -1.463256       17782.73     
    261000   0.89819848     0.0023323615  -0.0027435505   20.396878      19.063053      1.3338247     -1.5126744      17839.577    
    262000   0.99260346     0.0023323615  -0.002376746    20.407452      18.933436      1.4740161     -1.5361994      17526.538    
    263000   0.94458099     0.0023323615   0.0015607948   20.113456      18.710753      1.4027028     -1.8164783      17667.135    
    264000   1.1682671      0.0023323615   0.0018248553   20.592923      18.858046      1.7348767     -1.677175       17575.939    
    265000   0.94184432     0.0023323615  -0.0030157551   20.445187      19.046548      1.3986388     -1.5225258      17715.034    
    266000   0.8709834      0.0023323615   2.0968331e-05  20.395201      19.101791      1.2934103     -1.48493        17637.882    
    267000   1.0481541      0.0023323615  -0.00058945065  20.520411      18.963902      1.5565089     -1.5649672      17764.247    
    268000   0.99789716     0.0023323615   0.00077440222  20.384639      18.902762      1.4818773     -1.5363766      17671.238    
    269000   0.97385752     0.0023323615   0.00057876123  20.472807      19.026628      1.4461784     -1.4592921      17578.038    
    270000   1.0517056      0.0023323615   0.002303812    20.25806       18.696278      1.5617827     -1.7173122      17646.897    
    271000   1.0511559      0.0023323615  -0.0032599957   20.526195      18.965228      1.5609665     -1.6380688      17556.17     
    272000   1.1265311      0.0023323615   0.0003767135   20.576915      18.904016      1.6728986     -1.6689333      17312.926    
    273000   1.0015         0.0023323615  -0.0028032074   20.515189      19.027961      1.4872275     -1.5151072      17589.952    
    274000   0.8980303      0.0023323615   0.0047999021   20.431019      19.097444      1.333575      -1.4199701      17587.268    
    275000   0.96885727     0.0023323615   0.001104607    20.516133      19.07738       1.438753      -1.4425659      17604.589    
    276000   0.85554735     0.0023323615  -0.0028857908   20.058312      18.787824      1.2704878     -1.6586643      17655.875    
    277000   1.0560141      0.0023323615  -0.0014143123   20.384014      18.815833      1.5681809     -1.6470258      17500.176    
    278000   1.0427522      0.0023323615   0.00019002278  20.749363      19.200876      1.548487      -1.4392888      17649.543    
    279000   1.0203437      0.0023323615  -0.0053093755   20.516431      19.00122       1.5152103     -1.5660022      17634.625    
    280000   0.91178079     0.0023323615   0.00013548594  20.403247      19.049252      1.3539945     -1.6645224      17571.781    
    281000   0.95316998     0.0023323615  -0.0022231052   20.662447      19.24699       1.4154574     -1.2933969      17656.806    
    282000   0.85597281     0.0023323615   0.0050896879   20.216583      18.945464      1.2711196     -1.4992223      17814.182    
    283000   1.0901225      0.0023323615   0.0008963688   20.650208      19.031376      1.6188319     -1.4892134      17590.805    
    284000   1.056768       0.0023323615  -0.0033703017   20.539421      18.970121      1.5693005     -1.5591627      17525.919    
    285000   0.89732219     0.0023323615  -0.0021411162   20.351478      19.018955      1.3325234     -1.5113808      17725.664    
    286000   0.99353954     0.0023323615   0.0032461208   20.276648      18.801242      1.4754062     -1.5394575      17626.382    
    287000   0.96641338     0.0023323615   0.00091683485  20.428738      18.993614      1.4351239     -1.5873807      17769.108    
    288000   1.0198307      0.0023323615   0.0048786287   20.275106      18.760658      1.5144486     -1.7004989      17720.148    
    289000   0.91466388     0.0023323615  -0.00068839233  20.13435       18.776074      1.3582759     -1.6995812      17680.783    
    290000   1.0358608      0.0023323615  -0.00022300595  20.477774      18.939521      1.5382533     -1.5041749      17662.029    
    291000   1.1226862      0.0023323615   0.0023901868   20.856761      19.189572      1.667189      -1.2726499      17790.676    
    292000   1.0985731      0.0023323615  -0.0020832954   20.693524      19.062143      1.6313811     -1.5014603      17975.435    
    293000   1.1132888      0.0023323615   0.0017344036   20.822471      19.169237      1.6532339     -1.4000618      17874.655    
    294000   0.93175598     0.0023323615  -0.00061885774  20.593371      19.209713      1.3836576     -1.3446508      18006.751    
    295000   0.95049005     0.0023323615   0.0013992713   20.694505      19.283027      1.4114777     -1.3394859      18124.593    
    296000   0.91360418     0.0023323615   0.0011744452   20.24991       18.893207      1.3567022     -1.5657959      17988.305    
    297000   0.90024551     0.0023323615  -0.0064494746   20.549669      19.212804      1.3368646     -1.4214598      17541.033    
    298000   0.95900334     0.0023323615  -0.00054503068  20.640561      19.216441      1.42412       -1.4213906      17754.359    
    299000   0.95327351     0.0023323615  -6.0128957e-05  20.46031       19.044699      1.4156112     -1.4489373      17662.18     
    300000   1.1657335      0.0023323615  -6.7572596e-05  20.886441      19.155327      1.7311142     -1.4173835      17582.766    
    301000   0.93556619     0.0023323615   0.00046295536  20.445307      19.055991      1.3893158     -1.461462       17587.643    
    302000   1.0799132      0.0023323615  -0.00027293613  20.518542      18.914871      1.6036711     -1.5073705      17697.109    
    303000   0.96755209     0.0023323615   0.0016126681   20.455069      19.018254      1.4368149     -1.4923469      17833.174    
    304000   0.8449867      0.0023323615  -0.0034236556   20.301498      19.046693      1.2548052     -1.5723389      17737.093    
    305000   1.0899308      0.0023323615   0.0015732251   20.577394      18.958847      1.6185472     -1.5658335      17718.757    
    306000   0.92972517     0.0023323615  -0.0016789095   19.943009      18.562367      1.3806419     -1.904788       17622.598    
    307000   0.84506739     0.0023323615  -0.00041144692  20.107525      18.8526        1.2549251     -1.8037728      17511.434    
    308000   0.94151835     0.0023323615  -0.0017490369   20.344515      18.94636       1.3981547     -1.5830744      17543.968    
    309000   0.9168626      0.0023323615  -0.0018638377   20.434713      19.073172      1.361541      -1.4325219      17646.944    
    310000   0.89929091     0.0023323615  -0.0061428801   20.360518      19.025071      1.335447      -1.4732021      17718.003    
    311000   1.1774532      0.0023323615  -0.0023556203   20.739125      18.990607      1.748518      -1.6070589      17806.856    
    312000   0.88723422     0.0023323615  -0.0036957516   20.150322      18.832779      1.3175428     -1.7056674      17625.894    
    313000   1.065463       0.0023323615  -0.0021518007   20.75629       19.174078      1.5822126     -1.3890667      17862.292    
    314000   1.1120144      0.0023323615  -0.0040600678   20.895497      19.244156      1.6513414     -1.2805963      18095.694    
    315000   1.0925208      0.0023323615  -0.0012841004   20.544003      18.921609      1.6223934     -1.6189934      18258.596    
    316000   1.04712        0.0023323615  -0.00084901802  20.471244      18.91627       1.5549732     -1.5319592      17533.844    
    317000   0.9433323      0.0023323615  -0.0010834721   20.530852      19.130003      1.4008485     -1.4504388      17606.94     
    318000   0.99448216     0.0023323615  -0.0012815112   20.532539      19.055733      1.476806      -1.5363975      17550.573    
    319000   1.0004843      0.0023323615   0.0014179326   20.364988      18.879269      1.4857191     -1.5984277      17723.433    
    320000   0.94753936     0.0023323615  -0.0011308334   20.632         19.224904      1.407096      -1.2599608      18040.055    
    321000   1.0117609      0.0023323615   0.0026631964   20.560012      19.057547      1.502465      -1.4561505      18046.167    
    322000   0.88542962     0.0023323615  -0.00029323244  20.447304      19.132441      1.314863      -1.4984448      18093.309    
    323000   0.87287368     0.0023323615   0.00010384133  20.353709      19.057491      1.2962174     -1.4252582      18501.594    
    324000   0.95459839     0.0023323615  -0.00037001959  20.809974      19.392396      1.4175786     -1.2069595      18734.196    
    325000   0.84387928     0.0023323615  -0.00032632251  20.485907      19.232746      1.2531607     -1.2969419      18853.475    
    326000   0.96495232     0.0023323615  -0.0014765201   20.769711      19.336757      1.4329542     -1.3735572      18486.944    
    327000   1.0613374      0.0023323615  -0.0011248166   20.61866       19.042574      1.576086      -1.3461446      17926.041    
    328000   1.0088178      0.0023323615  -0.0015428549   20.54513       19.047035      1.4980944     -1.5329059      17818.549    
    329000   0.97528673     0.0023323615  -0.0045900916   20.34703       18.898729      1.4483008     -1.6597049      17552.89     
    330000   1.0551137      0.0023323615   0.0029498814   20.607931      19.041087      1.5668439     -1.4405977      17843.197    
    331000   0.86759423     0.0023323615   0.001341159    20.209389      18.921012      1.2883774     -1.5160791      17828.246    
    332000   0.90316714     0.0023323615   0.0013476479   20.236025      18.894822      1.3412032     -1.5584326      17758.75     
    333000   1.0196739      0.0023323615  -0.00085699914  20.199627      18.685411      1.5142157     -1.7846801      17583.785    
    334000   1.0496493      0.0023323615  -0.0012160053   20.457713      18.898984      1.5587292     -1.5589788      17548.12     
    335000   0.87574672     0.0023323615  -0.0014582506   20.566624      19.26614       1.3004839     -1.3800279      17787.001    
    336000   0.92551314     0.0023323615  -0.00029625128  20.49209       19.117703      1.374387      -1.4515798      17785.616    
    337000   0.9336916      0.0023323615  -0.00071173242  19.94231       18.555778      1.386532      -1.8850814      17813.724    
    338000   0.90957477     0.0023323615  -0.0026033073   20.600852      19.250133      1.3507185     -1.2494935      17877.556    
    339000   1.0542511      0.0023323615  -0.00051784962  20.309159      18.743596      1.5655629     -1.6659304      17704.2      
    340000   1.0209682      0.0023323615  -0.0012936844   20.422859      18.906722      1.5161378     -1.6140493      17835.41     
    341000   1.1271377      0.0023323615  -0.0001309304   20.750233      19.076433      1.6737995     -1.4125623      17784.492    
    342000   1.0529661      0.0023323615  -0.0012408727   20.754947      19.191292      1.5636546     -1.3401261      17950.304    
    343000   1.0392484      0.0023323615  -0.0037207892   20.695311      19.152027      1.5432839     -1.3099244      18033.268    
    344000   1.005575       0.0023323615  -0.00079792899  20.507142      19.013863      1.4932789     -1.4592518      17762.284    
    345000   1.0790172      0.0023323615  -0.00022344118  20.331526      18.729186      1.6023405     -1.8040513      17648.956    
    346000   0.92391609     0.0023323615  -0.0029175434   20.390938      19.018923      1.3720154     -1.668026       17673.053    
    347000   0.93254331     0.0023323615  -0.001475386    20.309929      18.925102      1.3848268     -1.5796722      17674.618    
    348000   0.90303514     0.0023323615  -0.0020414946   20.053648      18.712641      1.3410072     -1.9062204      17557.025    
    349000   1.0529078      0.0023323615   0.0033531163   20.271126      18.707558      1.5635681     -1.7930841      17615.084    
    350000   1.0242002      0.0023323615   0.0051382895   20.38557       18.864633      1.5209373     -1.7224052      17775.186    
    351000   1.0514888      0.0023323615  -1.1092559e-05  20.438252      18.876791      1.5614609     -1.5746945      17793.245    
    352000   0.84905937     0.0023323615  -0.0030966258   20.149573      18.888719      1.2608532     -1.7699426      17896.77     
    353000   0.98355856     0.0023323615  -0.0021479843   20.543166      19.082581      1.4605845     -1.5622454      17814.179    
    354000   1.1405215      0.0023323615  -0.0035390894   20.826154      19.13248       1.6936745     -1.3526433      17807.94     
    355000   0.92356251     0.0023323615  -0.0016573435   20.368193      18.996703      1.3714903     -1.5105524      18034.243    
    356000   0.99368285     0.0023323615   0.0021790383   20.44044       18.964821      1.475619      -1.6576208      17816.385    
    357000   0.92795176     0.0023323615  -0.0041247585   20.151145      18.773137      1.3780084     -1.665821       17738.152    
    358000   0.95545539     0.0023323615   0.0059797272   20.291099      18.872247      1.4188513     -1.6191036      17739.371    
    359000   1.0630498      0.0023323615  -0.0011579043   20.218971      18.640342      1.578629      -1.8067586      17768.143    
    360000   0.76192632     0.0023323615  -0.0022521406   19.801394      18.669933      1.1314606     -1.8706885      17698.392    
    361000   1.0714859      0.0023323615   0.0028752566   20.513293      18.922136      1.5911566     -1.6573418      17664.962    
    362000   1.0740774      0.0023323615   0.0024643215   20.46721       18.872205      1.5950049     -1.7221755      17448.736    
    363000   0.93089995     0.0023323615   0.0032001581   20.167785      18.785399      1.3823864     -1.6813898      17573.12     
    364000   1.051398       0.0023323615  -0.00054412777  20.648002      19.086676      1.561326      -1.5220699      17726.14     
    365000   1.1470579      0.0023323615  -0.0034072511   20.55943       18.856049      1.7033809     -1.58619        17867.74     
    366000   1.0536885      0.0023323615   0.0014535702   20.743856      19.179129      1.5647274     -1.4603648      17711.469    
    367000   0.9434297      0.0023323615   0.0017803197   20.130579      18.729586      1.4009931     -1.8563817      17558.563    
    368000   0.95531368     0.0023323615  -0.0001460581   20.356616      18.937975      1.4186408     -1.7620841      17632.339    
    369000   1.1887802      0.0023323615   0.0024815221   20.649514      18.884176      1.7653386     -1.689258       17673.613    
    370000   0.96504868     0.0023323615  -0.0025143353   20.701354      19.268257      1.4330973     -1.4152247      17836.255    
    371000   1.1056061      0.0023323615   0.0019603364   20.868643      19.226818      1.6418251     -1.3954397      18678.615    
    372000   1.0671603      0.0023323615  -0.0014827537   20.566888      18.982155      1.5847331     -1.4595996      18300.569    
    373000   1.063302       0.0023323615   0.0018311331   20.672439      19.093435      1.5790035     -1.51034        18157.32     
    374000   0.96058439     0.0023323615  -0.0014244283   20.493004      19.066536      1.4264678     -1.4648589      17693.272    
    375000   1.0082321      0.0023323615  -0.0011299092   20.484136      18.986911      1.4972247     -1.4353626      18057.104    
    376000   1.107239       0.0023323615   0.0035798985   20.833614      19.189364      1.64425       -1.4385451      17918.897    
    377000   1.1471656      0.0023323615   0.0042400914   20.62246       18.918919      1.7035409     -1.5012203      18088.892    
    378000   0.86368204     0.0023323615   0.002342053    20.41592       19.133352      1.2825678     -1.3805414      17846.942    
    379000   0.99128987     0.0023323615  -0.00066415499  20.589097      19.117032      1.4720655     -1.3453897      18042.008    
    380000   0.95613352     0.0023323615   0.0029729509   20.321515      18.901657      1.4198583     -1.6521388      17987.962    
    381000   0.92896743     0.0023323615  -0.0018486514   20.194824      18.815307      1.3795166     -1.6251932      17983.291    
    382000   0.93368877     0.0023323615   0.00016169067  20.390181      19.003654      1.3865278     -1.4785347      17765.35     
    383000   1.0301024      0.0023323615   0.00086669244  20.450725      18.921023      1.5297021     -1.6120707      17871.525    
    384000   1.0775102      0.0023323615  -0.0015256377   20.750414      19.150311      1.6001027     -1.4090778      17889.517    
    385000   1.0402358      0.0023323615   0.0016674357   20.6977        19.15295       1.5447502     -1.437275       17598.052    
    386000   1.0491139      0.0023323615  -0.0021205773   20.536317      18.978383      1.5579342     -1.4610186      17727.714    
    387000   0.94649823     0.0023323615   0.0010802276   20.368008      18.962458      1.4055499     -1.6189538      17665.268    
    388000   1.0057742      0.0023323615  -0.0037518488   20.582644      19.089069      1.4935747     -1.5004297      17711.743    
    389000   0.99725918     0.0023323615  -0.0024731506   20.501406      19.020476      1.4809299     -1.519148       17816.656    
    390000   0.95802022     0.0023323615   0.00061464793  20.686548      19.263887      1.42266       -1.3488941      17939.702    
    391000   0.94483308     0.0023323615  -0.0014736115   20.387797      18.98472       1.4030771     -1.6124871      18018.827    
    392000   0.9404953      0.0023323615   0.00090190004  20.610803      19.214168      1.3966355     -1.3435961      17882.898    
    393000   0.88679866     0.0023323615   0.0018206705   20.312905      18.996009      1.316896      -1.4167813      17715.654    
    394000   0.97759571     0.0023323615  -0.0017320759   20.610725      19.158996      1.4517296     -1.2668291      17877.418    
    395000   1.0467561      0.0023323615  -0.0022017368   20.481313      18.92688       1.5544328     -1.5399542      17856.195    
    396000   0.95494164     0.0023323615   0.00022952712  20.44126       19.023172      1.4180883     -1.4412288      17648.133    
    397000   0.85754664     0.0023323615   0.0030158648   20.27917       19.005713      1.2734568     -1.5621519      17796.44     
    398000   1.1006307      0.0023323615  -0.0011126951   20.783535      19.149098      1.6344366     -1.5184227      17674.884    
    399000   0.95203921     0.0023323615  -0.0021986823   20.463265      19.049487      1.4137782     -1.5527689      17788.209    
    400000   0.92367313     0.0023323615   0.00072290704  20.396898      19.025243      1.3716546     -1.3527497      17658.671    
    401000   0.97998938     0.0023323615  -0.0026214968   20.390445      18.935161      1.4552842     -1.5605395      17849.786    
    402000   1.1278306      0.0023323615  -0.00086602269  20.645311      18.970483      1.6748285     -1.5807549      17743.575    
    403000   1.1142818      0.0023323615   0.0018961428   21.050769      19.396061      1.6547085     -1.1825266      17903.62     
    404000   1.0368296      0.0023323615  -0.00027862608  20.351799      18.812108      1.5396919     -1.6633513      17892.493    
    405000   1.0109945      0.0023323615  -0.00030775801  20.314027      18.8127        1.5013268     -1.7441911      17653.202    
    406000   0.81068566     0.0023323615   0.0015226549   20.154487      18.950618      1.2038682     -1.5724197      17639.749    
    407000   0.92880028     0.0023323615   0.0016013477   20.440676      19.061408      1.3792684     -1.4123118      17811.445    
    408000   0.96674555     0.0023323615   0.0027911996   20.414748      18.979131      1.4356171     -1.5492779      17937.268    
    409000   1.0472947      0.0023323615   0.004635517    20.562247      19.007015      1.5552327     -1.6650489      17853.119    
    410000   0.96368592     0.0023323615  -0.00067548156  20.57416       19.143087      1.4310736     -1.4503269      18073.366    
    411000   0.92402791     0.0023323615  -0.0010442064   20.750407      19.378225      1.3721814     -1.4224372      17922.694    
    412000   1.0420423      0.0023323615   0.0030273531   20.392066      18.844633      1.5474329     -1.6554779      18005.266    
    413000   0.90389658     0.0023323615   0.00013627608  20.145246      18.802959      1.3422864     -1.7800511      17818.027    
    414000   0.90238593     0.0023323615  -0.0026782009   20.368011      19.027968      1.3400431     -1.5034974      17889.517    
    415000   1.0002103      0.0023323615   0.0023210254   20.480347      18.995035      1.4853123     -1.4985822      17951.188    
    416000   0.86894725     0.0023323615   0.0018520872   20.263186      18.972799      1.2903867     -1.6214842      17926.038    
    417000   1.0362851      0.0023323615  -0.002085971    20.580347      19.041463      1.5388834     -1.4225406      17893.664    
    418000   1.1263529      0.0023323615   0.0078622741   20.801612      19.128977      1.6726341     -1.4066641      17888.257    
    419000   1.0605265      0.0023323615  -0.00084897203  20.287517      18.712635      1.5748818     -1.7237772      17810.533    
    420000   1.0400342      0.0023323615   0.00264815     20.322611      18.778161      1.5444508     -1.6181122      17717.446    
    421000   1.084425       0.0023323615  -0.00061968522  20.461246      18.850875      1.6103711     -1.6176665      17725.246    
    422000   0.9587465      0.0023323615   0.00053284385  20.268033      18.844295      1.4237385     -1.6288969      17647.512    
    423000   0.82264176     0.0023323615  -0.0035569557   20.119724      18.898101      1.221623      -1.6414398      17771.559    
    424000   1.0191703      0.0023323615   0.0034485285   20.427282      18.913814      1.5134679     -1.7294205      17644.751    
    425000   0.69727877     0.0023323615  -0.0010705916   19.892608      18.857149      1.035459      -1.6088251      17641.723    
    426000   0.85236575     0.0023323615   0.0016696267   20.055107      18.789344      1.2657631     -1.6927893      17643.107    
    427000   1.0171134      0.0023323615   0.00088735154  20.65495       19.144537      1.5104135     -1.5076256      17583.593    
    428000   1.0444511      0.0023323615  -0.0018928642   20.844091      19.293081      1.5510098     -1.3445203      17858.332    
    429000   1.0588981      0.0023323615   0.0037241773   20.406039      18.833575      1.5724637     -1.6861787      17911.321    
    430000   0.8987187      0.0023323615  -0.0042165771   20.379263      19.044666      1.3345973     -1.4743892      17791.386    
    431000   0.98537961     0.0023323615  -0.003975878    20.458668      18.99538       1.4632887     -1.4400974      17937.355    
    432000   0.9314971      0.0023323615   0.0038317848   20.508181      19.124908      1.3832732     -1.3285938      18064.976    
    433000   0.99404447     0.0023323615  -0.00027214851  20.186828      18.710672      1.476156      -1.7103476      18046.734    
    434000   0.9827703      0.0023323615   0.00082267192  20.2761        18.816686      1.4594139     -1.6055182      17722.294    
    435000   0.94578076     0.0023323615  -0.0011357214   20.469877      19.065393      1.4044844     -1.4520377      17937.52     
    436000   0.91173092     0.0023323615   0.00042336145  20.036816      18.682895      1.3539204     -1.7704938      17787.845    
    437000   0.94679952     0.0023323615  -0.0009713934   20.356607      18.95061       1.4059973     -1.6033886      17678.127    
    438000   1.0119352      0.0023323615  -0.00050122492  20.286875      18.784151      1.5027237     -1.6834768      17712.293    
    439000   1.0012008      0.0023323615  -0.0029287516   20.190126      18.703342      1.4867832     -1.7778741      17876.016    
    440000   1.0627859      0.0023323615   0.0020258081   20.513184      18.934947      1.5782371     -1.5857942      17693.627    
    441000   0.95467601     0.0023323615   0.0025735074   20.209934      18.79224       1.4176939     -1.717635       17698.003    
    442000   0.99290205     0.0023323615  -0.0063191063   20.155127      18.680667      1.4744595     -1.7595003      17746.408    
    443000   0.94717206     0.0023323615   0.00046651363  20.310268      18.903717      1.4065505     -1.588092       17651.088    
    444000   1.0221598      0.0023323615  -0.0033331018   20.671334      19.153427      1.5179073     -1.4709077      17937.159    
    445000   0.95459033     0.0023323615   0.0017265027   20.227017      18.809451      1.4175666     -1.6043146      17679.473    
    446000   1.0296441      0.0023323615   0.0038706694   20.608128      19.079107      1.5290215     -1.4030354      17801.575    
    447000   1.0111099      0.0023323615   0.002924493    20.314288      18.81279       1.5014983     -1.6541189      17786.608    
    448000   0.94216247     0.0023323615  -0.00032707536  20.352575      18.953463      1.3991113     -1.537188       17921.114    
    449000   0.940895       0.0023323615  -0.0034222897   20.294856      18.897627      1.3972291     -1.5917511      17968.966    
    450000   0.94384192     0.0023323615   4.4958917e-05  20.469095      19.06749       1.4016053     -1.4733413      17931.732    
    451000   1.1114546      0.0023323615   0.00016541248  20.828989      19.178479      1.6505101     -1.4388168      18133.48     
    452000   1.0928769      0.0023323615  -0.00017019472  20.772017      19.149095      1.6229222     -1.2981933      18045.994    
    453000   1.0679908      0.0023323615  -0.0021236354   20.780018      19.194052      1.5859663     -1.3208354      18284.049    
    454000   0.96234429     0.0023323615   0.0037718719   20.243874      18.814793      1.4290813     -1.8264061      18082.666    
    455000   1.0381815      0.0023323615   0.0015622413   20.783407      19.241708      1.5416995     -1.3177549      17837.005    
    456000   1.211713       0.0023323615   0.0037717575   20.671552      18.872158      1.7993938     -1.5201897      18020.34     
    457000   0.89918719     0.0023323615   0.0033529049   20.436003      19.10071       1.335293      -1.429366       17826.953    
    458000   0.97165608     0.0023323615   0.00059121275  20.402765      18.959855      1.4429093     -1.5252452      17853.403    
    459000   1.0916163      0.0023323615   0.00084288703  20.686908      19.065858      1.6210502     -1.3826585      17872.892    
    460000   0.91252747     0.0023323615   0.00099391263  20.737165      19.382062      1.3551033     -1.288104       17901.315    
    461000   1.0224192      0.0023323615  -0.0021193153   20.719246      19.200953      1.5182926     -1.429068       18003.217    
    462000   0.87754735     0.0023323615   0.00030928823  20.308944      19.005786      1.3031578     -1.6561387      17752.702    
    463000   0.95971248     0.0023323615  -0.0044275872   20.819374      19.394201      1.425173      -1.2291244      18000.516    
    464000   1.0163301      0.0023323615  -0.0020694902   20.683843      19.174593      1.5092502     -1.363505       18074.607    
    465000   0.99716813     0.0023323615   0.0034132614   20.203946      18.723151      1.4807947     -1.7278435      17971.276    
    466000   1.0695584      0.0023323615  -0.0053424599   20.685232      19.096938      1.5882942     -1.4575112      17866.659    
    467000   1.120923       0.0023323615  -0.0039064894   20.693106      19.028535      1.6645707     -1.4810895      17724.588    
    468000   1.0053072      0.0023323615  -0.00023696781  20.287383      18.794501      1.4928811     -1.7258942      17782.29     
    469000   1.054254       0.0023323615  -0.004533092    20.67574       19.110173      1.5655672     -1.5724774      17827.74     
    470000   1.0478379      0.0023323615   0.00054070269  20.426973      18.870934      1.5560393     -1.5280626      17891.069    
    471000   0.99232082     0.0023323615  -0.00070521608  20.300736      18.827139      1.4735964     -1.665083       17805.659    
    472000   1.0114856      0.0023323615   0.0012970863   20.491459      18.989403      1.5020561     -1.6206493      17636.367    
    473000   0.95283705     0.0023323615  -0.0045845872   20.590401      19.175438      1.414963      -1.4365864      17877.194    
    474000   1.1895409      0.0023323615  -0.00079117713  20.642208      18.87574       1.7664683     -1.6204271      17746.541    
    475000   0.95413453     0.0023323615   0.00063609005  20.328221      18.911331      1.4168898     -1.5519711      17833.683    
    476000   1.1222258      0.0023323615   0.0013101487   20.929703      19.263197      1.6665054     -1.3152364      17753.15     
    477000   1.1337355      0.0023323615   0.0031626649   20.857722      19.174124      1.6835973     -1.3068805      18083.933    
    478000   1.0742285      0.0023323615  -0.00040143312  20.574839      18.979609      1.5952293     -1.4866068      17928.933    
    479000   1.1722352      0.0023323615   0.0021208965   20.752874      19.012105      1.7407692     -1.4696899      18003.419    
    480000   1.0539454      0.0023323615  -0.0031690585   20.777092      19.211983      1.5651089     -1.3686519      17985.761    
    481000   0.89618662     0.0023323615  -0.0026255169   20.308472      18.977635      1.3308371     -1.5581452      17814.43     
    482000   0.83390207     0.0023323615   0.00088877403  20.310555      19.072211      1.2383446     -1.3923386      17776.364    
    483000   1.1747799      0.0023323615  -0.00064849843  20.745467      19.000919      1.7445482     -1.4447906      17767.045    
    484000   0.90237695     0.0023323615  -0.0027199791   20.184299      18.844269      1.3400298     -1.6469751      17829.606    
    485000   1.0439262      0.0023323615   0.0047259698   20.597972      19.047742      1.5502304     -1.4648307      17685.438    
    486000   0.93747625     0.0023323615  -0.0026531168   20.187951      18.795798      1.3921522     -1.7029041      17688.221    
    487000   1.0759247      0.0023323615  -0.0030178242   20.500882      18.903134      1.5977482     -1.5542082      17707.218    
    488000   1.1999092      0.0023323615  -0.0016510901   20.788001      19.006136      1.7818652     -1.4658853      17721.636    
    489000   1.0890475      0.0023323615  -0.0067658376   20.472916      18.85568       1.6172355     -1.5970291      17543.172    
    490000   1.1188505      0.0023323615   0.00031487387  20.779243      19.11775       1.661493      -1.3997911      17705.682    
    491000   0.93567085     0.0023323615   0.00095518893  20.562712      19.173241      1.3894712     -1.3330923      17916.568    
    492000   1.0080473      0.0023323615  -0.00011805334  20.323797      18.826846      1.4969503     -1.6770579      17795.202    
    493000   0.88654923     0.0023323615  -0.00098017863  20.204761      18.888235      1.3165256     -1.59357        17702.423    
    494000   1.0018855      0.0023323615   3.4475432e-05  20.293428      18.805628      1.4878        -1.6897902      17518.844    
    495000   0.99004456     0.0023323615  -4.1544251e-05  20.324992      18.854776      1.4702162     -1.548763       17533.019    
    496000   0.93933424     0.0023323615   0.0036579933   20.59863       19.203718      1.3949113     -1.323799       17914.752    
    497000   0.93395571     0.0023323615   0.0011106439   20.780814      19.39389       1.3869242     -1.21507        17878.987    
    498000   1.1237993      0.0023323615   0.0015878338   21.056062      19.38722       1.6688419     -1.1526738      17984.361    
    499000   0.91739818     0.0023323615  -0.0045176977   20.242179      18.879843      1.3623363     -1.4862374      17948.164    
    500000   0.99494329     0.0023323615  -0.00046071723  20.419302      18.941811      1.4774908     -1.5226655      17708.252    
    501000   1.1216189      0.0023323615   0.0018992689   20.663992      18.998387      1.6656041     -1.4888574      17628.823    
    502000   1.0794177      0.0023323615  -0.0003110053   20.560325      18.957389      1.6029353     -1.540253       17784.564    
    503000   1.0133605      0.0023323615   0.00024667182  20.395161      18.890321      1.5048403     -1.6696467      17743.247    
    504000   0.93204734     0.0023323615  -0.0014136858   20.569799      19.185708      1.3840903     -1.2436648      17288.921    
    505000   0.86785424     0.0023323615  -0.00089772279  20.362542      19.073779      1.2887635     -1.591345       17886.41     
    506000   0.94526284     0.0023323615  -0.0002951133   20.53379       19.130075      1.4037153     -1.3288411      17687.958    
    507000   0.97461071     0.0023323615  -6.3654487e-06  20.550626      19.103329      1.4472969     -1.4263333      17776.491    
    508000   0.97061356     0.0023323615  -0.0027002822   20.400097      18.958736      1.4413611     -1.4847049      18102.027    
    509000   1.0319296      0.0023323615  -0.0021199458   20.350174      18.817759      1.5324155     -1.7410303      17901.726    
    510000   0.92301136     0.0023323615   0.004512369    20.328303      18.957631      1.3706719     -1.5548313      17675.263    
    511000   1.1152152      0.0023323615   0.00020620117  20.362686      18.706592      1.6560945     -1.7465707      17655.819    
    512000   1.1412218      0.0023323615  -0.00062066453  20.354937      18.660222      1.6947144     -1.762244       17689.613    
    513000   0.88450955     0.0023323615  -0.00053656124  20.019342      18.705845      1.3134967     -1.818015       17720.598    
    514000   0.99672584     0.0023323615   0.0026742391   20.250055      18.769917      1.4801379     -1.6786853      17621.497    
    515000   0.96931343     0.0023323615   0.005778861    20.315599      18.876169      1.4394304     -1.6146051      17716.528    
    516000   0.93067018     0.0023323615  -0.0032841089   20.318051      18.936006      1.3820452     -1.5738325      17617.133    
    517000   1.0344531      0.0023323615   0.001262042    20.455817      18.919655      1.5361628     -1.5300027      17529.339    
    518000   0.90866317     0.0023323615  -0.00059336331  20.471113      19.121748      1.3493648     -1.4863269      17757.774    
    519000   0.90119454     0.0023323615   0.00028651427  20.270583      18.932309      1.3382739     -1.5914107      17606.229    
    520000   0.91850318     0.0023323615   0.00095804163  20.468764      19.104787      1.3639772     -1.4506543      17681.44     
    521000   0.94706038     0.0023323615   0.00027982597  20.270171      18.863786      1.4063847     -1.6228736      17719.704    
    522000   0.93551014     0.0023323615   0.0021964752   20.032686      18.643454      1.3892326     -1.8585072      17597.047    
    523000   1.0917492      0.0023323615   0.0031245671   20.449585      18.828337      1.6212476     -1.6816451      17548.786    
    524000   0.98908211     0.0023323615   0.00059199674  20.347621      18.878834      1.4687869     -1.6009951      17343.37     
    525000   1.0893387      0.0023323615  -0.0012083127   20.459968      18.8423        1.617668      -1.6158354      17702.272    
    526000   1.0446823      0.0023323615  -0.0020695637   20.394886      18.843533      1.5513532     -1.5630851      17940.299    
    527000   0.9648165      0.0023323615  -0.0013252974   20.532948      19.100196      1.4327525     -1.492561       18038.747    
    528000   1.1257214      0.0023323615   0.0028699626   20.92845       19.256753      1.6716963     -1.2715488      17774.398    
    529000   0.95382944     0.0023323615  -0.0014238065   20.23338       18.816943      1.4164367     -1.6536457      17857.128    
    530000   0.95083619     0.0023323615   0.0014095761   20.526363      19.114371      1.4119917     -1.3709784      17785.157    
    531000   0.87381705     0.0023323615  -0.0030136834   20.406336      19.108718      1.2976183     -1.3772521      17889.322    
    532000   0.9619839      0.0023323615  -0.0023805571   20.343391      18.914845      1.4285461     -1.5566525      17853.145    
    533000   1.0711457      0.0023323615  -0.00028490934  20.356717      18.766066      1.5906514     -1.6315027      17727.906    
    534000   0.91610775     0.0023323615   0.0011983061   20.455285      19.094865      1.36042       -1.4328493      17908.779    
    535000   1.0280495      0.0023323615   0.0012028563   20.939791      19.413137      1.5266535     -1.1294673      18037.267    
    536000   0.95435056     0.0023323615  -0.0013620989   20.479661      19.06245       1.4172106     -1.5095437      17840.515    
    537000   0.8391552      0.0023323615   0.00075354534  20.333454      19.087309      1.2461455     -1.5193362      17931.519    
    538000   1.0052219      0.0023323615   0.0027008014   20.344647      18.851892      1.4927545     -1.5957258      17891.422    
    539000   0.93020854     0.0023323615   0.00056566272  20.468958      19.087598      1.3813597     -1.5352062      17761.724    
    540000   1.1186233      0.0023323615  -0.0044060606   20.478814      18.817659      1.6611556     -1.7452945      17629.552    
    541000   0.98080335     0.0023323615   0.0017076239   20.099829      18.643336      1.456493      -1.8211463      17376.253    
    542000   1.0014951      0.0023323615  -0.0016855938   20.531796      19.044575      1.4872203     -1.6307629      17461.844    
    543000   1.2142235      0.0023323615   0.00041854071  20.918233      19.115111      1.8031219     -1.536163       17600.948    
    544000   1.160526       0.0023323615  -0.0017871503   20.728917      19.005536      1.7233811     -1.5587026      17807.355    
    545000   0.87543489     0.0023323615   0.00076417058  20.051379      18.751358      1.3000208     -1.8290711      17940.786    
    546000   1.0634107      0.0023323615   0.0055832683   20.576639      18.997474      1.5791649     -1.5108894      17808.483    
    547000   1.0599651      0.0023323615   0.0029587677   20.511347      18.937299      1.5740482     -1.5773194      17751.644    
    548000   0.86348119     0.0023323615   0.00044605174  20.15685       18.874581      1.2822696     -1.6265273      17709.38     
    549000   0.85447969     0.0023323615  -0.0046103606   20.279303      19.010401      1.2689023     -1.5341346      17745.632    
    550000   0.95796805     0.0023323615  -0.0011131419   20.405537      18.982955      1.4225826     -1.5713432      17641.954    
    551000   0.77959325     0.0023323615   0.0032924008   20.04339       18.885694      1.157696      -1.6469863      17573.139    
    552000   0.96979138     0.0023323615  -0.002500157    20.169317      18.729176      1.4401402     -1.7928358      17527.809    
    553000   0.85183329     0.0023323615  -0.0022158742   20.089474      18.824501      1.2649724     -1.6613588      17679.953    
    554000   1.0819698      0.0023323615  -0.0016053624   20.648678      19.041952      1.6067252     -1.5772586      17770.357    
    555000   1.00113        0.0023323615   0.0019584913   20.239787      18.753109      1.4866781     -1.6695818      17644.33     
    556000   0.90703425     0.0023323615  -0.0053898347   20.358562      19.011616      1.3469459     -1.5635734      17776.01     
    557000   1.048506       0.0023323615   0.0035187532   20.502631      18.9456        1.5570314     -1.5771883      17810.774    
    558000   0.96147475     0.0023323615  -0.00058945916  20.664219      19.236429      1.42779       -1.3022858      17896.927    
    559000   0.93272195     0.0023323615  -0.0022684454   20.600208      19.215116      1.3850921     -1.2937729      18058.315    
    560000   1.0147912      0.0023323615  -0.0010698198   20.406255      18.89929       1.5069649     -1.5377729      17848.94     
    561000   1.0672739      0.0023323615   0.0011137428   20.579681      18.994779      1.5849018     -1.4713426      17774.281    
    562000   0.92744683     0.0023323615  -0.004433917    20.614576      19.237318      1.3772585     -1.3374427      17829.157    
    563000   1.0175223      0.0023323615   0.00073974219  20.580779      19.069759      1.5110206     -1.4844472      17876.717    
    564000   0.92255449     0.0023323615   0.00062905078  20.178539      18.808546      1.3699934     -1.6360671      17944.379    
    565000   1.037472       0.0023323615   0.00040602352  20.588291      19.047645      1.5406459     -1.3738143      17740.954    
    566000   1.0792753      0.0023323615  -7.4853925e-05  20.869902      19.267178      1.6027238     -1.2758463      17918.408    
    567000   0.99520034     0.0023323615  -0.0029001345   20.460623      18.982751      1.4778725     -1.4723406      17796.535    
    568000   0.92983924     0.0023323615  -0.0016432418   20.212634      18.831823      1.3808113     -1.6271466      17470.894    
    569000   0.99758316     0.0023323615  -0.00038786564  20.437086      18.955675      1.481411      -1.5423181      17658.464    
    570000   0.99302251     0.0023323615  -0.00091031535  20.305413      18.830774      1.4746384     -1.6986922      17982.31     
    571000   0.9611113      0.0023323615  -0.0035674007   20.460439      19.033188      1.4272503     -1.6350724      17349.182    
    572000   0.90927624     0.0023323615   0.0035952216   20.190472      18.840197      1.3502752     -1.6330328      17637.879    
    573000   0.9551853      0.0023323615   0.0029927343   20.316337      18.897887      1.4184502     -1.6274517      17571.32     
    574000   0.98228874     0.0023323615  -0.0022111641   20.127199      18.668501      1.4586988     -1.7896473      17645.253    
    575000   0.95767172     0.0023323615  -0.0032477693   20.218988      18.796845      1.4221425     -1.6904722      17783.135    
    576000   1.0225068      0.0023323615  -0.00047413292  20.290709      18.772287      1.5184226     -1.8098853      17666.869    
    577000   1.1103422      0.0023323615   0.00066745171  20.562551      18.913692      1.6488581     -1.6147706      17788.618    
    578000   1.010109       0.0023323615  -0.00012758095  20.021011      18.520999      1.5000118     -1.9467107      17699.086    
    579000   0.91241497     0.0023323615   0.0050463571   20.513461      19.158524      1.3549362     -1.3986579      17686.156    
    580000   0.94438664     0.0023323615  -0.00093056856  20.438106      19.035692      1.4024142     -1.4796852      17901.103    
    581000   0.95500211     0.0023323615  -0.00087156952  20.257307      18.839129      1.4181781     -1.6655572      17744.503    
    582000   1.1622279      0.0023323615   0.0035413506   20.603471      18.877563      1.7259085     -1.6255072      17741.553    
    583000   0.96703886     0.0023323615  -0.0040863676   20.595105      19.159052      1.4360527     -1.3992485      17680.623    
    584000   0.97348603     0.0023323615   0.0013547658   20.370804      18.925177      1.4456268     -1.6515843      17540.87     
    585000   0.99543594     0.0023323615   0.001562621    20.683668      19.205446      1.4782224     -1.4403229      17745.786    
    586000   0.85320701     0.0023323615  -0.0026536685   20.134867      18.867855      1.2670124     -1.6490602      17798.087    
    587000   0.95251654     0.0023323615  -0.0015586327   20.431732      19.017245      1.4144871     -1.5091828      17644.13     
    588000   1.0406954      0.0023323615  -0.0021802303   20.596533      19.0511        1.5454327     -1.5605988      17899.504    
    589000   0.93779993     0.0023323615   0.0011414827   20.376613      18.98398       1.3926329     -1.5559323      17509.007    
    590000   1.0084674      0.0023323615  -0.0015842809   20.536052      19.038478      1.4975741     -1.4733628      18024.469    
    591000   1.0202212      0.0023323615  -0.000949141    20.30312       18.788092      1.5150284     -1.7267984      17704.649    
    592000   1.0629829      0.0023323615   0.0020476558   20.285087      18.706557      1.5785295     -1.8601454      17640.585    
    593000   1.0470431      0.0023323615   0.000561871    20.302183      18.747324      1.5548589     -1.7736482      17678.378    
    594000   1.1288597      0.0023323615   0.0012369879   20.658505      18.982149      1.6763567     -1.6238531      17587.698    
    595000   1.000069       0.0023323615   0.00063653617  20.220351      18.735249      1.4851025     -1.7210805      17492.382    
    596000   0.8587733      0.0023323615  -0.0030531172   20.090797      18.815519      1.2752783     -1.7461098      17473.724    
    597000   0.957348       0.0023323615  -0.002990014    20.343816      18.922154      1.4216618     -1.5580127      17712.236    
    598000   1.0370044      0.0023323615  -0.001529539    20.492597      18.952646      1.5399516     -1.659105       17688.773    
    599000   1.05391        0.0023323615   0.00019090876  20.408856      18.843799      1.5650564     -1.6980903      17753.753    
    600000   1.0751226      0.0023323615  -0.00022284596  20.488184      18.891627      1.5965571     -1.6349924      17849.457    
    601000   1.0464112      0.0023323615   0.00015414604  20.556981      19.00306       1.5539206     -1.4405474      17768.333    
    602000   1.0047653      0.0023323615   0.0010153164   20.39585       18.903774      1.4920765     -1.5655782      17713.994    
    603000   0.97242805     0.0023323615  -0.0028076989   20.147474      18.703418      1.4440557     -1.7823254      17812.414    
    604000   0.96872813     0.0023323615   0.00077615267  20.450881      19.01232       1.4385613     -1.5736439      17837.597    
    605000   0.9746331      0.0023323615   0.00020278275  20.522627      19.075296      1.4473302     -1.6638927      17646.454    
    606000   1.2024638      0.0023323615   0.0014672392   20.56562       18.779961      1.7856587     -1.725821       17720.661    
    607000   1.1002049      0.0023323615   0.001994381    20.670878      19.037074      1.6338043     -1.6137937      17675.41     
    608000   1.0932751      0.0023323615  -0.0019673885   20.451969      18.828456      1.6235135     -1.7410076      17704.888    
    609000   1.09238        0.0023323615  -0.002031076    20.62295       19.000766      1.6221843     -1.5729577      17808.715    
    610000   1.1183138      0.0023323615   0.0065146952   20.419981      18.759285      1.660696      -1.7465087      17789.18     
    611000   0.92366459     0.0023323615  -0.00016941517  20.337414      18.965772      1.3716419     -1.6036908      17713.99     
    612000   0.963296       0.0023323615   0.0013536299   20.349591      18.919097      1.4304946     -1.6305736      17550.428    
    613000   1.0287957      0.0023323615  -0.0047189191   20.591081      19.06332       1.5277616     -1.5236241      17825.384    
    614000   1.0585297      0.0023323615  -0.0012525881   20.496616      18.9247        1.5719165     -1.5127426      17889.036    
    615000   0.9908192      0.0023323615   0.0030706743   20.402998      18.931632      1.4713665     -1.6836321      17649.518    
    616000   0.9386053      0.0023323615   0.00022357501  20.546358      19.152529      1.3938289     -1.3906229      17777.222    
    617000   0.98207175     0.0023323615   0.0014517719   20.299972      18.841595      1.4583765     -1.7581628      17726.527    
    618000   0.96826761     0.0023323615   0.0049315911   20.507348      19.069471      1.4378774     -1.5944781      17712.321    
    619000   0.95774674     0.0023323615  -0.0019005642   20.579173      19.156919      1.4222539     -1.433671       17634.582    
    620000   1.1400996      0.0023323615  -0.0030011656   20.684574      18.991526      1.6930479     -1.4519871      17976.591    
    621000   1.0224529      0.0023323615  -0.0042759333   20.469195      18.950852      1.5183426     -1.637278       17730.258    
    622000   1.0902548      0.0023323615   0.00064605923  20.64165       19.022621      1.6190284     -1.4512016      17704.492    
    623000   0.94079285     0.0023323615   0.00054607367  20.211938      18.81486       1.3970774     -1.753638       17607.838    
    624000   1.0841399      0.0023323615   0.0026732327   20.400517      18.790569      1.6099477     -1.6799297      17556.639    
    625000   1.0530158      0.0023323615   7.7013038e-05  20.443825      18.880096      1.5637285     -1.5698396      17734.858    
    626000   0.95559808     0.0023323615  -0.0018960987   20.217314      18.798251      1.4190631     -1.6758295      17534.75     
    627000   1.1488468      0.0023323615  -0.00011172834  20.554143      18.848105      1.7060375     -1.6576291      17643.322    
    628000   0.86276028     0.0023323615  -0.0015994669   20.475498      19.194299      1.281199      -1.413687       17758.675    
    629000   0.90018891     0.0023323615  -0.0019225887   20.121013      18.784232      1.3367805     -1.5656636      17854.25     
    630000   0.91412949     0.0023323615  -0.00032203124  20.388369      19.030886      1.3574823     -1.4438269      17830.692    
    631000   1.0868267      0.0023323615  -0.0022373552   20.665075      19.051138      1.6139377     -1.4885401      17734.927    
    632000   1.0499528      0.0023323615  -0.00077735238  20.286657      18.727477      1.5591799     -1.7143817      17831.619    
    633000   0.98533467     0.0023323615  -0.0021811125   20.47506       19.011838      1.463222      -1.5282347      17785.702    
    634000   0.99233911     0.0023323615   0.0010218823   20.177559      18.703936      1.4736236     -1.7286761      17718.632    
    635000   1.1191384      0.0023323615   0.0025722294   20.664553      19.002633      1.6619205     -1.5235929      17656.646    
    636000   0.93566058     0.0023323615   0.0049281065   20.37168       18.982224      1.389456      -1.589398       17629.147    
    637000   1.0245256      0.0023323615  -0.0028126454   20.321083      18.799662      1.5214205     -1.6644023      17372.1      
    638000   1.0984745      0.0023323615   0.003332847    20.691836      19.060601      1.6312347     -1.5616147      17560.614    
    639000   1.1014939      0.0023323615  -0.0017230522   20.286487      18.650768      1.6357184     -1.8148543      17615.348    
    640000   0.93779536     0.0023323615  -0.0041549811   20.525776      19.13315       1.3926261     -1.4850814      17614.804    
    641000   1.0864915      0.0023323615  -0.0026545978   20.840191      19.226751      1.6134399     -1.3376505      17836.048    
    642000   1.0631846      0.0023323615   0.004545241    20.712914      19.134085      1.5788292     -1.2238231      17932.814    
    643000   0.98319784     0.0023323615   0.00016792839  20.563178      19.10313       1.4600488     -1.5319206      17911.623    
    644000   0.98492469     0.0023323615   0.00076732497  20.480424      19.017811      1.4626132     -1.4579687      17699.576    
    645000   0.99167047     0.0023323615  -0.00056208977  20.551915      19.079285      1.4726306     -1.4960729      17780.626    
    646000   1.0640845      0.0023323615   0.00097747787  20.687721      19.107555      1.5801655     -1.4577509      17771.319    
    647000   0.86125624     0.0023323615   0.00062390664  20.414261      19.135295      1.2789655     -1.4038448      17723.232    
    648000   1.0835648      0.0023323615  -0.00066948948  20.680328      19.071234      1.6090938     -1.4884433      17612.2      
    649000   1.0513245      0.0023323615  -0.001737509    20.479463      18.918246      1.5612169     -1.5319167      17602.968    
    650000   1.090844       0.0023323615   0.0037681634   20.502547      18.882644      1.6199033     -1.6484243      17872.572    
    651000   0.9651657      0.0023323615   0.0017487751   20.673971      19.2407        1.4332711     -1.3340642      17745.048    
    652000   0.96236826     0.0023323615   0.0011930303   20.321144      18.892027      1.4291169     -1.6046063      17829.421    
    653000   0.84173607     0.0023323615  -0.0036586713   20.193072      18.943094      1.2499781     -1.6257156      17523.639    
    654000   0.97778626     0.0023323615  -0.0015711107   20.190767      18.738754      1.4520126     -1.7137647      17626.787    
    655000   1.0416511      0.0023323615  -0.00035489477  20.679739      19.132887      1.5468519     -1.500164       17653.227    
    656000   0.91406756     0.0023323615   0.0017681931   20.270212      18.912822      1.3573903     -1.6686799      17713.849    
    657000   0.9131458      0.0023323615   0.0033834543   20.189931      18.83391       1.3560215     -1.70075        17538.866    
    658000   0.93135998     0.0023323615   0.0020342935   20.248107      18.865037      1.3830696     -1.6076921      17566.749    
    659000   0.89873037     0.0023323615   0.0014374035   20.128919      18.794305      1.3346146     -1.7918098      17558.038    
    660000   0.95805253     0.0023323615   0.0011273317   20.442229      19.019521      1.422708      -1.5508867      17609.589    
    661000   0.9021545      0.0023323615   0.00078666171  20.084043      18.744344      1.3396994     -1.6560525      17550.638    
    662000   0.91432264     0.0023323615   0.0029286113   20.160112      18.802343      1.3577691     -1.6280996      17666.212    
    663000   1.1057661      0.0023323615  -0.00085117791  20.325221      18.683159      1.6420627     -1.8009505      17691.877    
    664000   1.1262111      0.0023323615   0.0016777783   20.692592      19.020169      1.6724235     -1.4644189      17531.238    
    665000   0.95595043     0.0023323615  -0.0012231716   20.208081      18.788494      1.4195864     -1.6888321      17735.413    
    666000   0.96947037     0.0023323615  -0.0025079706   20.455895      19.016231      1.4396635     -1.5709796      17512.174    
    667000   1.0572783      0.0023323615  -0.0015045415   20.297886      18.727827      1.5700582     -1.743262       17476.936    
    668000   0.95774874     0.0023323615   0.0018368152   20.117938      18.695681      1.4222569     -1.7547441      17617.509    
    669000   0.98727503     0.0023323615   0.0012312967   20.322716      18.856612      1.4661034     -1.6550202      17611.199    
    670000   0.96074137     0.0023323615   0.0013183502   20.5547        19.127999      1.4267009     -1.3371364      17602.878    
    671000   1.0294573      0.0023323615   0.0037520903   20.571359      19.042615      1.5287441     -1.3963574      17777.143    
    672000   0.99304499     0.0023323615  -0.0018633942   20.579856      19.105184      1.4746718     -1.3845213      17815.912    
    673000   0.93720717     0.0023323615   0.0018893027   20.330161      18.938408      1.3917527     -1.5424588      17686.535    
    674000   1.0334952      0.0023323615  -0.0018058115   20.323097      18.788357      1.5347404     -1.7490316      17660.442    
    675000   1.065756       0.0023323615  -0.00020827547  20.76123       19.178582      1.5826477     -1.4602487      17610.416    
    676000   1.1129822      0.0023323615   0.00015632902  20.502235      18.849457      1.6527786     -1.5943955      17617.425    
    677000   1.1440898      0.0023323615   0.0011853222   20.427088      18.728115      1.6989733     -1.7213057      17433.2      
    678000   0.8724591      0.0023323615   0.0026407924   20.080608      18.785006      1.2956018     -1.6580206      17640.329    
    679000   1.0560117      0.0023323615   0.0043148737   20.285253      18.717076      1.5681773     -1.7581354      17531.436    
    680000   0.96539349     0.0023323615  -0.00060340381  20.476064      19.042455      1.4336093     -1.5054183      17538.777    
    681000   0.98054044     0.0023323615  -0.0005294603   20.673464      19.217361      1.4561025     -1.4141269      17795.802    
    682000   1.0059677      0.0023323615   0.0013961102   20.331201      18.837339      1.4938621     -1.6949671      17682.023    
    683000   0.81240905     0.0023323615  -0.0024748718   20.050057      18.84363       1.2064274     -1.7358352      17713.883    
    684000   1.1457359      0.0023323615  -0.0024043239   20.457178      18.755761      1.7014178     -1.6710083      17618.928    
    685000   0.98633864     0.0023323615   0.0018665985   20.288609      18.823896      1.4647129     -1.6391943      17678.844    
    686000   0.98400249     0.0023323615  -0.0017136593   20.618459      19.157216      1.4612437     -1.3661759      17689.651    
    687000   1.0839328      0.0023323615  -3.5553756e-05  20.577341      18.9677        1.6096401     -1.6340499      17825.766    
    688000   1.04093        0.0023323615   0.0027082402   20.72137       19.175589      1.545781      -1.495205       17907.873    
    689000   1.0390147      0.0023323615  -0.0010328295   20.721207      19.178271      1.5429368     -1.4072882      17844.594    
    690000   0.89650163     0.0023323615   0.00044670804  20.353215      19.021911      1.3313049     -1.5533204      17745.755    
    691000   1.0015042      0.0023323615  -0.001790025    20.342098      18.854864      1.4872337     -1.7276226      17672.027    
    692000   0.89142723     0.0023323615  -0.00021092531  20.185022      18.861252      1.3237694     -1.6773474      17726.105    
    693000   1.0056614      0.0023323615   0.0052537996   20.281489      18.788082      1.4934071     -1.617702       17804.401    
    694000   0.8983457      0.0023323615   0.00025668287  20.296771      18.962728      1.3340434     -1.5088631      17767.279    
    695000   0.9749788      0.0023323615  -0.0032979398   20.240472      18.792629      1.4478435     -1.7199716      17648.566    
    696000   1.0649829      0.0023323615  -4.8353553e-05  20.608623      19.027123      1.5814996     -1.4660942      17625.744    
    697000   0.95755535     0.0023323615   0.0036968167   20.344585      18.922615      1.4219697     -1.554068       17834.343    
    698000   0.91953474     0.0023323615   0.00097431424  20.352852      18.987343      1.3655091     -1.4953198      17796.719    
    699000   0.95703103     0.0023323615   0.0013986707   20.310564      18.889373      1.4211911     -1.7058754      17651.491    
    700000   1.0222034      0.0023323615  -0.0015570203   20.782643      19.264671      1.517972      -1.2540478      17759.774    
    701000   1.0387556      0.0023323615  -0.00034656943  20.89997       19.357418      1.542552      -1.2455412      17858.195    
    702000   1.0708187      0.0023323615  -0.00029852727  20.809897      19.219731      1.5901658     -1.2250469      17981.555    
    703000   1.0390947      0.0023323615  -0.00017349034  20.479555      18.936499      1.5430556     -1.5777518      17737.956    
    704000   1.0753319      0.0023323615  -0.0020671659   20.669019      19.072151      1.5968679     -1.5165577      17253.849    
    705000   1.0341589      0.0023323615   0.001736876    20.59631       19.060583      1.535726      -1.4925195      17724.075    
    706000   0.91133477     0.0023323615   6.2645761e-05  20.332389      18.979057      1.3533321     -1.5468405      17824.371    
    707000   1.0305009      0.0023323615  -0.0015288093   20.385495      18.855201      1.5302938     -1.6600688      17723.411    
    708000   1.0265315      0.0023323615   0.0020199944   20.299071      18.774672      1.5243993     -1.7495796      17662.336    
    709000   0.98682566     0.0023323615   0.0023146735   20.224598      18.759162      1.4654361     -1.6338061      17646.713    
    710000   0.88369376     0.0023323615  -0.0016183286   20.456642      19.144357      1.3122852     -1.3177011      17574.448    
    711000   0.91099957     0.0023323615  -0.0053382646   20.493988      19.141153      1.3528344     -1.4428506      17721.746    
    712000   1.0001211      0.0023323615   0.001768457    20.345565      18.860385      1.4851799     -1.6583343      17733.957    
    713000   0.97772255     0.0023323615   0.0030207971   20.143388      18.69147       1.451918      -1.7792121      17738.394    
    714000   1.0087777      0.0023323615   0.0015442944   20.447564      18.949529      1.4980349     -1.5847728      17253.128    
    715000   1.1008825      0.0023323615  -0.00024522784  20.665643      19.030833      1.6348105     -1.5995194      17619.154    
    716000   0.76373222     0.0023323615   0.0052069596   20.252152      19.118009      1.1341423     -1.3477136      17572.406    
    717000   0.89159169     0.0023323615  -0.0026044816   20.520373      19.196359      1.3240137     -1.3965419      17710.414    
    718000   1.01908        0.0023323615   0.0005152004   20.634769      19.121435      1.5133338     -1.3760469      17741.077    
    719000   0.97744068     0.0023323615   0.0020356339   20.33958       18.88808       1.4514994     -1.4462672      17672.337    
    720000   0.98960575     0.0023323615  -0.0014414901   20.50995       19.040385      1.4695645     -1.4630894      17677.686    
    721000   0.99617198     0.0023323615   0.0024563998   20.447205      18.96789       1.4793154     -1.4986437      17762.834    
    722000   0.99725618     0.0023323615  -0.00046547929  20.572954      19.092029      1.4809254     -1.544042       17730.104    
    723000   1.0702407      0.0023323615  -7.9448014e-05  20.599628      19.010321      1.5893074     -1.3994866      17804.985    
    724000   1.0323115      0.0023323615   0.006168409    20.627811      19.094828      1.5329825     -1.6464491      17677.898    
    725000   1.0817062      0.0023323615  -0.00039794301  20.492345      18.886012      1.6063337     -1.62672        17665.803    
    726000   1.1626594      0.0023323615  -0.0023325686   20.793833      19.067283      1.7265492     -1.4261573      17616.331    
    727000   1.0311933      0.0023323615  -0.0002588282   20.988114      19.456792      1.5313221     -1.0890889      17743.645    
    728000   1.0373667      0.0023323615  -0.0030974232   20.771818      19.231329      1.5404896     -1.3579529      18024.974    
    729000   1.1449225      0.0023323615   0.0023355788   20.51699       18.816781      1.7002099     -1.7068434      17580.097    
    730000   0.97271391     0.0023323615   0.0031131522   20.68724       19.24276       1.4444802     -1.3105091      17687.663    
    731000   1.108313       0.0023323615   0.0034792041   20.66737       19.021525      1.6458448     -1.3937304      17736.862    
    732000   1.0487439      0.0023323615   0.0011958038   20.348297      18.790913      1.5573846     -1.7063838      17678.932    
    733000   0.99303735     0.0023323615   0.00025556137  20.503268      19.028608      1.4746605     -1.4077662      17543.737    
    734000   1.0275406      0.0023323615  -0.00050438689  20.567476      19.041578      1.5258978     -1.5101603      17833.61     
    735000   0.96676318     0.0023323615   0.0043370226   20.430852      18.995208      1.4356433     -1.5576588      17706.844    
    736000   1.0425105      0.0023323615  -0.0019103183   20.576375      19.028247      1.5481281     -1.4625937      17830.189    
    737000   1.0276413      0.0023323615  -0.0010612032   20.904108      19.37806       1.5260474     -1.1970552      17857.7      
    738000   0.97404403     0.0023323615  -0.0014466627   20.804477      19.358021      1.4464554     -1.1898984      17950.917    
    739000   0.91946022     0.0023323615   0.0031277195   20.224279      18.858881      1.3653984     -1.4764947      17912.064    
    740000   0.93429124     0.0023323615  -0.0031539691   20.505876      19.118454      1.3874225     -1.5042308      17840.744    
    741000   0.9271225      0.0023323615  -0.0018643236   20.314851      18.938074      1.3767769     -1.5617255      17737.672    
    742000   0.93678853     0.0023323615   0.0045721739   20.274719      18.883588      1.391131      -1.6721851      17799.137    
    743000   1.0036783      0.0023323615  -0.0014848066   20.632081      19.141618      1.4904623     -1.3269324      17668.814    
    744000   1.0568283      0.0023323615  -0.0012717104   20.476208      18.906818      1.5693901     -1.594754       17805.786    
    745000   1.0977066      0.0023323615  -0.000369815    20.700537      19.070443      1.6300944     -1.4251008      17715.789    
    746000   0.97112508     0.0023323615   0.003461666    20.41924       18.977119      1.4421207     -1.5994129      17566.944    
    747000   0.99140182     0.0023323615  -0.0016255159   20.212453      18.740221      1.4722317     -1.6569524      17690.607    
    748000   1.0129643      0.0023323615   0.00060476865  20.263839      18.759588      1.504252      -1.7543191      17555.487    
    749000   0.98447358     0.0023323615  -0.0015007471   20.46525       19.003306      1.4619433     -1.6107144      17603.44     
    750000   0.9208197      0.0023323615   0.00013368095  20.320483      18.953066      1.3674173     -1.5442138      17734.556    
    751000   1.03524        0.0023323615   0.0028561435   20.506661      18.969329      1.5373314     -1.4773453      17730.431    
    752000   0.98354785     0.0023323615  -0.0013579037   20.364903      18.904334      1.4605686     -1.6315133      17824.082    
    753000   0.97617306     0.0023323615   0.0028313195   20.083544      18.633927      1.449617      -1.9473292      17637.829    
    754000   0.89397046     0.0023323615   0.00090776445  20.261147      18.933601      1.3275461     -1.6346666      17542.846    
    755000   0.96310694     0.0023323615   0.0016376684   20.351917      18.921704      1.4302138     -1.6802141      17687.262    
    756000   1.0063925      0.0023323615   0.0034794632   20.085516      18.591023      1.4944928     -1.8555889      17690.469    
    757000   0.84127275     0.0023323615  -3.371953e-05   20.454589      19.205299      1.24929       -1.3992122      17815.289    
    758000   0.99359978     0.0023323615   0.0035631888   20.316557      18.841061      1.4754957     -1.6333118      17828.456    
    759000   0.92294456     0.0023323615  -0.0021860582   20.472365      19.101792      1.3705727     -1.4321108      17873.212    
    760000   1.0394588      0.0023323615  -0.0018382199   20.512291      18.968694      1.5435963     -1.4315456      17681.237    
    761000   0.92000192     0.0023323615  -0.0034286942   20.200243      18.83404       1.3662029     -1.6132871      17727.283    
    762000   0.99644492     0.0023323615   0.0010698636   20.587311      19.10759       1.4797207     -1.5202281      17808.928    
    763000   1.0264166      0.0023323615   0.0008687668   20.395594      18.871365      1.5242286     -1.7099462      17554.292    
    764000   0.94064956     0.0023323615   0.00092671399  20.092967      18.696102      1.3968646     -1.7813598      17728.879    
    765000   0.92698065     0.0023323615   0.0027776904   20.154712      18.778146      1.3765663     -1.6648393      17593.226    
    766000   0.8980032      0.0023323615  -0.0042820827   20.179783      18.846249      1.3335348     -1.6058501      17642.739    
    767000   0.95537783     0.0023323615  -0.0014636631   20.555876      19.13714       1.4187361     -1.4578636      17663.395    
    768000   0.93753616     0.0023323615  -0.0030408963   20.096442      18.704201      1.3922412     -1.7669012      17833.658    
    769000   1.0961307      0.0023323615  -0.00060946465  20.77553       19.147776      1.6277541     -1.3103917      17852.982    
    770000   0.99616096     0.0023323615   0.00092970781  20.352746      18.873447      1.479299      -1.5518565      17884.853    
    771000   0.98530615     0.0023323615   8.7847622e-05  20.493001      19.029821      1.4631796     -1.4389691      17850.906    
    772000   1.0099968      0.0023323615  -0.00046258633  20.429035      18.929189      1.4998453     -1.582548       17786.105    
    773000   1.1094828      0.0023323615   0.0058304329   20.51338       18.865798      1.6475819     -1.716549       17518.826    
    774000   0.89815889     0.0023323615   0.0014043376   20.140582      18.806816      1.333766      -1.6879117      17548.666    
    775000   0.87254411     0.0023323615  -0.0014704019   20.010417      18.714689      1.295728      -1.8302957      17536.549    
    776000   1.0770491      0.0023323615   0.0035133509   20.61813       19.018712      1.5994179     -1.5380434      17778.555    
    777000   0.99376513     0.0023323615  -0.0014400451   20.753736      19.277995      1.4757412     -1.4120054      17818.539    
    778000   1.1990768      0.0023323615  -0.0023484062   20.628446      18.847817      1.7806291     -1.640277       17786.437    
    779000   0.88896667     0.0023323615  -0.00090362009  20.137186      18.81707       1.3201155     -1.8022462      17622.022    
    780000   0.97809756     0.0023323615   9.4719997e-05  20.306152      18.853677      1.4524749     -1.6135434      17634.968    
    781000   0.96720499     0.0023323615  -0.0013458123   20.370659      18.934359      1.4362994     -1.5535901      17629.86     
    782000   0.91504986     0.0023323615  -0.002009964    20.446405      19.087556      1.358849      -1.5626574      17590.445    
    783000   0.8067516      0.0023323615  -0.00068753948  20.039967      18.841941      1.1980261     -1.7154986      17605.424    
    784000   0.88453038     0.0023323615   0.00099023531  20.246163      18.932636      1.3135276     -1.5353088      17588.446    
    785000   0.9558338      0.0023323615   0.0019289019   20.183876      18.764463      1.4194132     -1.7348398      17692.065    
    786000   1.0609193      0.0023323615   0.00024045243  20.371799      18.796333      1.5754652     -1.6822567      17672.84     
    787000   1.0815457      0.0023323615   0.0023920918   20.461265      18.85517       1.6060953     -1.6244278      17663.458    
    788000   1.0250394      0.0023323615  -0.0044691626   20.377416      18.855233      1.5221835     -1.6722095      17626.077    
    789000   1.0927831      0.0023323615   0.00084865069  20.984401      19.361618      1.622783      -1.2258616      17718.865    
    790000   0.98789365     0.0023323615   0.0035031695   20.721811      19.254789      1.4670221     -1.3338881      17890.854    
    791000   0.93675812     0.0023323615  -0.0021018087   20.530766      19.13968       1.3910858     -1.31092        17888.821    
    792000   0.93747253     0.0023323615  -0.0026575161   20.387078      18.994932      1.3921467     -1.6182621      17794.86     
    793000   0.94344988     0.0023323615   0.0039670736   20.599539      19.198516      1.4010231     -1.2740157      17657.552    
    794000   0.83803286     0.0023323615   9.2028877e-05  20.558466      19.313987      1.2444788     -1.227285       18022.862    
    795000   0.92274102     0.0023323615  -0.00063921581  20.547215      19.176945      1.3702704     -1.3993216      18362.112    
    796000   1.0513793      0.0023323615   0.0035798492   20.460775      18.899477      1.5612982     -1.7529295      18100.823    
    797000   1.0802085      0.0023323615   0.00050654509  20.395663      18.791553      1.6041097     -1.7236536      17636.439    
    798000   0.94212476     0.0023323615   0.00021188792  20.318809      18.919754      1.3990553     -1.6850317      17723.376    
    799000   1.0320411      0.0023323615  -0.0002273857   20.724325      19.191744      1.532581      -1.2723094      17728.788    
    800000   1.0444044      0.0023323615  -0.00015912324  20.869862      19.318922      1.5509405     -1.2950298      18143.913    
    801000   1.1273811      0.0023323615  -0.0018151542   20.3989        18.724739      1.674161      -1.6784563      17720.51     
    802000   0.85874854     0.0023323615   0.00018784402  20.268957      18.993716      1.2752416     -1.4380172      17787.404    
    803000   0.93967736     0.0023323615   0.0010805203   20.37009       18.974669      1.3954209     -1.6075078      17735.712    
    804000   0.9523748      0.0023323615  -1.4053533e-05  20.317096      18.902819      1.4142766     -1.5695473      17838.35     
    805000   1.0364786      0.0023323615   0.00063789967  20.274352      18.735181      1.5391707     -1.7631609      17987.845    
    806000   1.046283       0.0023323615  -0.0016526241   20.443367      18.889637      1.5537302     -1.6063571      17809.907    
    807000   0.9617061      0.0023323615  -0.0018431852   20.392652      18.964519      1.4281336     -1.6787379      17767.561    
    808000   1.1088187      0.0023323615   0.0054697321   20.742497      19.095901      1.6465958     -1.5127593      17885.231    
    809000   0.9141765      0.0023323615  -0.0030714286   20.566578      19.209025      1.3575521     -1.3666056      17845.982    
    810000   0.94751409     0.0023323615   0.0075431519   20.291783      18.884724      1.4070584     -1.6232745      17897.658    
    811000   0.90932774     0.0023323615   0.00026401282  20.29265       18.942298      1.3503517     -1.5521509      18034.728    
    812000   1.1224637      0.0023323615   0.0028622947   20.364816      18.697957      1.6668585     -1.7728939      17835.067    
    813000   1.0361188      0.0023323615   8.4591618e-05  20.53747       18.998833      1.5386364     -1.4187075      17861.128    
    814000   1.0395686      0.0023323615   0.0030783158   20.666644      19.122884      1.5437593     -1.3472554      17915.395    
    815000   1.0191332      0.0023323615   0.0034678441   20.359449      18.846036      1.5134128     -1.6856853      17824.527    
    816000   0.8555669      0.0023323615  -0.0011195241   20.23726       18.966743      1.2705168     -1.5958643      17664.121    
    817000   0.94948406     0.0023323615   0.0054065608   20.423646      19.013662      1.4099838     -1.4617427      17746.196    
    818000   0.93342379     0.0023323615  -0.0024018889   20.445198      19.059064      1.3861343     -1.3849885      17732.294    
    819000   0.89211477     0.0023323615   0.0023451854   20.280422      18.955632      1.3247904     -1.5730544      17684.67     
    820000   0.92101034     0.0023323615   0.0014306167   20.462798      19.095098      1.3677003     -1.4614587      17742.02     
    821000   0.92932967     0.0023323615   0.0023383738   20.325308      18.945253      1.3800546     -1.6506671      17817.4      
    822000   1.0020636      0.0023323615   0.00027300083  20.455765      18.967701      1.4880645     -1.4800771      17850.124    
    823000   0.91040413     0.0023323615  -0.0010720236   20.608704      19.256754      1.3519501     -1.2303159      17785.816    
    824000   0.86132323     0.0023323615  -0.00028007043  20.009335      18.73027       1.279065      -1.7913715      17736.771    
    825000   1.0380086      0.0023323615  -0.0025796528   20.553612      19.012169      1.5414427     -1.5538116      17690.259    
    826000   0.93550864     0.0023323615  -0.0030630935   20.344662      18.955432      1.3892303     -1.4911318      17778.235    
    827000   0.99090597     0.0023323615  -0.00098857982  20.618948      19.147452      1.4714954     -1.3069583      17828.386    
    828000   1.0170674      0.0023323615  -0.0021669454   20.347328      18.836983      1.5103451     -1.6311052      17764.038    
    829000   1.0327036      0.0023323615   0.00057055956  20.514762      18.981197      1.5335648     -1.4523994      17531.895    
    830000   0.96536097     0.0023323615  -0.0034882741   20.482518      19.048957      1.433561      -1.6277495      17765.793    
    831000   1.1565293      0.0023323615   0.00025485737  20.897905      19.180459      1.717446      -1.4682018      17653.748    
    832000   0.94876722     0.0023323615   0.0018998168   20.432704      19.023785      1.4089193     -1.4726413      17665.953    
    833000   1.0241376      0.0023323615   0.0003922547   20.57863       19.057786      1.5208443     -1.3321553      17534.774    
    834000   1.0815717      0.0023323615   0.00048604691  20.718894      19.11276       1.6061339     -1.3531416      17815.2      
    835000   0.86969553     0.0023323615   0.00010356211  20.187089      18.895592      1.2914979     -1.6125846      17690.572    
    836000   1.0922357      0.0023323615   0.00023564276  20.239038      18.617068      1.62197       -1.8105727      17416.852    
    837000   0.92556856     0.0023323615  -0.0033432167   20.630108      19.255639      1.3744693     -1.3784449      17757.442    
    838000   0.96313774     0.0023323615   0.0027645135   20.493816      19.063557      1.4302595     -1.5245427      17759.639    
    839000   0.86846193     0.0023323615   0.00071479762  20.083931      18.794265      1.289666      -1.6755849      17707.466    
    840000   0.94696699     0.0023323615  -0.0012530693   20.452749      19.046503      1.406246      -1.3918779      17678.628    
    841000   0.84771791     0.0023323615   0.00087467629  20.167431      18.90857       1.2588611     -1.498915       17658.539    
    842000   1.1476444      0.0023323615  -0.00019151773  20.819949      19.115698      1.7042519     -1.4329944      17814.478    
    843000   0.98913499     0.0023323615   0.0052818156   20.452057      18.983191      1.4688655     -1.4829875      17658.286    
    844000   1.0023481      0.0023323615  -0.0032737647   20.771337      19.28285       1.488487      -1.3303059      17730.529    
    845000   0.90952793     0.0023323615   0.0012107362   20.444536      19.093887      1.350649      -1.5365543      17703.229    
    846000   1.0107787      0.0023323615  -0.0046493606   20.408181      18.907175      1.5010063     -1.7063974      17776.279    
    847000   1.022507       0.0023323615  -0.0037062317   20.468086      18.949663      1.5184228     -1.6147521      17716.307    
    848000   1.0026521      0.0023323615  -0.0012286088   20.462223      18.973285      1.4889384     -1.5939216      17620.529    
    849000   0.88941639     0.0023323615   0.0027805541   20.202816      18.882033      1.3207833     -1.5698106      17591.021    
    850000   0.92036345     0.0023323615   0.00076711836  20.437083      19.070343      1.3667397     -1.4850399      17689.933    
    851000   1.0284576      0.0023323615  -0.0022701613   20.396304      18.869045      1.5272595     -1.5664164      17650.966    
    852000   0.89967104     0.0023323615   0.0023165127   20.063305      18.727294      1.3360115     -1.7050344      17536.641    
    853000   1.0478495      0.0023323615  -0.0016570314   20.45149       18.895434      1.5560565     -1.5535538      17739.813    
    854000   1.0532251      0.0023323615   0.0044515437   20.669784      19.105745      1.5640392     -1.3741373      17622.654    
    855000   1.1221956      0.0023323615  -0.00010538509  20.643081      18.97662       1.6664605     -1.4965131      17668.577    
    856000   1.1411404      0.0023323615  -0.00088538776  20.906176      19.211583      1.6945934     -1.4724651      17601.677    
    857000   1.1180338      0.0023323615   0.0017160737   20.443924      18.783644      1.6602803     -1.7125066      17594.538    
    858000   1.1182129      0.0023323615   0.0025374679   20.796894      19.136348      1.6605462     -1.4181883      17458.347    
    859000   1.0544         0.0023323615  -0.00059414603  20.639267      19.073483      1.565784      -1.4936105      17705.952    
    860000   1.019691       0.0023323615  -0.0021135775   20.14666       18.632419      1.5142411     -1.8220944      17600.898    
    861000   0.9792447      0.0023323615   0.0030030902   20.372396      18.918218      1.4541784     -1.5123956      17593.437    
    862000   0.88384224     0.0023323615  -0.0019083808   20.374378      19.061872      1.3125057     -1.5437496      17634.127    
    863000   1.08903        0.0023323615  -0.00091023132  20.400645      18.783436      1.6172095     -1.7294124      17716.455    
    864000   0.98346795     0.0023323615  -0.00050634968  20.008985      18.548536      1.4604499     -1.9456356      17673.905    
    865000   0.90770915     0.0023323615  -0.0015090095   20.217451      18.869503      1.3479481     -1.6951134      17562.245    
    866000   1.07008        0.0023323615   0.0015902235   20.601884      19.012815      1.5890688     -1.5467638      17794.495    
    867000   0.98557414     0.0023323615   0.0017492366   20.625431      19.161854      1.4635776     -1.3421701      17661.567    
    868000   0.83582672     0.0023323615  -0.0022285979   20.196162      18.954959      1.2412027     -1.5132894      17568.354    
    869000   0.88373256     0.0023323615   0.0016751126   20.32974       19.017397      1.3123428     -1.5668155      17547.404    
    870000   0.9634374      0.0023323615   0.0015160154   20.508444      19.07774       1.4307045     -1.4404694      17627.12     
    871000   0.94894861     0.0023323615  -0.0037052894   20.49818       19.088991      1.4091887     -1.5735957      17520.425    
    872000   0.98175195     0.0023323615   0.00080665422  20.419448      18.961547      1.4579016     -1.492495       17841.312    
    873000   0.97779304     0.0023323615   0.00014013116  20.494348      19.042326      1.4520227     -1.3648392      17869.64     
    874000   1.0171837      0.0023323615   0.0016125613   20.328205      18.817687      1.5105179     -1.6416062      18000.49     
    875000   0.91717526     0.0023323615  -0.0043030572   20.234467      18.872462      1.3620053     -1.6267478      18102.52     
    876000   1.0125779      0.0023323615   0.00084753702  20.332627      18.828949      1.5036782     -1.5254622      18139.973    
    877000   0.94986452     0.0023323615   4.2471479e-05  20.360813      18.950264      1.4105488     -1.4136561      18008.905    
    878000   1.1037143      0.0023323615   0.0033795803   20.570331      18.931315      1.6390158     -1.6603121      17958.265    
    879000   0.96378647     0.0023323615  -0.0012214438   20.445244      19.014021      1.4312229     -1.5726149      17818.427    
    880000   0.94132497     0.0023323615  -0.0010600581   20.424141      19.026273      1.3978676     -1.464663       17829.491    
    881000   0.91819006     0.0023323615  -0.0011616796   20.178269      18.814756      1.3635122     -1.5866995      17633.255    
    882000   1.141833       0.0023323615  -0.001813924    20.6181        18.922478      1.695622      -1.6813377      17776.301    
    883000   1.0547812      0.0023323615   0.0047793366   20.557576      18.991226      1.56635       -1.5776684      17785.014    
    884000   1.1201214      0.0023323615   0.0073799965   20.530085      18.866704      1.6633803     -1.6669299      17869.986    
    885000   0.88417258     0.0023323615  -9.6100903e-05  20.318623      19.005626      1.3129963     -1.5380749      17648.741    
    886000   0.9800704      0.0023323615   0.0029720124   20.43202       18.976616      1.4554045     -1.5015485      17772.651    
    887000   1.0419578      0.0023323615  -0.00499994     20.375522      18.828215      1.5473073     -1.6614787      17790.625    
    888000   1.0389391      0.0023323615  -8.3513307e-05  20.496794      18.95397       1.5428246     -1.5820099      17687.35     
    889000   1.0206497      0.0023323615  -0.00010719985  20.622873      19.107208      1.5156649     -1.5395009      17716.213    
    890000   0.97040887     0.0023323615   0.0021979182   20.585012      19.143955      1.4410572     -1.3905482      17733.884    
    891000   0.86979307     0.0023323615  -0.0023089789   20.080017      18.788374      1.2916427     -1.623553       17598.586    
    892000   0.85595546     0.0023323615  -0.00070203455  20.164134      18.89304       1.2710939     -1.6198456      17716.424    
    893000   0.9737697      0.0023323615   0.0024763494   20.671574      19.225526      1.446048      -1.3973451      17793.432    
    894000   0.94273764     0.0023323615  -0.0038942085   20.238855      18.838889      1.3999654     -1.6962999      17831.485    
    895000   0.91942021     0.0023323615  -0.0058301405   20.540283      19.174944      1.365339      -1.3939917      17900.692    
    896000   1.0056838      0.0023323615   0.0026017163   20.455783      18.962342      1.4934405     -1.5125171      17978.643    
    897000   1.0175276      0.0023323615  -0.00055741369  20.436459      18.925431      1.5110285     -1.5922183      18020.49     
    898000   1.0407143      0.0023323615  -0.0022924056   20.812534      19.267073      1.5454607     -1.3850162      18015.412    
    899000   0.93474623     0.0023323615   0.001058709    20.507307      19.119209      1.3880982     -1.3876045      18011.398    
    900000   0.92839312     0.0023323615   0.0021715254   20.651474      19.272811      1.3786638     -1.2461484      18104.973    
    901000   1.0744083      0.0023323615  -0.0025054868   20.862162      19.266666      1.5954964     -1.2825069      18097.272    
    902000   1.0828575      0.0023323615  -0.0029089796   20.755096      19.147053      1.6080434     -1.3527077      18049.378    
    903000   0.92874583     0.0023323615  -0.001257566    20.358789      18.979602      1.3791876     -1.5761084      17964.839    
    904000   0.89324165     0.0023323615   0.00026229664  20.210289      18.883825      1.3264638     -1.5371034      18248.525    
    905000   1.0502986      0.0023323615   0.0018936257   20.532042      18.972348      1.5596935     -1.5206711      17939.763    
    906000   1.0044288      0.0023323615   0.00078534573  20.617844      19.126267      1.4915768     -1.4487839      18032.21     
    907000   0.97755425     0.0023323615   0.0030874714   20.16603       18.714362      1.4516681     -1.7825463      18008.239    
    908000   1.0246488      0.0023323615  -0.0022865063   20.327013      18.80541       1.5216035     -1.822377       17783.601    
    909000   1.05583        0.0023323615  -0.001383648    20.354815      18.786908      1.5679075     -1.6964417      17620.243    
    910000   1.0462186      0.0023323615   0.0006499548   20.612005      19.05837       1.5536346     -1.2956886      17993.442    
    911000   1.2408898      0.0023323615  -0.0038964786   20.897528      19.054807      1.8427214     -1.481656       17944.163    
    912000   0.88041041     0.0023323615  -0.0045147842   20.407112      19.099702      1.3074095     -1.4796594      17878.574    
    913000   1.0549991      0.0023323615   0.00013190436  20.527335      18.960661      1.5666737     -1.5075739      17801.727    
    914000   0.96536718     0.0023323615   0.0018007049   20.349236      18.915666      1.4335703     -1.5296461      17868.326    
    915000   1.0519018      0.0023323615   0.0040644012   20.415931      18.853857      1.5620742     -1.5926039      17881.197    
    916000   1.0938882      0.0023323615   0.0013091002   20.803926      19.179502      1.624424      -1.2712223      18038.842    
    917000   0.86829164     0.0023323615   0.00089258102  20.312491      19.023078      1.2894131     -1.3829626      18342.355    
    918000   1.144253       0.0023323615  -0.0030252733   21.008155      19.30894       1.6992157     -1.154176       18847.479    
    919000   1.0846564      0.0023323615   0.0014547949   20.931246      19.320531      1.6107148     -1.1835311      18175.396    
    920000   0.97387027     0.0023323615   0.0010564984   20.504648      19.058451      1.4461973     -1.5308413      17964.341    
    921000   0.84786806     0.0023323615  -0.0042109917   20.358021      19.098937      1.2590841     -1.473644       17932.486    
    922000   0.88710583     0.0023323615  -0.0029842119   20.373777      19.056425      1.3173522     -1.5665477      18087.791    
    923000   0.87231938     0.0023323615  -0.0026543667   20.445111      19.149716      1.2953943     -1.4723806      18015.491    
    924000   0.97862389     0.0023323615  -0.0033431372   20.195347      18.742091      1.4532565     -1.6647913      17981.338    
    925000   0.94309356     0.0023323615  -0.00097753293  20.174045      18.773551      1.4004939     -1.8644816      17945.072    
    926000   1.0262813      0.0023323615   0.0028776794   20.501894      18.977866      1.5240277     -1.5497244      17768.494    
    927000   0.96261331     0.0023323615   0.001070811    20.238321      18.808841      1.4294808     -1.577978       18082.872    
    928000   1.031053       0.0023323615  -0.00035422214  20.35251       18.821396      1.5311137     -1.7019159      18066.19     
    929000   0.93263281     0.0023323615  -0.0027665649   20.529492      19.144533      1.3849597     -1.374787       17713.516    
    930000   1.1120164      0.0023323615   0.0014332577   20.656529      19.005185      1.6513443     -1.4544097      17777.361    
    931000   1.0645775      0.0023323615  -0.00060866226  20.313565      18.732667      1.5808977     -1.6431683      17923.312    
    932000   0.93919128     0.0023323615  -0.001443145    20.37019       18.975491      1.394699      -1.6222566      17725.765    
    933000   1.0195145      0.0023323615  -0.0018025798   20.547288      19.03331       1.513979      -1.5629156      17762.888    
    934000   0.92727991     0.0023323615  -0.0010456655   20.400509      19.023498      1.3770107     -1.5253983      17858.322    
    935000   1.0906751      0.0023323615   0.0015003125   20.639927      19.020275      1.6196526     -1.5729053      17595.537    
    936000   1.0402741      0.0023323615   0.0022080441   20.518053      18.973246      1.5448071     -1.5555014      17630.29     
    937000   1.0387936      0.0023323615  -0.0046040255   20.65425       19.111641      1.5426085     -1.5540643      17555.16     
    938000   0.88563105     0.0023323615   0.0020581206   20.363327      19.048165      1.3151621     -1.5316824      17538.73     
    939000   0.86255799     0.0023323615  -0.0016277343   20.257383      18.976484      1.2808986     -1.5273926      17739.551    
    940000   1.0098567      0.0023323615  -0.0027556837   20.615005      19.115368      1.4996372     -1.4131962      17745.402    
    941000   1.0994072      0.0023323615  -0.0046213908   20.862186      19.229566      1.6326196     -1.3625151      17770.31     
    942000   1.0370053      0.0023323615  -0.0020229997   20.723763      19.18381       1.5399529     -1.3562452      17595.155    
    943000   0.75120456     0.0023323615   0.0057653335   20.006781      18.891242      1.1155388     -1.4988802      17853.579    
    944000   0.92380615     0.0023323615  -0.00012890681  20.321776      18.949924      1.3718521     -1.4322416      17547.024    
    945000   0.88881795     0.0023323615  -0.001254375    20.366111      19.046216      1.3198947     -1.4401973      17766.808    
    946000   0.9865375      0.0023323615   0.00083744996  20.59354       19.128532      1.4650082     -1.4386537      17840.715    
    947000   0.99567057     0.0023323615  -0.0037619732   20.371709      18.893138      1.4785708     -1.5029167      17751.906    
    948000   1.0813728      0.0023323615  -0.00023279328  20.562937      18.957098      1.6058386     -1.5950778      17627.241    
    949000   1.117924       0.0023323615  -0.0029679257   20.603677      18.94356       1.6601171     -1.5134426      17477.175    
    950000   0.80435768     0.0023323615  -0.0024930213   20.240306      19.045835      1.1944711     -1.5104088      17517.408    
    951000   0.95706675     0.0023323615   0.0031704901   20.37911       18.957866      1.4212441     -1.5193387      17406.34     
    952000   1.0512251      0.0023323615   0.0040299764   20.339799      18.77873       1.5610693     -1.7205189      17477.215    
    953000   0.97609697     0.0023323615   8.8745549e-05  20.642572      19.193068      1.449504      -1.3514835      17741.197    
    954000   0.98366177     0.0023323615   0.0011004353   20.435149      18.974412      1.4607377     -1.5327395      17938.586    
    955000   0.93759906     0.0023323615  -0.00021493284  20.531792      19.139457      1.3923346     -1.3664019      17747.894    
    956000   1.0703711      0.0023323615   0.0050425908   20.484438      18.894937      1.5895011     -1.7255332      17410.014    
    957000   1.039335       0.0023323615  -0.0019754346   20.74236       19.198948      1.5434124     -1.3102038      17589.382    
    958000   0.9654798      0.0023323615  -0.00059416539  20.443243      19.009506      1.4337375     -1.5024355      17830.262    
    959000   0.91006978     0.0023323615   0.0002662936   20.330083      18.978629      1.3514536     -1.5082715      17511.179    
    960000   0.98229235     0.0023323615  -0.0047960818   20.404144      18.945439      1.4587041     -1.5902972      17634.358    
    961000   0.9556233      0.0023323615  -0.005453666    20.369442      18.950341      1.4191006     -1.5931821      17442.763    
    962000   0.96647559     0.0023323615   0.001378597    20.335357      18.900141      1.4352162     -1.6471528      17364.841    
    963000   0.94122505     0.0023323615   0.0027630079   20.226844      18.829125      1.3977192     -1.5515056      17572.693    
    964000   0.9251482      0.0023323615  -0.00063039839  20.619151      19.245306      1.3738451     -1.3898864      17654.488    
    965000   0.88374095     0.0023323615  -0.0011773881   20.191945      18.87959       1.3123553     -1.5773884      17521.231    
    966000   1.0071657      0.0023323615  -0.00085136457  20.766218      19.270577      1.4956411     -1.187942       17837.996    
    967000   1.136048       0.0023323615  -0.0030323512   20.918963      19.231932      1.6870313     -1.2838157      18033.633    
    968000   1.111966       0.0023323615   0.0025908823   20.659678      19.008409      1.6512694     -1.5582073      17723.43     
    969000   1.1479148      0.0023323615   0.0034735055   20.35777       18.653116      1.7046535     -1.8136877      17573.498    
    970000   1.2013475      0.0023323615  -0.00015612266  20.588386      18.804385      1.784001      -1.6327815      17320.666    
    971000   1.0818714      0.0023323615  -0.0028264159   20.762011      19.155432      1.606579      -1.3731409      17630        
    972000   1.074064       0.0023323615  -0.0038111292   20.577957      18.982972      1.594985      -1.5591309      17644.005    
    973000   1.0564386      0.0023323615   0.00077166954  20.297656      18.728844      1.5688114     -1.6980564      17551.203    
    974000   0.98010761     0.0023323615  -0.0043857855   20.397652      18.942193      1.4554598     -1.6564379      17429.416    
    975000   0.88766388     0.0023323615  -0.00090904038  20.023426      18.705245      1.3181809     -1.7449608      17585.731    
    976000   0.92541905     0.0023323615   0.0014043476   20.17112       18.796873      1.3742473     -1.7415492      17636.458    
    977000   0.972889       0.0023323615  -0.0039446427   20.261478      18.816738      1.4447402     -1.6349074      17569.73     
    978000   1.1072803      0.0023323615   0.00090507776  20.842459      19.198148      1.6443112     -1.28766        17704.611    
    979000   1.1396548      0.0023323615  -0.0020853927   20.730074      19.037687      1.6923874     -1.4771493      17743.67     
    980000   1.0277364      0.0023323615   0.00085699816  20.697246      19.171058      1.5261886     -1.3481357      17932.544    
    981000   0.94816405     0.0023323615  -0.0012207198   20.334874      18.92685       1.4080236     -1.5662923      17905.631    
    982000   1.0446881      0.0023323615  -0.0026633512   20.815002      19.26364       1.5513618     -1.2770444      17869.807    
    983000   1.0382069      0.0023323615   0.0019554851   20.424432      18.882695      1.5417372     -1.5996596      17746.724    
    984000   0.8635464      0.0023323615  -0.0019485491   20.322232      19.039866      1.2823664     -1.4995159      17700.216    
    985000   1.0466295      0.0023323615   0.0012048222   20.53897       18.984725      1.5542448     -1.4898081      17843.566    
    986000   0.90860943     0.0023323615   0.0016809782   20.630706      19.281421      1.349285      -1.2736928      17874.172    
    987000   1.0719565      0.0023323615   0.0020236686   20.6089        19.017045      1.5918554     -1.3203987      18007.537    
    988000   1.0592233      0.0023323615  -0.00092215736  20.616701      19.043755      1.5729466     -1.4200834      17805.976    
    989000   1.018772       0.0023323615   0.0047551022   20.612958      19.100081      1.5128765     -1.4645221      17670.719    
    990000   1.1067237      0.0023323615  -0.00020967571  20.216808      18.573323      1.6434847     -1.9150008      17334.873    
    991000   1.0046523      0.0023323615   0.0016992191   20.230407      18.738498      1.4919087     -1.8238176      17666.406    
    992000   0.91923141     0.0023323615  -0.0022562328   20.27614       18.911082      1.3650587     -1.5313535      19041.358    
    993000   1.1597469      0.0023323615  -0.0018537213   20.647974      18.92575       1.7222242     -1.5819629      19121.175    
    994000   1.087515       0.0023323615   0.0014655626   20.826641      19.211681      1.6149598     -1.3735478      19397.235    
    995000   0.93689713     0.0023323615   0.0011549921   20.648103      19.256811      1.3912922     -1.2585204      19538.53     
    996000   0.94006818     0.0023323615   0.0025377485   20.300932      18.904931      1.3960013     -1.4899056      19452.162    
    997000   0.95418054     0.0023323615   0.00071576022  20.421643      19.004685      1.4169581     -1.4320573      18547.039    
    998000   1.0101151      0.0023323615   0.0058216717   20.33158       18.831559      1.500021      -1.5970081      17787.645    
    999000   1.0701648      0.0023323615   0.0035607427   20.753506      19.164312      1.5891947     -1.3423826      18158.978    
   1000000   0.99693007     0.0023323615   0.0013212045   20.540634      19.060192      1.4804412     -1.5000867      19181.482    
Loop time of 56.2487 on 1 procs for 1000000 steps with 100 atoms

Performance: 7680183.095 tau/day, 17778.202 timesteps/s
99.4% CPU use with 1 MPI tasks x 1 OpenMP threads

MPI task timing breakdown:
Section |  min time  |  avg time  |  max time  |%varavg| %total
---------------------------------------------------------------
Pair    | 47.137     | 47.137     | 47.137     |   0.0 | 83.80
Bond    | 1.3904     | 1.3904     | 1.3904     |   0.0 |  2.47
Neigh   | 3.8231     | 3.8231     | 3.8231     |   0.0 |  6.80
Comm    | 1.3754     | 1.3754     | 1.3754     |   0.0 |  2.45
Output  | 0.21273    | 0.21273    | 0.21273    |   0.0 |  0.38
Modify  | 1.9532     | 1.9532     | 1.9532     |   0.0 |  3.47
Other   |            | 0.3565     |            |       |  0.63

Nlocal:            100 ave         100 max         100 min
Histogram: 1 0 0 0 0 0 0 0 0 0
Nghost:            344 ave         344 max         344 min
Histogram: 1 0 0 0 0 0 0 0 0 0
Neighs:           4851 ave        4851 max        4851 min
Histogram: 1 0 0 0 0 0 0 0 0 0

Total # of neighbors = 4851
Ave neighs/atom = 48.51
Ave special neighs/atom = 1.98
Neighbor list builds = 97907
Dangerous builds = 80197

write_data      ${outputfile_assembled} nofix nocoeff
write_data      7_assembled.data nofix nocoeff
System init for write_data ...
Generated 0 of 6 mixed pair_coeff terms from geometric mixing rule

Total wall time: 0:00:57
