LAMMPS (23 Jun 2022 - Update 1)
OMP_NUM_THREADS environment is not set. Defaulting to 1 thread. (src/comm.cpp:98)
  using 1 OpenMP thread(s) per MPI task


variable        runtime equal 1000000
variable		subsample_rate equal 1000

variable		outputfile_created string '3_created.data'
variable		outputfile_relaxed string '5_relaxed.data'
variable		outputfile_selfasb string '6_a_self_assemble.lammpstrj'
variable		outputfile_trajlin string '6_b_trajlin.data'
variable		outputfile_assembled string '7_assembled.data'

units           lj
atom_style      full
dimension       3
boundary        p p p
timestep        0.005

read_data       ${outputfile_created}
read_data       3_created.data
Reading data file ...
  orthogonal box = (0 0 0) to (35 35 35)
  1 by 1 by 1 MPI processor grid
  reading atoms ...
  100 atoms
  reading velocities ...
  100 velocities
  scanning bonds ...
  1 = max bonds/atom
  reading bonds ...
  99 bonds
Finding 1-2 1-3 1-4 neighbors ...
  special bond factors lj:    0        0        0       
  special bond factors coul:  0        0        0       
     2 = max # of 1-2 neighbors
     2 = max # of 1-3 neighbors
     4 = max # of 1-4 neighbors
     6 = max # of special neighbors
  special bonds CPU = 0.000 seconds
  read_data CPU = 0.005 seconds

bond_style      fene
bond_coeff      * 30.0 1.5 1.0 1.0
special_bonds   fene
Finding 1-2 1-3 1-4 neighbors ...
  special bond factors lj:    0        1        1       
  special bond factors coul:  0        1        1       
     2 = max # of 1-2 neighbors
     6 = max # of special neighbors
  special bonds CPU = 0.000 seconds

variable        Temp equal 1.0
variable        velSeed equal 926458

velocity        all create ${Temp} ${velSeed}
velocity        all create 1 ${velSeed}
velocity        all create 1 926458

### Output
thermo_style    custom step temp density press etotal pe ke epair spcpu
thermo          1000

###########################################################################
# Soft relaxation (to remove overlaps of particles)
######################################################################

pair_style      soft 1.0
pair_coeff      * * 0.0
variable        prefactor equal ramp(0,300)
fix             rampSoft all adapt 1 pair soft a * * v_prefactor

minimize        0.0 1.0e-8 1000 100000
WARNING: Using 'neigh_modify every 1 delay 0 check yes' setting during minimization (src/min.cpp:187)
Generated 0 of 6 mixed pair_coeff terms from geometric mixing rule
Neighbor list info ...
  update every 1 steps, delay 0 steps, check yes
  max neighbors/atom: 2000, page size: 100000
  master list distance cutoff = 1.3
  ghost atom cutoff = 1.3
  binsize = 0.65, bins = 54 54 54
  1 neighbor lists, perpetual/occasional/extra = 1 0 0
  (1) pair soft, perpetual
      attributes: half, newton on
      pair build: half/bin/newton
      stencil: half/bin/3d
      bin: standard
WARNING: Communication cutoff 1.3 is shorter than a bond length based estimate of 1.7550000000000001. This may lead to errors. (src/comm.cpp:727)
Per MPI rank memory allocation (min/avg/max) = 8.346 | 8.346 | 8.346 Mbytes
   Step          Temp         Density         Press          TotEng         PotEng         KinEng         E_pair         S/CPU     
         0   1              0.0023323615  -0.0039617958   21.524174      20.039174      1.485          0              0            
       362   1              0.0023323615   0.0023090379   21.485548      20.000548      1.485          0              70884.809    
Loop time of 0.00510921 on 1 procs for 362 steps with 100 atoms

98.0% CPU use with 1 MPI tasks x 1 OpenMP threads

Minimization stats:
  Stopping criterion = force tolerance
  Energy initial, next-to-last, final = 
      20.0391741078675   20.0005480767337   20.0005480767337
  Force two-norm initial, final = 11.878422 7.9509778e-09
  Force max component initial, final = 6.6117807 1.3572772e-09
  Final line search alpha, max atom move = 1 1.3572772e-09
  Iterations, force evaluations = 362 738

MPI task timing breakdown:
Section |  min time  |  avg time  |  max time  |%varavg| %total
---------------------------------------------------------------
Pair    | 0.00023229 | 0.00023229 | 0.00023229 |   0.0 |  4.55
Bond    | 0.0023323  | 0.0023323  | 0.0023323  |   0.0 | 45.65
Neigh   | 0.0013901  | 0.0013901  | 0.0013901  |   0.0 | 27.21
Comm    | 0.0001826  | 0.0001826  | 0.0001826  |   0.0 |  3.57
Output  | 0          | 0          | 0          |   0.0 |  0.00
Modify  | 0          | 0          | 0          |   0.0 |  0.00
Other   |            | 0.0009719  |            |       | 19.02

Nlocal:            100 ave         100 max         100 min
Histogram: 1 0 0 0 0 0 0 0 0 0
Nghost:             20 ave          20 max          20 min
Histogram: 1 0 0 0 0 0 0 0 0 0
Neighs:              0 ave           0 max           0 min
Histogram: 1 0 0 0 0 0 0 0 0 0

Total # of neighbors = 0
Ave neighs/atom = 0
Ave special neighs/atom = 1.98
Neighbor list builds = 17
Dangerous builds = 0

fix             nvtSoft all nvt temp ${Temp} ${Temp} 0.5
fix             nvtSoft all nvt temp 1 ${Temp} 0.5
fix             nvtSoft all nvt temp 1 1 0.5
run             100000
Generated 0 of 6 mixed pair_coeff terms from geometric mixing rule
WARNING: Communication cutoff 1.3 is shorter than a bond length based estimate of 1.7550000000000001. This may lead to errors. (src/comm.cpp:727)
Per MPI rank memory allocation (min/avg/max) = 7.221 | 7.221 | 7.221 Mbytes
   Step          Temp         Density         Press          TotEng         PotEng         KinEng         E_pair         S/CPU     
       362   1              0.0023323615   0.0023090379   21.485548      20.000548      1.485          0              0            
      1000   0.90989032     0.0023323615  -0.0021940042   21.776974      20.425787      1.3511871      0.00036425437  79071.752    
      2000   0.86546688     0.0023323615   0.0034714157   21.677128      20.39191       1.2852183      0.0025814786   77099.611    
      3000   0.98199538     0.0023323615   0.0028144228   21.866132      20.407869      1.4582631      0.0011756043   71172.761    
      4000   1.004495       0.0023323615  -0.0014058211   21.945624      20.453949      1.4916751      0.011986179    72358.963    
      5000   1.1222705      0.0023323615   0.0044495116   21.986385      20.319813      1.6665718      0.0050317639   74718.318    
      6000   1.0538243      0.0023323615   0.0023957538   21.985713      20.420784      1.564929       0.012100514    75563.184    
      7000   1.0210598      0.0023323615  -0.00038820026  21.904665      20.388391      1.5162738      0              77108.725    
      8000   0.94819751     0.0023323615   0.0024943091   21.747889      20.339816      1.4080733      0              77308.501    
      9000   0.92364502     0.0023323615   0.0020053029   21.724166      20.352554      1.3716129      1.7780894e-05  76429.18     
     10000   0.86685188     0.0023323615   0.00078277366  21.644879      20.357604      1.287275       0.0098636418   76823.85     
     11000   1.0057103      0.0023323615   0.00010113276  21.8558        20.362321      1.4934798      0.020705341    76435.156    
     12000   0.97901664     0.0023323615  -0.0026996968   21.871206      20.417366      1.4538397      0.0052928539   76057.675    
     13000   0.97718436     0.0023323615  -6.1641422e-06  21.963706      20.512587      1.4511188      0.025022446    76093.743    
     14000   1.0530014      0.0023323615  -0.0009993112   21.947994      20.384287      1.5637071      0.0020860456   75166.663    
     15000   0.99094527     0.0023323615   0.0011068478   21.895146      20.423592      1.4715537      0.0015091113   76418.947    
     16000   0.91285091     0.0023323615  -0.00025424173  21.87524       20.519657      1.3555836      0.0047853639   75920.563    
     17000   0.82806978     0.0023323615  -0.00054698156  21.701984      20.472301      1.2296836      0              75881.435    
     18000   1.043278       0.0023323615  -6.6143919e-05  22.003299      20.454031      1.5492679      0.0034319132   77051.462    
     19000   1.0879249      0.0023323615  -0.0017804642   21.998985      20.383416      1.6155685      0.015376175    75461.948    
     20000   1.1144506      0.0023323615   0.0025198298   22.190904      20.535944      1.6549592      0              76528.806    
     21000   1.0427751      0.0023323615   0.0011345349   22.099492      20.550971      1.548521       0.00040047813  76668.949    
     22000   1.0586695      0.0023323615   0.0017882747   22.05673       20.484606      1.5721242      0              76729.647    
     23000   1.0058426      0.0023323615  -0.0055245362   21.954628      20.460951      1.4936763      0.0027619031   75953.328    
     24000   0.98273442     0.0023323615   0.0015147357   21.862067      20.402707      1.4593606      0              76222.859    
     25000   0.95835343     0.0023323615   0.0017808774   21.937761      20.514606      1.4231548      0.00020839942  75941.302    
     26000   0.93993778     0.0023323615  -0.0021777292   21.884849      20.489042      1.3958076      0.0088889834   76404.379    
     27000   0.9308188      0.0023323615  -0.00011239942  21.842252      20.459986      1.3822659      0.021612409    75697.104    
     28000   1.0149581      0.0023323615   0.0041996387   21.906846      20.399633      1.5072129      0.0064059022   75877.053    
     29000   0.92841138     0.0023323615  -2.5398808e-05  21.987185      20.608494      1.3786909      0.0046112484   75992.993    
     30000   1.021043       0.0023323615   0.001589158    22.097958      20.581709      1.5162489      0.016799508    73665.65     
     31000   1.0465985      0.0023323615  -0.0021744286   22.037917      20.483718      1.5541987      0.0057879149   76540.48     
     32000   0.98907108     0.0023323615  -0.0015558606   22.044089      20.575318      1.4687705      0.009448173    76032.069    
     33000   1.0918536      0.0023323615  -0.0025643847   22.039275      20.417873      1.6214025      0              75201.953    
     34000   0.99801543     0.0023323615   0.0016279766   21.932339      20.450286      1.4820529      0.017384617    77688.427    
     35000   1.0352271      0.0023323615  -0.0052971711   22.076004      20.538692      1.5373122      0.00010473809  76128.854    
     36000   1.1141579      0.0023323615  -0.00093279925  22.222491      20.567966      1.6545245      0.00033678641  76962.109    
     37000   1.0369415      0.0023323615   0.00013065175  22.217841      20.677983      1.5398581      0.013788831    76430.704    
     38000   1.0515596      0.0023323615   0.0021717558   22.070766      20.5092        1.561566       0.0067894678   76892.562    
     39000   1.0238495      0.0023323615   0.00026414509  22.040141      20.519725      1.5204165      0.00044464649  75938.413    
     40000   1.0749111      0.0023323615  -0.0026849368   22.039327      20.443084      1.596243       0.012651334    74333.034    
     41000   0.99070886     0.0023323615  -0.0030385564   22.03241       20.561207      1.4712027      0.00092855646  77516.477    
     42000   0.95315224     0.0023323615   0.0019788197   21.965263      20.549832      1.4154311      0.020233689    75791.946    
     43000   1.0644183      0.0023323615  -0.0011168725   22.287172      20.706511      1.5806611      0.039694129    76012.558    
     44000   1.0253747      0.0023323615  -0.006676522    22.066233      20.543552      1.5226814      0              75131.87     
     45000   0.94179556     0.0023323615  -0.0047206018   21.970644      20.572077      1.3985664      0.019869988    75411.153    
     46000   1.0083495      0.0023323615  -0.0017646918   21.972114      20.474715      1.497399       0.00026040605  75636.586    
     47000   0.98767959     0.0023323615  -0.00080218158  22.091674      20.62497       1.4667042      0.024266258    75560.495    
     48000   1.1473449      0.0023323615  -0.0025885687   22.080512      20.376705      1.7038072      0.00065962995  75770.141    
     49000   1.0679312      0.0023323615   0.0017688272   21.970482      20.384604      1.5858779      0.014142422    77017.216    
     50000   0.9581935      0.0023323615   0.0014398836   21.955202      20.532284      1.4229173      0.0055011948   76451.723    
     51000   1.0215759      0.0023323615  -0.00093292688  21.934681      20.41764       1.5170402      0              76205.288    
     52000   0.98079591     0.0023323615   0.0040701936   21.977374      20.520892      1.4564819      0.0020862422   76909.979    
     53000   1.0090927      0.0023323615   0.0013324753   22.095438      20.596935      1.4985027      0              75817.857    
     54000   0.97519627     0.0023323615   0.0013260734   22.070151      20.621984      1.4481665      0.026885444    76981.103    
     55000   1.1805087      0.0023323615  -0.001586238    22.424088      20.671033      1.7530554      0.024690954    76377.542    
     56000   0.98387121     0.0023323615   0.0037155145   22.104425      20.643376      1.4610487      0.01435493     75981.196    
     57000   1.0723812      0.0023323615  -0.0037916262   22.122726      20.53024       1.592486       0.013635549    76563.318    
     58000   1.0152349      0.0023323615   0.00021908047  22.082827      20.575203      1.5076238      0.00077375639  76345.004    
     59000   1.1424502      0.0023323615  -0.0052108657   22.30072       20.604182      1.6965385      0.013308184    77473.94     
     60000   1.0359703      0.0023323615  -0.00097887545  22.188218      20.649802      1.538416       0.00011346294  75742.14     
     61000   1.1646839      0.0023323615  -0.002085017    22.239945      20.51039       1.7295556      0.012918477    78069.12     
     62000   1.101836       0.0023323615   0.0010338878   22.171386      20.53516       1.6362265      0.001396566    76795.124    
     63000   0.96616435     0.0023323615   0.00097550571  21.903821      20.469067      1.4347541      0.013027663    78044.766    
     64000   1.0068907      0.0023323615  -0.0020278726   22.061652      20.566419      1.4952327      0.013750276    76489.628    
     65000   0.98723233     0.0023323615   0.0022441476   22.031073      20.565033      1.46604        0.0066686189   77060.024    
     66000   1.0273881      0.0023323615  -0.0003515278   22.183579      20.657908      1.5256713      0              75128.596    
     67000   0.96528212     0.0023323615  -0.00014822656  21.9396        20.506156      1.4334439      0.010365557    77170.962    
     68000   1.069702       0.0023323615   9.4754668e-05  22.081119      20.492611      1.5885075      0.00049153926  74427.594    
     69000   1.1229502      0.0023323615   0.0011504079   22.200329      20.532748      1.6675811      0.0068454249   77019.179    
     70000   1.0062775      0.0023323615  -0.00085311964  22.094021      20.599699      1.4943221      0.013222355    75210.844    
     71000   1.0906935      0.0023323615   0.00015260357  22.145362      20.525682      1.6196798      0.018338513    76452.541    
     72000   1.010401       0.0023323615  -6.0487182e-06  22.154105      20.653659      1.5004455      0.0013793953   75266.541    
     73000   1.1177599      0.0023323615  -0.0034084797   22.254435      20.594562      1.6598735      0.00011231735  78026.522    
     74000   0.9768019      0.0023323615   0.00016143893  22.07312       20.622569      1.4505508      0.0084515956   75996.47     
     75000   1.1360996      0.0023323615   0.002159116    22.161595      20.474487      1.6871079      0.0089909162   76693.274    
     76000   0.97379329     0.0023323615  -0.00068458621  21.988928      20.542845      1.446083       0              75985.815    
     77000   0.94876793     0.0023323615  -0.0016073976   21.923496      20.514575      1.4089204      0.017745108    75964.654    
     78000   0.83947996     0.0023323615  -0.00062768559  21.726727      20.480099      1.2466277      0.0054510099   76462.502    
     79000   1.0090614      0.0023323615  -0.00080262643  22.068192      20.569736      1.4984562      0.00023011166  76678.837    
     80000   1.1217643      0.0023323615  -0.0038177864   22.367902      20.702082      1.66582        0.032902439    76297.735    
     81000   1.0240158      0.0023323615   0.00023547123  22.031597      20.510933      1.5206635      0.0068767308   75941.879    
     82000   1.003236       0.0023323615  -0.0022802982   21.894199      20.404393      1.4898055      0.019136282    75091.965    
     83000   1.0554159      0.0023323615   0.004011718    22.104562      20.537269      1.5672927      0.0080869707   74618.502    
     84000   0.83527346     0.0023323615  -0.0034122221   21.874648      20.634267      1.2403811      0.0030083664   76077.441    
     85000   1.036002       0.0023323615   0.0013573923   21.962923      20.42446       1.5384629      0.015709144    76701.057    
     86000   0.9432002      0.0023323615  -0.0032183248   21.913588      20.512936      1.4006523      0.013730309    76674.187    
     87000   0.95566008     0.0023323615  -0.00049614223  21.91653       20.497375      1.4191552      0.0035862035   75607.14     
     88000   0.93373351     0.0023323615  -0.00097093893  21.870485      20.483891      1.3865943      0.0018212145   75504.419    
     89000   0.9684944      0.0023323615  -0.00047342045  21.973429      20.535215      1.4382142      0.00087524744  75597.121    
     90000   0.98293324     0.0023323615  -0.0032204602   22.050919      20.591263      1.4596559      0.015353933    76970.414    
     91000   1.0832827      0.0023323615   0.0048517083   22.11977       20.511095      1.6086749      0.0052867789   78032.44     
     92000   0.85899662     0.0023323615  -0.0013049519   21.765697      20.490087      1.27561        0.0024124001   76757.859    
     93000   0.96176266     0.0023323615  -4.4223672e-05  21.874222      20.446004      1.4282176      0.0045653365   77398.722    
     94000   0.96019503     0.0023323615   0.00024459347  21.944954      20.519064      1.4258896      3.8053462e-05  76953.864    
     95000   0.94702149     0.0023323615  -0.0033658915   21.86315       20.456823      1.4063269      0              77514.609    
     96000   0.91119348     0.0023323615  -0.0013197298   21.825018      20.471896      1.3531223      0.00043282989  76020.601    
     97000   1.0016687      0.0023323615  -0.0019514304   22.013024      20.525546      1.487478       0.0048369955   75613.155    
     98000   1.02143        0.0023323615  -0.0057874974   22.177965      20.661142      1.5168235      0              74547.834    
     99000   1.032786       0.0023323615   0.0018228259   21.975336      20.441649      1.5336871      7.1595851e-05  77664.794    
    100000   1.0594928      0.0023323615   0.0036169719   22.011024      20.437677      1.5733468      0.00032948157  75966.328    
    100362   1.1904942      0.0023323615  -0.00089755607  22.316856      20.548972      1.7678839      0.00063845255  75689.322    
Loop time of 1.31296 on 1 procs for 100000 steps with 100 atoms

Performance: 32902669.505 tau/day, 76163.587 timesteps/s
99.0% CPU use with 1 MPI tasks x 1 OpenMP threads

MPI task timing breakdown:
Section |  min time  |  avg time  |  max time  |%varavg| %total
---------------------------------------------------------------
Pair    | 0.050643   | 0.050643   | 0.050643   |   0.0 |  3.86
Bond    | 0.12719    | 0.12719    | 0.12719    |   0.0 |  9.69
Neigh   | 0.80301    | 0.80301    | 0.80301    |   0.0 | 61.16
Comm    | 0.055292   | 0.055292   | 0.055292   |   0.0 |  4.21
Output  | 0.0010227  | 0.0010227  | 0.0010227  |   0.0 |  0.08
Modify  | 0.24286    | 0.24286    | 0.24286    |   0.0 | 18.50
Other   |            | 0.03295    |            |       |  2.51

Nlocal:            100 ave         100 max         100 min
Histogram: 1 0 0 0 0 0 0 0 0 0
Nghost:             60 ave          60 max          60 min
Histogram: 1 0 0 0 0 0 0 0 0 0
Neighs:             36 ave          36 max          36 min
Histogram: 1 0 0 0 0 0 0 0 0 0

Total # of neighbors = 36
Ave neighs/atom = 0.36
Ave special neighs/atom = 1.98
Neighbor list builds = 9821
Dangerous builds = 8265
unfix           nvtSoft
unfix           rampSoft
reset_timestep  0

write_data      ${outputfile_relaxed}
write_data      5_relaxed.data
System init for write_data ...
Generated 0 of 6 mixed pair_coeff terms from geometric mixing rule
WARNING: Communication cutoff 1.3 is shorter than a bond length based estimate of 1.7550000000000001. This may lead to errors. (src/comm.cpp:727)
WARNING: Not all mixed pair coeffs generated from mixing. Use write_data with 'pair ij' option to store all pair coeffs. (src/write_data.cpp:309)

###########################################################################
# Full LJ with Coulomb
######################################################################

# Cutoffs and parameters:
# - Values: Marcel Verkade's Bachelor Thesis
# - Mapping to atom groups: Patrick Onck's paper
# - 1: aliphatic, 2: aromatic, 3: anion, 4: cation
# pair_style	lj/cut/coul/cut <lj_cut_global> <coul_cut_global>
# pair_coeff	<type_1>  <type_2>  <eps>  <sigma>  <r_cut_lj>  <r_cut_coul>

# Problem: Onck's model is much more complex, and Marcel has no sigma reported
# Using sigma=1 randomly

variable		glob_ljeps equal 1.0
variable		glob_ljsig 	equal 1.0
variable		glob_coulcut equal 10.0
variable		att_ljcut equal 2.50
variable		rep_ljcut equal 1.12

pair_style		lj/cut/coul/cut 						${att_ljcut} 	${glob_coulcut}
pair_style		lj/cut/coul/cut 						2.5 	${glob_coulcut}
pair_style		lj/cut/coul/cut 						2.5 	10
pair_coeff		1 1 	${glob_ljeps} 	${glob_ljsig}	${att_ljcut} 	${glob_coulcut}
pair_coeff		1 1 	1 	${glob_ljsig}	${att_ljcut} 	${glob_coulcut}
pair_coeff		1 1 	1 	1	${att_ljcut} 	${glob_coulcut}
pair_coeff		1 1 	1 	1	2.5 	${glob_coulcut}
pair_coeff		1 1 	1 	1	2.5 	10
pair_coeff		1 2 	${glob_ljeps} 	${glob_ljsig}	${att_ljcut} 	${glob_coulcut}
pair_coeff		1 2 	1 	${glob_ljsig}	${att_ljcut} 	${glob_coulcut}
pair_coeff		1 2 	1 	1	${att_ljcut} 	${glob_coulcut}
pair_coeff		1 2 	1 	1	2.5 	${glob_coulcut}
pair_coeff		1 2 	1 	1	2.5 	10
pair_coeff		1 3 	${glob_ljeps} 	${glob_ljsig}	${rep_ljcut} 	${glob_coulcut}
pair_coeff		1 3 	1 	${glob_ljsig}	${rep_ljcut} 	${glob_coulcut}
pair_coeff		1 3 	1 	1	${rep_ljcut} 	${glob_coulcut}
pair_coeff		1 3 	1 	1	1.12 	${glob_coulcut}
pair_coeff		1 3 	1 	1	1.12 	10
pair_coeff		1 4 	${glob_ljeps} 	${glob_ljsig}	${rep_ljcut} 	${glob_coulcut}
pair_coeff		1 4 	1 	${glob_ljsig}	${rep_ljcut} 	${glob_coulcut}
pair_coeff		1 4 	1 	1	${rep_ljcut} 	${glob_coulcut}
pair_coeff		1 4 	1 	1	1.12 	${glob_coulcut}
pair_coeff		1 4 	1 	1	1.12 	10
pair_coeff		2 2 	${glob_ljeps} 	${glob_ljsig}	${att_ljcut} 	${glob_coulcut}
pair_coeff		2 2 	1 	${glob_ljsig}	${att_ljcut} 	${glob_coulcut}
pair_coeff		2 2 	1 	1	${att_ljcut} 	${glob_coulcut}
pair_coeff		2 2 	1 	1	2.5 	${glob_coulcut}
pair_coeff		2 2 	1 	1	2.5 	10
pair_coeff		2 3 	${glob_ljeps} 	${glob_ljsig}	${rep_ljcut} 	${glob_coulcut}
pair_coeff		2 3 	1 	${glob_ljsig}	${rep_ljcut} 	${glob_coulcut}
pair_coeff		2 3 	1 	1	${rep_ljcut} 	${glob_coulcut}
pair_coeff		2 3 	1 	1	1.12 	${glob_coulcut}
pair_coeff		2 3 	1 	1	1.12 	10
pair_coeff		2 4 	${glob_ljeps} 	${glob_ljsig}	${att_ljcut} 	${glob_coulcut}
pair_coeff		2 4 	1 	${glob_ljsig}	${att_ljcut} 	${glob_coulcut}
pair_coeff		2 4 	1 	1	${att_ljcut} 	${glob_coulcut}
pair_coeff		2 4 	1 	1	2.5 	${glob_coulcut}
pair_coeff		2 4 	1 	1	2.5 	10
pair_coeff		3 3 	${glob_ljeps} 	${glob_ljsig}	${rep_ljcut} 	${glob_coulcut}
pair_coeff		3 3 	1 	${glob_ljsig}	${rep_ljcut} 	${glob_coulcut}
pair_coeff		3 3 	1 	1	${rep_ljcut} 	${glob_coulcut}
pair_coeff		3 3 	1 	1	1.12 	${glob_coulcut}
pair_coeff		3 3 	1 	1	1.12 	10
pair_coeff		3 4 	${glob_ljeps} 	${glob_ljsig}	${att_ljcut} 	${glob_coulcut}
pair_coeff		3 4 	1 	${glob_ljsig}	${att_ljcut} 	${glob_coulcut}
pair_coeff		3 4 	1 	1	${att_ljcut} 	${glob_coulcut}
pair_coeff		3 4 	1 	1	2.5 	${glob_coulcut}
pair_coeff		3 4 	1 	1	2.5 	10
pair_coeff		4 4 	${glob_ljeps} 	${glob_ljsig}	${rep_ljcut} 	${glob_coulcut}
pair_coeff		4 4 	1 	${glob_ljsig}	${rep_ljcut} 	${glob_coulcut}
pair_coeff		4 4 	1 	1	${rep_ljcut} 	${glob_coulcut}
pair_coeff		4 4 	1 	1	1.12 	${glob_coulcut}
pair_coeff		4 4 	1 	1	1.12 	10


fix             noDriftRot 	all momentum 10 linear 1 1 1 angular
fix             nvt1 		all nvt temp ${Temp} ${Temp} 0.5
fix             nvt1 		all nvt temp 1 ${Temp} 0.5
fix             nvt1 		all nvt temp 1 1 0.5

# dump          assemble 	all custom 1000 				${outputfile_selfasb} id type xu yu zu vx vy vz
dump            lindump 	all custom ${subsample_rate} 	${outputfile_trajlin} id type xu yu zu vx vy vz
dump            lindump 	all custom 1000 	${outputfile_trajlin} id type xu yu zu vx vy vz
dump            lindump 	all custom 1000 	6_b_trajlin.data id type xu yu zu vx vy vz

run             ${runtime}
run             1000000
Generated 0 of 6 mixed pair_coeff terms from geometric mixing rule
Neighbor list info ...
  update every 1 steps, delay 10 steps, check yes
  max neighbors/atom: 2000, page size: 100000
  master list distance cutoff = 10.3
  ghost atom cutoff = 10.3
  binsize = 5.15, bins = 7 7 7
  1 neighbor lists, perpetual/occasional/extra = 1 0 0
  (1) pair lj/cut/coul/cut, perpetual
      attributes: half, newton on
      pair build: half/bin/newton
      stencil: half/bin/3d
      bin: standard
Per MPI rank memory allocation (min/avg/max) = 7.712 | 7.712 | 7.712 Mbytes
   Step          Temp         Density         Press          TotEng         PotEng         KinEng         E_pair         S/CPU     
         0   1.1904942      0.0023323615  -0.0017050005   21.89777       20.129886      1.7678839     -0.41844819     0            
      1000   1.0091579      0.0023323615  -0.00014280529  21.066021      19.567422      1.4985994     -0.81903738     33278.996    
      2000   1.0167163      0.0023323615   0.00040508386  20.972003      19.462179      1.5098238     -1.0688048      29844.271    
      3000   1.0939988      0.0023323615  -0.002368056    20.706183      19.081594      1.6245882     -1.4151537      24880.043    
      4000   0.99777373     0.0023323615   0.0011813684   20.064112      18.582418      1.481694      -1.6896099      19274.81     
      5000   0.99550414     0.0023323615   0.0029586559   20.11814       18.639817      1.4783237     -1.9080285      17974.02     
      6000   0.96488861     0.0023323615   0.0053577473   19.865367      18.432508      1.4328596     -2.0835491      18111.948    
      7000   1.0732467      0.0023323615  -0.0011652361   20.203107      18.609335      1.5937714     -1.7272555      18275.952    
      8000   1.0128995      0.0023323615   0.001060743    20.118172      18.614017      1.5041557     -1.82931        18344.672    
      9000   0.98566335     0.0023323615  -0.00053635388  20.193569      18.729859      1.4637101     -1.7217488      18118.951    
     10000   0.85583683     0.0023323615   0.00034270423  19.890296      18.619379      1.2709177     -1.8528424      18271.83     
     11000   1.0319837      0.0023323615   0.0037127699   19.940654      18.408159      1.5324958     -2.0297461      18447.315    
     12000   0.97660347     0.0023323615  -0.0020175381   19.941931      18.491675      1.4502562     -1.9977252      18207.185    
     13000   1.0874229      0.0023323615  -0.0023859115   20.126551      18.511728      1.614823      -2.0112813      18100.154    
     14000   0.91318448     0.0023323615   0.0039771156   20.124107      18.768028      1.356079      -1.8822427      18247.024    
     15000   1.0809313      0.0023323615  -0.00010821376  20.116405      18.511222      1.605183      -2.169139       18184.397    
     16000   0.84458805     0.0023323615  -0.0025227281   19.984975      18.730761      1.2542133     -1.7663304      18273.338    
     17000   1.0165049      0.0023323615   0.004870421    19.96918       18.45967       1.5095098     -2.1032121      18191.476    
     18000   1.0154051      0.0023323615   0.0012027069   19.815665      18.307789      1.5078766     -2.2037065      18218.581    
     19000   1.0579569      0.0023323615   0.0055519634   20.430492      18.859426      1.571066      -1.86357        18272.779    
     20000   1.0663883      0.0023323615  -0.00064873828  20.354333      18.770746      1.5835866     -1.6729586      18234.214    
     21000   1.0659974      0.0023323615  -3.5413396e-05  20.06284       18.479834      1.5830062     -1.9964853      18268.118    
     22000   1.0222102      0.0023323615  -0.0035475308   20.00928       18.491297      1.5179822     -1.9944385      18223.634    
     23000   1.0517104      0.0023323615   0.0017173607   19.956123      18.394333      1.56179       -1.9391386      18215.685    
     24000   0.97792453     0.0023323615   0.00034721197  20.046123      18.593905      1.4522179     -1.9057012      18228.959    
     25000   1.0493747      0.0023323615   0.00043809694  20.355654      18.797333      1.5583214     -1.8275817      18248.105    
     26000   0.96598305     0.0023323615  -9.6376626e-05  20.171718      18.737233      1.4344848     -1.8539242      18315.679    
     27000   0.88421962     0.0023323615  -0.00029706727  19.951502      18.638436      1.3130661     -1.9834878      18159.918    
     28000   0.96792705     0.0023323615   0.00013574875  19.642051      18.204679      1.4373717     -2.2777278      18126.266    
     29000   1.03758        0.0023323615  -0.0034270034   19.71463       18.173824      1.5408064     -2.3767498      18121.415    
     30000   0.95031254     0.0023323615  -0.0031420813   19.786707      18.375493      1.4112141     -2.1440434      18018.274    
     31000   0.90217704     0.0023323615  -0.0025121761   19.788596      18.448863      1.3397329     -1.9545742      18200.24     
     32000   0.89847256     0.0023323615   0.0022573379   19.962756      18.628524      1.3342318     -1.9875417      18146.747    
     33000   1.1459955      0.0023323615  -0.00099594525  19.996628      18.294825      1.7018033     -2.1613404      18112.372    
     34000   1.0267054      0.0023323615   0.001465938    20.293397      18.768739      1.5246575     -1.8329418      18203.659    
     35000   0.97362759     0.0023323615   0.0011942703   19.822556      18.376719      1.445837      -2.0940865      18237.599    
     36000   0.96044474     0.0023323615  -0.00034447816  19.987274      18.561014      1.4262604     -1.9214642      18185.116    
     37000   1.0370567      0.0023323615   0.0025287701   20.287505      18.747476      1.5400292     -1.845938       18360.377    
     38000   0.83538723     0.0023323615   0.0030247571   19.889419      18.648869      1.24055       -1.948055       18129.855    
     39000   0.88835315     0.0023323615  -0.001894557    19.847716      18.528511      1.3192044     -1.9941595      18084.589    
     40000   1.1623038      0.0023323615  -0.002359448    20.141505      18.415484      1.7260212     -2.0771029      18172.055    
     41000   1.0339056      0.0023323615  -0.00046356888  20.033206      18.497856      1.5353498     -2.0359341      18066.098    
     42000   1.0133256      0.0023323615   0.0072990347   20.272214      18.767426      1.5047886     -1.9037575      18125.153    
     43000   1.1562838      0.0023323615   0.0059032679   20.314278      18.597197      1.7170814     -1.8585277      18049.205    
     44000   1.2624586      0.0023323615   0.00086600349  20.548161      18.67341       1.874751      -1.7697411      18173.322    
     45000   1.0019831      0.0023323615  -0.00097645757  20.015125      18.52718       1.4879449     -1.980486       18077.449    
     46000   0.94954668     0.0023323615   0.0007864469   19.935551      18.525474      1.4100768     -1.8650901      18056.516    
     47000   0.91062016     0.0023323615  -0.0014629416   19.845528      18.493257      1.3522709     -1.937035       18062.211    
     48000   1.063611       0.0023323615   0.0019855051   20.169389      18.589927      1.5794623     -1.8747051      17928.279    
     49000   0.99429292     0.0023323615  -0.0063337871   20.040608      18.564083      1.476525      -1.9846353      18101.069    
     50000   1.0755238      0.0023323615   0.00088535133  20.152554      18.555401      1.5971528     -1.9156485      18096.225    
     51000   1.0002348      0.0023323615   0.0027032676   19.862333      18.376984      1.4853486     -2.0708065      17986.344    
     52000   0.91317494     0.0023323615   0.0038668498   19.982969      18.626904      1.3560648     -1.8125403      18055.337    
     53000   0.96520022     0.0023323615   0.0030986672   19.827366      18.394044      1.4333223     -2.0650611      17981.743    
     54000   1.0676436      0.0023323615   0.0016764243   20.445523      18.860073      1.5854507     -1.769075       18244.63     
     55000   1.1063007      0.0023323615  -0.0023400567   20.156908      18.514051      1.6428566     -2.0381317      17973.246    
     56000   0.88072031     0.0023323615   0.00075339178  19.894044      18.586175      1.3078697     -2.0202985      17969.713    
     57000   1.1031259      0.0023323615   0.00096675362  20.568406      18.930264      1.638142      -1.6742314      17888.259    
     58000   1.1633257      0.0023323615   0.0013559332   20.418342      18.690803      1.7275386     -1.9884594      17970.48     
     59000   0.97087495     0.0023323615   0.0023035285   19.964589      18.52284       1.4417493     -1.9922541      17916.6      
     60000   1.0761431      0.0023323615  -0.0020504332   20.093689      18.495617      1.5980725     -2.0112223      18050.266    
     61000   1.0989204      0.0023323615   0.0023980149   20.373874      18.741977      1.6318967     -1.9013887      18056.532    
     62000   0.88045089     0.0023323615  -0.0038595325   19.785432      18.477963      1.3074696     -2.0332424      18074.597    
     63000   1.0226066      0.0023323615   0.0021591244   19.93656       18.417989      1.5185708     -2.1653919      17991.317    
     64000   1.021254       0.0023323615   0.0015667338   19.732917      18.216355      1.5165622     -2.2317294      17984.085    
     65000   0.96320392     0.0023323615  -0.00057602803  20.010331      18.579973      1.4303578     -1.8921062      17905.932    
     66000   1.0318137      0.0023323615  -0.0014008558   19.895638      18.363394      1.5322433     -2.1943631      17890.934    
     67000   1.0321971      0.0023323615  -0.0043422836   20.044856      18.512044      1.5328126     -2.0376356      17877.978    
     68000   0.92489702     0.0023323615   0.0021566655   19.991069      18.617597      1.3734721     -1.8165606      17899.856    
     69000   0.97174802     0.0023323615  -0.0011361246   19.91692       18.473874      1.4430458     -2.1147977      18030.552    
     70000   0.8919653      0.0023323615  -0.0015379137   19.712494      18.387925      1.3245685     -2.0981514      17979.327    
     71000   1.0839081      0.0023323615  -0.0044410002   19.863236      18.253632      1.6096036     -2.1993451      18133.181    
     72000   1.0128557      0.0023323615  -0.0025641771   20.242821      18.73873       1.5040907     -1.681626       18135.481    
     73000   1.0244885      0.0023323615  -0.0022702675   20.169513      18.648148      1.5213655     -1.8253279      18298.202    
     74000   0.89174505     0.0023323615  -0.0023081753   19.604545      18.280303      1.3242414     -2.1410561      18131.758    
     75000   1.0944749      0.0023323615  -0.0025458102   20.112608      18.487313      1.6252952     -2.0953762      17994.022    
     76000   1.15625        0.0023323615  -0.00020724144  20.347437      18.630405      1.7170313     -1.9082798      18113.717    
     77000   1.1044455      0.0023323615  -0.0002467594   20.347503      18.707401      1.6401016     -1.8250964      18006.202    
     78000   0.93726964     0.0023323615   0.00078175774  19.871431      18.479586      1.3918454     -2.0494219      17835.945    
     79000   1.1055926      0.0023323615  -0.0043769609   20.314486      18.672681      1.641805      -1.8042721      17987.91     
     80000   1.1097364      0.0023323615  -0.00054365052  20.147624      18.499666      1.6479586     -2.0243493      18056.379    
     81000   0.97844278     0.0023323615   0.00023195111  19.726897      18.27391       1.4529875     -2.1978152      17888.102    
     82000   0.99602364     0.0023323615   0.0012728075   19.90021       18.421115      1.4790951     -2.1203149      18017.533    
     83000   1.0294577      0.0023323615  -0.00028723822  19.882571      18.353826      1.5287447     -2.1467114      18010.994    
     84000   1.0705231      0.0023323615  -0.0010567874   20.275392      18.685665      1.5897268     -1.8554362      17916.108    
     85000   0.79870616     0.0023323615  -0.00097517859  19.890351      18.704272      1.1860786     -1.9362208      18035.556    
     86000   0.97207804     0.0023323615   0.0027096875   20.159346      18.71581       1.4435359     -1.7603811      17996.06     
     87000   1.019943       0.0023323615  -0.0030068718   20.065437      18.550822      1.5146154     -1.9529481      17945.924    
     88000   1.0521738      0.0023323615   0.0027744685   19.960852      18.398374      1.5624781     -2.0703287      18089.774    
     89000   0.95819496     0.0023323615  -0.0012698211   20.073365      18.650446      1.4229195     -1.9231065      17981.924    
     90000   1.0859945      0.0023323615   0.003151697    20.126391      18.513689      1.6127018     -2.0099023      17776.816    
     91000   1.0783858      0.0023323615  -0.00064512055  19.826604      18.225201      1.6014029     -2.0998562      17926.224    
     92000   0.9216996      0.0023323615  -0.004899841    20.246394      18.87767       1.3687239     -1.7393924      17984.776    
     93000   0.99020943     0.0023323615   0.0023392377   19.93826       18.467799      1.470461      -2.0000407      18037.306    
     94000   0.97379649     0.0023323615   0.00059819871  19.889554      18.443467      1.4460878     -2.1979232      18066.013    
     95000   0.93546278     0.0023323615  -0.00098802662  19.900395      18.511233      1.3891622     -1.9961278      17946.492    
     96000   1.028704       0.0023323615   0.00028378893  19.868747      18.341122      1.5276254     -2.0500447      17969.761    
     97000   1.0024295      0.0023323615   0.0019585859   19.784369      18.295762      1.4886078     -2.1017256      17941.756    
     98000   0.92953231     0.0023323615  -0.00070225107  19.919058      18.538702      1.3803555     -1.9113021      18020.529    
     99000   1.1243325      0.0023323615   0.00067004604  19.918686      18.249052      1.6696338     -2.1245779      17969.095    
    100000   0.90575391     0.0023323615  -0.0024245917   19.976974      18.631929      1.3450446     -1.9073702      18008.947    
    101000   1.0087133      0.0023323615   0.0016426593   19.992267      18.494328      1.4979393     -2.0726932      17961.137    
    102000   0.93095647     0.0023323615   0.0025825332   20.140509      18.758038      1.3824704     -1.9129657      18286.737    
    103000   1.0339309      0.0023323615   0.00053156532  19.920933      18.385546      1.5353874     -2.183571       18290.413    
    104000   0.77405751     0.0023323615   0.0031697564   19.736051      18.586575      1.1494754     -1.9557378      18012.906    
    105000   1.0348146      0.0023323615   0.0049521606   20.191893      18.655193      1.5366997     -1.9763153      18171.37     
    106000   1.059708       0.0023323615   0.0022081198   20.153546      18.579879      1.5736663     -1.8367027      18008.47     
    107000   1.0617054      0.0023323615   0.0012042443   20.053581      18.476948      1.5766325     -2.0717359      18089.141    
    108000   1.0558778      0.0023323615  -0.0016330878   20.299952      18.731974      1.5679785     -1.7275301      18196.003    
    109000   1.0389595      0.0023323615   0.00171813     20.297726      18.754871      1.5428548     -1.8813162      18271.799    
    110000   0.89016494     0.0023323615  -0.00037313885  20.054121      18.732226      1.3218949     -1.9041645      18282.422    
    111000   0.94546617     0.0023323615  -0.0011764875   20.198868      18.79485       1.4040173     -1.8407984      18135.755    
    112000   1.0006375      0.0023323615   0.0032709984   19.802986      18.317039      1.4859467     -2.0746523      18028.933    
    113000   0.91038898     0.0023323615  -0.0023352067   19.826081      18.474154      1.3519276     -2.0583394      18001.928    
    114000   0.95780427     0.0023323615   0.0031696033   20.291085      18.868745      1.4223393     -1.6925168      17946.775    
    115000   0.97773896     0.0023323615  -0.0021107132   19.823705      18.371763      1.4519424     -2.1325368      17994.775    
    116000   0.93391829     0.0023323615   0.0028297215   20.091894      18.705025      1.3868687     -1.7938416      18084.782    
    117000   1.060746       0.0023323615  -0.0014365515   20.07918       18.503972      1.5752078     -2.0959094      18096.74     
    118000   1.052125       0.0023323615  -0.0041066142   20.201464      18.639059      1.5624056     -2.0310732      17920.866    
    119000   0.85348452     0.0023323615  -0.0011660718   19.656774      18.38935       1.2674245     -2.0598959      17834.763    
    120000   1.013212       0.0023323615  -0.00054439323  20.021952      18.517332      1.5046199     -2.0057025      17995.58     
    121000   0.93993605     0.0023323615   0.0049376741   20.148046      18.752241      1.395805      -1.7968383      18148.13     
    122000   0.8368436      0.0023323615   0.00068664917  19.670136      18.427424      1.2427128     -2.0433393      18096.354    
    123000   1.0139175      0.0023323615  -0.0057495561   20.169594      18.663926      1.5056675     -1.882061       18088.696    
    124000   0.90163209     0.0023323615   0.0014103154   19.716605      18.377681      1.3389237     -2.0326172      18116.945    
    125000   0.94870735     0.0023323615   0.001039843    19.737022      18.328191      1.4088304     -2.1073539      18033.054    
    126000   0.88751575     0.0023323615   0.0026781331   19.913663      18.595702      1.3179609     -1.9805723      18129.331    
    127000   0.95274428     0.0023323615   0.0032075696   19.805331      18.390506      1.4148253     -2.1100418      18090.204    
    128000   0.88779965     0.0023323615   6.4860949e-05  19.749272      18.43089       1.3183825     -2.0505815      18142.934    
    129000   0.86845852     0.0023323615  -0.00044023289  19.786923      18.497262      1.2896609     -2.0071521      18072.651    
    130000   1.0142055      0.0023323615  -0.00078998917  20.120592      18.614497      1.5060951     -1.8460263      17867.711    
    131000   1.1345341      0.0023323615   0.0028912142   19.971932      18.287149      1.6847831     -2.1408668      18036.309    
    132000   0.994725       0.0023323615  -0.0023116856   20.034156      18.556989      1.4771666     -2.0743441      18068.1      
    133000   0.98418383     0.0023323615  -0.001275106    20.135083      18.67357       1.461513      -1.8286675      18137.303    
    134000   0.91145744     0.0023323615   0.0011570696   19.810223      18.456709      1.3535143     -2.1401783      18083.501    
    135000   0.99163882     0.0023323615   0.0069123003   19.753466      18.280882      1.4725837     -2.2062776      17966.566    
    136000   0.9887313      0.0023323615  -0.00035817471  19.717348      18.249082      1.468266      -2.2882822      17938.051    
    137000   0.95628742     0.0023323615  -0.0024434452   19.854404      18.434317      1.4200868     -2.0806274      17992.186    
    138000   0.91022392     0.0023323615  -0.0013039257   19.63349       18.281807      1.3516825     -2.1874849      18003.458    
    139000   0.84874534     0.0023323615  -0.0014613289   19.750298      18.489911      1.2603868     -1.9904129      17959.143    
    140000   0.92298399     0.0023323615  -0.0011589974   19.669977      18.299345      1.3706312     -2.2516767      18097.157    
    141000   0.91717761     0.0023323615   0.00237584     20.077975      18.715966      1.3620088     -1.8216452      18178.651    
    142000   1.0220674      0.0023323615  -0.0036537454   19.667505      18.149735      1.5177702     -2.2887272      18094.798    
    143000   0.93401092     0.0023323615  -0.0064451128   20.041425      18.654419      1.3870062     -1.943785       18104.845    
    144000   1.1209046      0.0023323615   1.8420767e-05  20.109204      18.444661      1.6645434     -1.9970651      18141.543    
    145000   1.104208       0.0023323615  -0.00022967239  19.935003      18.295254      1.6397489     -2.2290114      18039.288    
    146000   1.0562035      0.0023323615  -0.0022210502   19.898122      18.32966       1.5684622     -2.1273353      17977.085    
    147000   1.0278186      0.0023323615  -0.0014825377   19.956943      18.430632      1.5263106     -1.9370582      18028.839    
    148000   0.96812934     0.0023323615   0.0005145849   20.318936      18.881264      1.4376721     -1.6779019      18035.067    
    149000   1.0399141      0.0023323615   0.0046541101   20.189181      18.644909      1.5442724     -1.8969273      18129.966    
    150000   1.1083147      0.0023323615   0.00091856649  20.377816      18.731969      1.6458473     -1.857736       18069.653    
    151000   0.98315385     0.0023323615   0.0051475004   19.767018      18.307034      1.4599835     -2.1941459      18007.664    
    152000   1.0333822      0.0023323615  -0.0013794687   20.038627      18.504055      1.5345726     -1.9232555      18032.174    
    153000   0.98801636     0.0023323615   0.00053673192  19.890875      18.423671      1.4672043     -2.2005671      18152.041    
    154000   1.0430424      0.0023323615   0.00069410536  20.12923       18.580312      1.5489179     -2.0705598      18133.744    
    155000   1.1165111      0.0023323615  -0.0012267879   20.402719      18.7447        1.658019      -1.770298       17954.22     
    156000   0.92767159     0.0023323615  -0.0021601113   19.803075      18.425482      1.3775923     -2.0245888      18062.11     
    157000   0.97316726     0.0023323615  -0.001544722    20.012512      18.567359      1.4451534     -1.9317312      18063.875    
    158000   1.0271095      0.0023323615  -0.00014040201  19.954179      18.428921      1.5252576     -1.9643435      18146.929    
    159000   1.0104502      0.0023323615   0.0042456915   19.911424      18.410906      1.5005185     -2.1102676      18109.94     
    160000   0.90827244     0.0023323615   0.00026834222  19.804342      18.455558      1.3487846     -1.9842653      18069.228    
    161000   0.91104017     0.0023323615  -0.0050569639   20.109459      18.756565      1.3528947     -1.8454931      18002.097    
    162000   1.0908538      0.0023323615  -0.0033016698   20.062683      18.442765      1.6199179     -2.0848905      18127.329    
    163000   1.0153888      0.0023323615   0.00035295145  20.017227      18.509375      1.5078524     -2.071087       18126.322    
    164000   0.89065135     0.0023323615  -0.00061455392  19.710449      18.387831      1.3226173     -2.0959896      18134.005    
    165000   1.0402138      0.0023323615  -0.0002901754   19.885404      18.340687      1.5447175     -2.1524829      18178.456    
    166000   0.90555201     0.0023323615  -0.0040240256   19.576277      18.231532      1.3447447     -2.1674349      18050.863    
    167000   1.0407988      0.0023323615  -0.0013666118   20.225515      18.679929      1.5455862     -1.79076        17949.945    
    168000   0.98351145     0.0023323615  -0.00047495159  19.882362      18.421848      1.4605145     -2.005369       18043.071    
    169000   1.0153696      0.0023323615   0.0055697268   20.130401      18.622577      1.5078239     -1.9566388      18016.694    
    170000   1.041498       0.0023323615  -0.00060960035  19.912513      18.365889      1.5466245     -2.1246023      17899.673    
    171000   1.1275017      0.0023323615  -0.0016209618   20.161951      18.487611      1.67434       -2.0629652      17925.89     
    172000   0.94643533     0.0023323615   0.0013040011   19.701091      18.295635      1.4054565     -2.0914056      18041.913    
    173000   0.87071531     0.0023323615   0.002419778    19.599848      18.306836      1.2930122     -2.1965187      18032.053    
    174000   1.0314262      0.0023323615   0.0021436169   20.156758      18.62509       1.5316678     -1.8204216      18111.12     
    175000   0.99589005     0.0023323615  -0.00096839225  19.88661       18.407713      1.4788967     -2.1131037      18076.149    
    176000   0.95718541     0.0023323615  -0.0020934025   20.050442      18.629021      1.4214203     -1.9668031      17919.022    
    177000   0.97416283     0.0023323615   0.0025943416   19.755033      18.308401      1.4466318     -2.265702       18077.704    
    178000   0.93023313     0.0023323615  -0.00068747364  19.996755      18.615359      1.3813962     -1.9509559      17935.057    
    179000   0.95380966     0.0023323615  -0.0019342553   20.069258      18.652851      1.4164073     -2.0094264      17838.601    
    180000   1.068349       0.0023323615  -0.003102802    20.125058      18.538559      1.5864982     -1.9159964      18004.867    
    181000   0.90625831     0.0023323615  -0.00099083096  20.170355      18.824562      1.3457936     -1.7632987      18161.322    
    182000   0.95546665     0.0023323615   0.0023918042   20.006917      18.588049      1.418868      -1.8668017      18228.256    
    183000   0.98893548     0.0023323615   0.0014547381   20.337286      18.868716      1.4685692     -1.7681563      18099.471    
    184000   0.97846372     0.0023323615  -0.00093241912  20.00129       18.548272      1.4530186     -1.9606988      18079.355    
    185000   1.0617294      0.0023323615  -0.0015733866   19.893485      18.316817      1.5766682     -2.1316073      18068.191    
    186000   0.95631871     0.0023323615  -4.8488443e-05  20.004741      18.584607      1.4201333     -1.9371154      18000.081    
    187000   1.0513791      0.0023323615   0.005163322    19.80602       18.244722      1.5612979     -2.1682083      18091.04     
    188000   1.0275504      0.0023323615   0.0002523457   20.157005      18.631092      1.5259124     -2.0507235      18098.65     
    189000   0.89743766     0.0023323615  -0.0044806492   19.922747      18.590052      1.3326949     -1.9917328      18212.644    
    190000   0.99444424     0.0023323615  -0.0025856113   19.939489      18.46274       1.4767497     -1.9935026      18131.386    
    191000   1.0918303      0.0023323615  -0.00088598425  19.951354      18.329986      1.6213679     -2.1262297      18079.741    
    192000   0.99268301     0.0023323615  -0.0024875756   19.876064      18.40193       1.4741343     -2.1067699      18006.358    
    193000   0.9810157      0.0023323615  -0.00014840864  19.92955       18.472741      1.4568083     -1.9538308      17968.212    
    194000   0.99190137     0.0023323615  -0.004159189    19.963163      18.49019       1.4729735     -2.0048663      18063.862    
    195000   0.91571305     0.0023323615   0.0025369048   19.680616      18.320782      1.3598339     -2.0852013      18017.92     
    196000   0.92057167     0.0023323615  -0.0012185086   19.957865      18.590816      1.3670489     -1.9935015      18076.702    
    197000   1.0578039      0.0023323615   0.0046875201   20.300261      18.729423      1.5708387     -1.8813634      18089.758    
    198000   1.0826104      0.0023323615   0.0020573974   20.289766      18.68209       1.6076765     -1.8875604      18141.335    
    199000   0.9221052      0.0023323615  -0.0034229449   20.005645      18.636318      1.3693262     -1.9219549      18025.706    
    200000   0.81118889     0.0023323615  -0.0019391755   19.7039        18.499285      1.2046155     -1.922941       18164.455    
    201000   1.0890461      0.0023323615   0.0042002791   20.12665       18.509417      1.6172335     -1.9448876      18153.424    
    202000   0.87637486     0.0023323615  -0.0016436803   20.132835      18.831418      1.3014167     -1.7872243      18031.509    
    203000   1.066128       0.0023323615   0.0021431432   20.25888       18.67568       1.5832001     -1.8388207      18015.442    
    204000   1.0392081      0.0023323615   8.9063996e-05  20.447768      18.904545      1.543224      -1.6852103      17946.66     
    205000   1.0512651      0.0023323615  -0.0061734096   20.175273      18.614144      1.5611287     -2.0277118      18115.235    
    206000   1.0957362      0.0023323615  -0.0014772158   20.090879      18.463711      1.6271682     -2.0652283      17996.624    
    207000   0.9952916      0.0023323615  -0.0056288899   19.84181       18.363802      1.478008      -2.1916245      18034.852    
    208000   1.0568387      0.0023323615  -0.0039335196   20.408366      18.83896       1.5694054     -1.7074322      18171.138    
    209000   1.0143758      0.0023323615   0.0024296158   20.294176      18.787828      1.5063481     -1.7894361      18233.758    
    210000   0.96254781     0.0023323615   0.00052316604  20.239728      18.810345      1.4293835     -1.6474112      18064.8      
    211000   1.1088335      0.0023323615   0.004388623    19.944485      18.297867      1.6466177     -2.101237       18030.161    
    212000   0.92324724     0.0023323615  -0.0018505089   19.552705      18.181682      1.3710222     -2.4023481      18065.761    
    213000   0.97774011     0.0023323615   0.00058254336  19.86349       18.411546      1.4519441     -1.9528526      17963.675    
    214000   0.91764807     0.0023323615   0.0029262832   20.101265      18.738558      1.3627074     -1.8046504      18117.369    
    215000   0.973787       0.0023323615   0.0010633097   20.048449      18.602376      1.4460737     -1.9460472      18042.268    
    216000   1.0035624      0.0023323615   0.0031426907   20.114146      18.623856      1.4902901     -1.9518643      18041.395    
    217000   1.0952881      0.0023323615   0.0050715968   20.189225      18.562722      1.6265028     -1.9595429      18087.421    
    218000   0.90007971     0.0023323615  -0.0018762753   19.761852      18.425233      1.3366184     -2.0774859      17936.275    
    219000   0.91051752     0.0023323615   0.0062753742   19.92488       18.572762      1.3521185     -2.026449       18058.424    
    220000   1.0981852      0.0023323615  -0.0011504024   20.350366      18.719561      1.630805      -1.92168        18151.84     
    221000   1.0049549      0.0023323615   0.0020634605   19.898754      18.406396      1.492358      -2.1203402      18046.079    
    222000   0.97474608     0.0023323615  -0.0017436355   19.833156      18.385658      1.4474979     -2.1540504      18102.947    
    223000   0.92756463     0.0023323615   0.0044238247   19.980292      18.602858      1.3774335     -2.0180935      18002.311    
    224000   0.80744283     0.0023323615  -0.0031121212   19.669942      18.470889      1.1990526     -2.0255399      17992.226    
    225000   1.0035028      0.0023323615  -0.00091204349  19.973495      18.483293      1.4902016     -2.0212351      18033.868    
    226000   1.0381566      0.0023323615  -0.0019922837   20.010564      18.468902      1.5416625     -2.0893319      17978.623    
    227000   0.87704649     0.0023323615   0.0033400312   19.965133      18.662719      1.302414      -1.9258973      17995.19     
    228000   0.97749955     0.0023323615  -0.0015250251   20.038033      18.586447      1.4515868     -1.8740615      18007.547    
    229000   1.078092       0.0023323615  -0.0010401611   20.222669      18.621702      1.6009667     -1.9295409      18089.984    
    230000   0.97677303     0.0023323615  -0.0012483933   20.227558      18.77705       1.450508      -1.7355332      18046.597    
    231000   0.94494366     0.0023323615   0.0012253469   20.286821      18.88358       1.4032413     -1.7067778      18124.913    
    232000   1.0315986      0.0023323615  -0.0022714713   20.02018       18.488256      1.531924      -1.928802       18216.952    
    233000   0.81861987     0.0023323615   0.00030670373  19.994702      18.779051      1.2156505     -1.7978715      18246.694    
    234000   1.0062058      0.0023323615   0.0007944073   20.078187      18.583972      1.4942156     -2.0653219      18048.066    
    235000   1.042838       0.0023323615   0.00040706936  19.977728      18.429113      1.5486144     -2.2038473      17983.201    
    236000   0.95327707     0.0023323615  -0.0035630967   19.860641      18.445025      1.4156164     -2.093331       17947.583    
    237000   1.117728       0.0023323615   0.00304087     20.353591      18.693765      1.659826      -1.7704863      17989.644    
    238000   0.96750624     0.0023323615  -0.0033371616   20.056376      18.619629      1.4367468     -1.941531       18045.775    
    239000   1.0738433      0.0023323615  -0.0016632856   20.300215      18.705557      1.5946572     -1.8409356      18180.694    
    240000   1.1352685      0.0023323615  -0.0020802419   20.013718      18.327844      1.6858737     -2.2813923      17999.535    
    241000   1.1409293      0.0023323615   0.0045017097   19.91049       18.21621       1.69428       -2.2758921      18044.663    
    242000   1.0179376      0.0023323615  -0.00043946865  20.170155      18.658518      1.5116373     -1.8913112      18117.511    
    243000   0.95727537     0.0023323615  -0.006200886    20.014056      18.592502      1.4215539     -1.9175111      18190.989    
    244000   1.2433471      0.0023323615  -0.0036724216   20.356264      18.509893      1.8463704     -2.1107464      18110.676    
    245000   0.94641059     0.0023323615   0.00039765951  19.904415      18.498995      1.4054197     -2.0774383      18037.358    
    246000   0.96484271     0.0023323615  -0.00051277982  19.963412      18.53062       1.4327914     -2.0671059      18047.27     
    247000   1.0915057      0.0023323615  -0.0030783515   20.060295      18.439409      1.620886      -1.9989425      18095.675    
    248000   0.97743046     0.0023323615   0.0014446596   19.969357      18.517873      1.4514842     -2.1235978      18119.227    
    249000   1.1345505      0.0023323615   0.0033892587   20.067534      18.382726      1.6848075     -2.1693562      18024.632    
    250000   0.95447795     0.0023323615   0.00087928397  20.069911      18.652511      1.4173997     -1.9294639      17921.937    
    251000   0.9286792      0.0023323615  -0.00090217266  19.994891      18.615802      1.3790886     -1.9689336      17915.172    
    252000   0.89607946     0.0023323615   0.0015825564   19.758006      18.427328      1.330678      -2.0121724      18023.357    
    253000   0.90076916     0.0023323615   0.00089128307  20.089426      18.751784      1.3376422     -1.8155462      18008.102    
    254000   1.136876       0.0023323615   0.00091300188  20.40971       18.721449      1.6882608     -1.8748889      18015.468    
    255000   1.0738747      0.0023323615   0.0036199625   20.215087      18.620383      1.5947039     -1.8858186      18055.219    
    256000   0.94375719     0.0023323615  -0.0028004856   20.377187      18.975708      1.4014794     -1.7186328      17976.48     
    257000   0.9980716      0.0023323615   0.00050419134  19.845233      18.363096      1.4821363     -2.091019       18113.647    
    258000   0.81687191     0.0023323615  -0.0043171654   19.977381      18.764326      1.2130548     -1.769044       18012.772    
    259000   1.0036582      0.0023323615  -0.0016550441   20.163749      18.673317      1.4904325     -1.9312995      17967.293    
    260000   1.0996961      0.0023323615  -0.0015811856   19.956804      18.323755      1.6330488     -2.1701389      17946.182    
    261000   1.0878144      0.0023323615  -0.0035681888   20.424667      18.809263      1.6154044     -1.7902746      18080.985    
    262000   0.93683186     0.0023323615  -0.0025762675   20.016064      18.624868      1.3911953     -1.9476847      17995.197    
    263000   0.9617554      0.0023323615  -0.0011016829   19.814261      18.386054      1.4282068     -2.0390452      18061.126    
    264000   1.0672354      0.0023323615   0.0036731884   20.211137      18.626292      1.5848446     -1.9271382      18172.018    
    265000   1.1432313      0.0023323615   1.4529125e-05  20.158287      18.460588      1.6976984     -1.9658584      18075.914    
    266000   0.92751298     0.0023323615   0.00052458725  19.832311      18.454955      1.3773568     -2.0857776      18111.291    
    267000   1.1275184      0.0023323615  -0.00057693744  19.913669      18.239305      1.6743648     -2.1955029      18044.255    
    268000   1.1087061      0.0023323615   0.001863094    20.104318      18.457889      1.6464286     -2.079324       18097.938    
    269000   1.0193172      0.0023323615   0.0021527098   19.93469       18.421004      1.513686      -2.0306173      18121.744    
    270000   1.0453114      0.0023323615  -0.0070424274   20.08376       18.531472      1.5522874     -2.0016397      18125.433    
    271000   0.94584715     0.0023323615   0.0076907493   20.065512      18.660929      1.404583      -1.9597201      18153.061    
    272000   1.0289709      0.0023323615  -0.0027632529   20.363458      18.835436      1.5280218     -1.7181978      18168.195    
    273000   1.0027346      0.0023323615  -0.0038414807   20.130235      18.641174      1.4890609     -2.0341772      18184.327    
    274000   0.95430008     0.0023323615   0.0028616417   19.753986      18.33685       1.4171356     -2.1357814      18152.536    
    275000   1.1887282      0.0023323615   0.0012517179   20.583006      18.817745      1.7652613     -1.7702925      18164.174    
    276000   0.94489015     0.0023323615  -0.0022490504   19.994097      18.590935      1.4031619     -1.9465315      18237.246    
    277000   1.0203049      0.0023323615  -0.00079777273  20.131714      18.616562      1.5151527     -2.0124678      17991.924    
    278000   1.0103638      0.0023323615  -0.003231235    19.970301      18.469911      1.5003903     -2.0011891      18124.854    
    279000   0.93357136     0.0023323615  -0.0043384148   20.222211      18.835858      1.3863535     -1.8916951      18074.594    
    280000   0.98034858     0.0023323615  -0.0018053043   20.063599      18.607781      1.4558176     -2.0143334      18154.735    
    281000   1.0777639      0.0023323615  -0.00095160756  20.245322      18.644843      1.6004793     -1.9322937      18015.786    
    282000   1.0641421      0.0023323615   0.0017477264   20.042696      18.462445      1.5802511     -2.1311959      17957.919    
    283000   0.99170296     0.0023323615   0.00090753503  20.388533      18.915854      1.4726789     -1.7742678      18005.757    
    284000   1.1069805      0.0023323615   0.0010798473   20.302748      18.658882      1.6438661     -1.8540485      18208.999    
    285000   1.1862501      0.0023323615  -0.0010593574   20.273526      18.511944      1.7615815     -1.9788508      17990.011    
    286000   1.0842165      0.0023323615   0.0030101061   20.00917       18.399109      1.6100615     -2.0438367      18122.399    
    287000   1.0060522      0.0023323615  -0.0014423211   19.809562      18.315575      1.4939876     -2.1649882      18099.651    
    288000   0.99469614     0.0023323615   0.0015510757   20.162728      18.685605      1.4771238     -1.982857       18045.253    
    289000   0.93317988     0.0023323615  -2.6411345e-05  20.049661      18.663888      1.3857721     -1.991874       18174.967    
    290000   1.0512475      0.0023323615  -0.0023707649   19.907874      18.346771      1.5611025     -2.1261159      18136.42     
    291000   1.0336963      0.0023323615   0.0036656428   19.752471      18.217432      1.535039      -2.2799558      18132.984    
    292000   1.0502891      0.0023323615  -0.00036486457  19.76017       18.200491      1.5596793     -2.1292108      18055.99     
    293000   1.0422577      0.0023323615  -0.0036472061   20.205355      18.657603      1.5477528     -1.9400124      18136.434    
    294000   0.85895846     0.0023323615  -0.00042413921  19.966788      18.691234      1.2755533     -1.8406884      18087.539    
    295000   0.92359077     0.0023323615   0.00033823742  19.730281      18.358749      1.3715323     -2.1472477      18056.787    
    296000   1.0600372      0.0023323615  -0.0030161907   20.247251      18.673096      1.5741552     -1.7898832      18166.3      
    297000   0.91214652     0.0023323615   0.0026590461   19.968445      18.613907      1.3545376     -1.8096584      18195.956    
    298000   1.0373519      0.0023323615   0.0029344141   19.900466      18.359999      1.5404676     -2.0807466      18103.023    
    299000   1.1123907      0.0023323615  -0.0028144917   20.417142      18.765242      1.6519002     -1.8165774      18194.995    
    300000   0.85566834     0.0023323615  -0.0027244628   19.910297      18.639629      1.2706675     -1.9278711      18268.756    
    301000   0.91822604     0.0023323615  -0.0026103785   19.873052      18.509486      1.3635657     -1.9770098      18265.533    
    302000   0.98248198     0.0023323615  -0.0019615956   20.002872      18.543887      1.4589857     -1.9724746      18215.642    
    303000   0.94029121     0.0023323615  -0.00096841434  19.578584      18.182251      1.3963324     -2.3026797      18044.953    
    304000   0.93489878     0.0023323615   0.00040364438  20.331689      18.943364      1.3883247     -1.691308       18089.958    
    305000   0.95805386     0.0023323615  -0.0033946986   19.787874      18.365164      1.42271       -2.1375653      18115.892    
    306000   0.94195534     0.0023323615  -0.00095429247  20.016199      18.617395      1.3988037     -1.9298547      18275.015    
    307000   0.92668676     0.0023323615   0.0036461389   19.970691      18.594562      1.3761298     -1.8753582      18198.594    
    308000   0.94416512     0.0023323615  -0.0016313095   20.038954      18.636869      1.4020852     -2.0441626      18141.84     
    309000   0.88548952     0.0023323615  -0.0016293567   19.655689      18.340737      1.3149519     -2.1256803      18131.636    
    310000   0.92846571     0.0023323615   0.0038991908   19.80232       18.423548      1.3787716     -2.1625924      18131.581    
    311000   1.1398225      0.0023323615  -0.00013543441  20.341931      18.649294      1.6926364     -1.9912006      18151.242    
    312000   0.99778274     0.0023323615  -0.0017011653   20.087497      18.60579       1.4817074     -1.8880522      18028.328    
    313000   1.0684482      0.0023323615   0.00066573372  20.056358      18.469712      1.5866455     -2.0248315      18076.257    
    314000   0.9640247      0.0023323615  -0.001513343    19.973292      18.541716      1.4315767     -2.0682931      18177.393    
    315000   0.88101527     0.0023323615  -0.0020309326   19.74184       18.433533      1.3083077     -2.0634176      18036.325    
    316000   1.0595686      0.0023323615   0.0016567611   20.010891      18.437431      1.5734594     -1.9435897      18034.653    
    317000   1.1242518      0.0023323615  -0.0012145772   20.018553      18.349039      1.669514      -2.1905712      18130.592    
    318000   1.0986546      0.0023323615   0.0025536467   20.073285      18.441783      1.6315021     -2.1836912      18181.9      
    319000   1.0312361      0.0023323615   0.0056812899   19.941872      18.410487      1.5313856     -2.1546327      18143.967    
    320000   0.93196121     0.0023323615  -0.0025646674   19.870745      18.486783      1.3839624     -1.9740672      18133.886    
    321000   0.93570001     0.0023323615   0.001880247    19.818208      18.428693      1.3895145     -2.1221039      18054.896    
    322000   1.0019855      0.0023323615  -0.0015042172   19.791952      18.304003      1.4879485     -2.0905124      18048.591    
    323000   0.82891738     0.0023323615  -0.0029763365   19.613682      18.382739      1.2309423     -2.1235863      18003.633    
    324000   1.0023211      0.0023323615   0.00011389297  20.039083      18.550637      1.4884469     -1.9732885      18048.314    
    325000   1.0679405      0.0023323615  -0.0018221344   19.810113      18.224222      1.5858917     -2.2919744      17937.69     
    326000   0.97088417     0.0023323615  -0.0044211473   20.028103      18.58634       1.441763      -2.0951176      18073.318    
    327000   1.0306203      0.0023323615   0.0019244109   19.860705      18.330234      1.5304711     -2.1677721      17956.752    
    328000   1.0009089      0.0023323615   0.0030724718   20.240898      18.754548      1.4863496     -1.9124998      18133.013    
    329000   0.97709322     0.0023323615  -0.00046180699  19.71651       18.265527      1.4509834     -2.1826907      18119.806    
    330000   0.91163382     0.0023323615  -0.0041110855   19.919311      18.565534      1.3537762     -1.971278       18133.86     
    331000   0.88918265     0.0023323615  -0.0025918177   20.0223        18.701863      1.3204362     -1.9749773      18071.08     
    332000   1.0603227      0.0023323615   0.00045509407  20.183692      18.609113      1.5745792     -1.9473749      18070.177    
    333000   0.89188682     0.0023323615  -0.0026924582   19.61665       18.292198      1.3244519     -2.1283807      18104.954    
    334000   0.94773404     0.0023323615  -0.00012054586  19.941654      18.534269      1.4073851     -1.9912771      18159.554    
    335000   0.97525481     0.0023323615   0.0045978773   19.764582      18.316329      1.4482534     -2.0885524      18219.17     
    336000   0.9893396      0.0023323615  -0.0061067178   20.216258      18.747089      1.4691693     -1.7899916      18175.589    
    337000   0.83078637     0.0023323615  -0.001845358    19.637966      18.404248      1.2337178     -2.06091        18300.252    
    338000   1.1206643      0.0023323615  -0.0011419532   20.111535      18.447348      1.6641865     -1.9964899      18221.93     
    339000   1.1057051      0.0023323615  -0.00080499549  20.170402      18.52843       1.6419721     -2.0679724      18130.672    
    340000   0.94291504     0.0023323615  -0.0052061638   19.987121      18.586892      1.4002288     -1.9661568      18009.074    
    341000   1.0947349      0.0023323615   0.003345377    20.528306      18.902625      1.6256813     -1.7368609      18098.342    
    342000   0.90595359     0.0023323615   0.0025512922   19.893343      18.548001      1.3453411     -1.8973404      18185.242    
    343000   0.8648566      0.0023323615  -0.0026037127   19.74132       18.457008      1.2843121     -2.0024422      18184.371    
    344000   0.85160578     0.0023323615  -0.0023385115   19.849405      18.58477       1.2646346     -2.0205548      18007.81     
    345000   1.0728727      0.0023323615   0.00051946476  20.133978      18.540763      1.5932159     -1.9981512      18027.627    
    346000   0.9371634      0.0023323615   0.0028010669   19.681107      18.289419      1.3916877     -2.2568189      18020.32     
    347000   0.91556665     0.0023323615  -0.0023085448   19.940403      18.580787      1.3596165     -1.988872       17988.927    
    348000   1.0562325      0.0023323615   0.0001305006   19.94373       18.375224      1.5685053     -2.0559658      18202.241    
    349000   0.82484135     0.0023323615  -0.0030545948   19.849833      18.624944      1.2248894     -1.8953512      18195.967    
    350000   0.96222826     0.0023323615   0.001053916    20.003942      18.575033      1.428909      -1.93885        18075.206    
    351000   0.99605083     0.0023323615  -0.0015920907   19.896993      18.417858      1.4791355     -2.2188137      18023.555    
    352000   0.96965133     0.0023323615  -0.0035151293   19.685805      18.245873      1.4399322     -2.298743       17932.608    
    353000   1.0087019      0.0023323615   0.0033050773   20.018921      18.520998      1.4979223     -1.8936789      18050.295    
    354000   0.98392574     0.0023323615  -0.0012259995   20.17676       18.71563       1.4611297     -1.7849718      18185.146    
    355000   1.112198       0.0023323615  -0.0027159711   20.278516      18.626902      1.651614      -1.9082329      18171.807    
    356000   0.87570406     0.0023323615  -0.0020845645   19.950176      18.649756      1.3004205     -1.9226566      18105.295    
    357000   1.1455458      0.0023323615  -0.001554565    19.943265      18.242129      1.7011356     -2.1605846      18063.891    
    358000   1.071724       0.0023323615   0.00037438482  20.280816      18.689306      1.5915101     -1.8264145      18181.704    
    359000   1.0931626      0.0023323615   0.0012065703   19.909013      18.285666      1.6233465     -2.176323       18111.218    
    360000   1.1133067      0.0023323615  -0.00083606258  19.841776      18.188515      1.6532605     -2.1435923      18086.107    
    361000   1.0872673      0.0023323615   0.0003300787   20.059652      18.44506       1.614592      -2.0060899      18189.461    
    362000   0.9283268      0.0023323615   0.00035656623  19.983963      18.605397      1.3785653     -1.917991       18092.23     
    363000   0.98439229     0.0023323615   0.00058203991  19.538325      18.076503      1.4618226     -2.2951713      18030.763    
    364000   1.0719586      0.0023323615  -0.0057740569   20.109115      18.517256      1.5918585     -1.9446762      17954.902    
    365000   1.1975033      0.0023323615   0.0012123703   20.32538       18.547088      1.7782924     -1.9345613      18011.017    
    366000   1.0631972      0.0023323615  -0.00078501419  20.179252      18.600404      1.5788479     -1.8436801      17971.075    
    367000   0.9123482      0.0023323615   0.000724925    19.865714      18.510877      1.3548371     -2.0297405      17986.545    
    368000   0.9555672      0.0023323615   0.0022262355   19.971703      18.552685      1.4190173     -1.8536544      18030.118    
    369000   0.97933102     0.0023323615  -0.0015233556   20.045343      18.591036      1.4543066     -2.126427       18014.164    
    370000   1.0432409      0.0023323615  -0.0033587227   20.081127      18.531914      1.5492128     -1.9923992      18054.582    
    371000   1.030691       0.0023323615   0.0019229647   20.075842      18.545266      1.5305761     -2.0179786      18080.15     
    372000   0.9292759      0.0023323615  -0.0022457924   20.079146      18.699171      1.3799747     -2.0430133      18177.602    
    373000   0.98687301     0.0023323615  -0.00021853706  19.907368      18.441861      1.4655064     -1.9697386      18136.44     
    374000   0.94054989     0.0023323615  -0.0007321628   19.806458      18.409741      1.3967166     -2.0754512      18030.926    
    375000   1.1117226      0.0023323615  -0.0030105682   20.313798      18.66289       1.650908      -1.9899529      18055.258    
    376000   0.96799542     0.0023323615   0.0032210888   20.08078       18.643307      1.4374732     -2.0084304      18195.947    
    377000   0.83145258     0.0023323615   0.0043205772   19.682073      18.447366      1.2347071     -1.9769229      18334.041    
    378000   0.93800566     0.0023323615  -0.0012116718   19.945952      18.553014      1.3929384     -1.9676524      18156.842    
    379000   1.0304747      0.0023323615  -0.0010881713   20.254521      18.724266      1.530255      -1.8619564      18252.243    
    380000   1.1113629      0.0023323615  -0.00018379548  20.140655      18.490281      1.6503739     -2.2260306      18205.246    
    381000   1.0568552      0.0023323615   0.00070921799  20.135932      18.566502      1.5694299     -1.9716536      18088.699    
    382000   0.8822802      0.0023323615  -0.001635402    20.089397      18.779211      1.3101861     -1.8136917      17800.288    
    383000   1.0490962      0.0023323615   0.00023074016  19.849194      18.291286      1.5579079     -2.1309839      18133.211    
    384000   1.0144563      0.0023323615  -0.0022509637   20.141174      18.634707      1.5064676     -1.8634391      18016.385    
    385000   1.0169415      0.0023323615  -0.0034882795   19.916416      18.406258      1.5101581     -2.212362       17952.889    
    386000   0.89507539     0.0023323615  -0.00014307799  19.792982      18.463795      1.329187      -2.0291213      17920.103    
    387000   0.76209412     0.0023323615  -0.0036464557   19.711096      18.579386      1.1317098     -1.9212381      18042.862    
    388000   0.98606994     0.0023323615   0.0017896931   19.990097      18.525784      1.4643139     -1.9968945      17934.18     
    389000   1.1098602      0.0023323615  -0.0013477873   20.146178      18.498035      1.6481424     -2.0558351      17938.989    
    390000   1.1482522      0.0023323615  -3.5521065e-05  20.358386      18.653232      1.7051545     -1.8632438      17987.239    
    391000   1.1347181      0.0023323615  -0.0034668321   20.106009      18.420952      1.6850563     -2.1008015      18053.912    
    392000   0.8879528      0.0023323615   0.0018661547   19.855385      18.536775      1.3186099     -2.0136164      18117.715    
    393000   1.1374427      0.0023323615  -0.0014291559   20.070004      18.380902      1.6891024     -2.1470392      18181.3      
    394000   0.94313493     0.0023323615   0.00087141802  19.828358      18.427803      1.4005554     -2.0125142      18040.002    
    395000   0.95066697     0.0023323615   0.004397702    19.59652       18.18478       1.4117405     -2.2957948      17972.182    
    396000   1.055738       0.0023323615   0.0022379073   20.236177      18.668406      1.567771      -1.808282       17896.131    
    397000   1.096524       0.0023323615   0.002005226    20.01667       18.388332      1.6283381     -2.0671571      17944.824    
    398000   0.86369836     0.0023323615   0.0030246263   19.577338      18.294746      1.2825921     -2.149206       18068.957    
    399000   1.1052866      0.0023323615  -0.0015300605   20.268752      18.627402      1.6413506     -1.8830774      17907.776    
    400000   1.0885692      0.0023323615   0.003414404    20.220604      18.604079      1.6165252     -1.9626569      18006.566    
    401000   0.99995286     0.0023323615  -0.001535364    20.218371      18.733441      1.48493       -1.8321315      18129.212    
    402000   0.97005137     0.0023323615  -0.0030461349   20.246172      18.805645      1.4405263     -1.7627378      18100.314    
    403000   0.91470847     0.0023323615  -0.0021550342   19.974383      18.616041      1.3583421     -1.9223586      18009.734    
    404000   1.0037928      0.0023323615   0.0013903634   20.16866       18.678028      1.4906322     -2.0395829      18033.2      
    405000   0.99274177     0.0023323615   0.0022570841   19.997734      18.523512      1.4742215     -2.0333127      18231.639    
    406000   1.1561541      0.0023323615   0.0043063007   19.98812       18.271231      1.7168888     -2.1418091      18134.921    
    407000   0.89708981     0.0023323615   0.0047141292   19.80143       18.469251      1.3321784     -2.0226146      18137.435    
    408000   1.0670047      0.0023323615  -0.0041859985   19.962195      18.377693      1.584502      -2.0448803      18040.795    
    409000   1.0632115      0.0023323615  -0.0017736241   19.948814      18.369945      1.5788691     -2.1677528      17945.611    
    410000   0.93655293     0.0023323615  -0.00050586608  20.101625      18.710844      1.3907811     -1.8175739      17974.7      
    411000   0.92284226     0.0023323615   0.0021270353   19.704727      18.334306      1.3704208     -2.1881572      18120.79     
    412000   1.0458866      0.0023323615  -0.0029423795   20.065479      18.512338      1.5531417     -2.0483644      18041.023    
    413000   1.0492755      0.0023323615   0.0051846961   20.010626      18.452452      1.5581741     -1.9933376      18125.328    
    414000   1.0570618      0.0023323615   0.0013573032   20.046466      18.476729      1.5697368     -2.0503029      18125.492    
    415000   1.0563717      0.0023323615   0.0034802274   20.042825      18.474113      1.5687119     -2.1563222      18208.391    
    416000   0.9594331      0.0023323615  -0.0027363579   19.940263      18.515504      1.4247582     -2.0082977      18296.183    
    417000   0.82588589     0.0023323615  -0.0027312934   19.775324      18.548884      1.2264405     -1.9087931      18268.997    
    418000   1.0864194      0.0023323615  -0.00056153097  19.867413      18.25408       1.6133327     -2.1677542      18236.503    
    419000   1.0282943      0.0023323615  -0.0013812763   20.160347      18.63333       1.527017      -1.8665869      18125.282    
    420000   0.93623376     0.0023323615   0.00016446876  19.700506      18.310199      1.3903071     -2.1760387      18122.264    
    421000   0.97848559     0.0023323615   0.0029239264   19.938309      18.485258      1.4530511     -2.010034       18140.666    
    422000   1.0741699      0.0023323615   0.0015282809   20.212849      18.617706      1.5951423     -1.9385611      18100.797    
    423000   0.97511388     0.0023323615  -0.0015821207   19.870495      18.422451      1.4480441     -2.0781194      18184.486    
    424000   1.0179525      0.0023323615  -0.00026614336  20.218318      18.706658      1.5116594     -1.8680933      18212.521    
    425000   0.93244651     0.0023323615   0.0010424439   20.045724      18.661041      1.3846831     -1.874009       18212.557    
    426000   0.90369532     0.0023323615  -0.0011083565   19.688909      18.346921      1.3419876     -2.1792104      18031.438    
    427000   0.94272196     0.0023323615  -0.0035573518   20.167493      18.767551      1.3999421     -1.8088052      18182.771    
    428000   1.1185358      0.0023323615   0.0018930649   20.100248      18.439223      1.6610257     -2.0354945      18204.828    
    429000   0.93955215     0.0023323615  -0.0043366126   19.869229      18.473994      1.3952349     -2.0011123      18257.585    
    430000   0.79039589     0.0023323615  -0.0047829137   19.667383      18.493645      1.1737379     -1.9640386      18175.417    
    431000   1.0711466      0.0023323615   0.0016197434   20.267432      18.676779      1.5906527     -1.7843519      18117.705    
    432000   0.97013528     0.0023323615  -0.0010705508   20.116686      18.676035      1.4406509     -1.8493362      18170.94     
    433000   1.0125998      0.0023323615   0.0011546984   20.002572      18.498861      1.5037108     -2.0847302      18168.049    
    434000   1.0289354      0.0023323615   0.00061372536  20.379506      18.851537      1.527969      -1.8449049      18232.462    
    435000   1.1690267      0.0023323615   0.0017013802   20.245804      18.509799      1.7360047     -2.0670805      18000.532    
    436000   1.0410922      0.0023323615   0.00095094899  20.326432      18.78041       1.5460219     -1.8288187      17935.521    
    437000   1.1130003      0.0023323615  -0.0016171304   20.154957      18.502152      1.6528054     -2.0095863      17992.91     
    438000   1.1790494      0.0023323615   0.0048866711   20.164133      18.413245      1.7508884     -2.0887317      18102.947    
    439000   0.9115597      0.0023323615  -0.0010930696   19.916091      18.562425      1.3536661     -1.8491212      18100.193    
    440000   0.9369937      0.0023323615  -0.00059830102  19.833689      18.442253      1.3914356     -2.0743754      18199.016    
    441000   1.0573064      0.0023323615   0.00082338411  20.075411      18.505311      1.5700999     -1.975345       18117.718    
    442000   0.9775796      0.0023323615   0.0023483165   20.124765      18.673059      1.4517057     -1.8868633      18102.087    
    443000   0.96364461     0.0023323615   0.0030279344   20.137526      18.706514      1.4310122     -1.7691849      18067.308    
    444000   1.093558       0.0023323615   0.0053214236   20.187319      18.563386      1.6239336     -1.9092553      18092.306    
    445000   1.1549         0.0023323615  -0.00097687004  20.457113      18.742087      1.7150266     -1.7840838      17972.492    
    446000   1.0041368      0.0023323615   0.0013115266   20.142346      18.651203      1.4911431     -1.8588745      17959.55     
    447000   1.072794       0.0023323615   0.0044499504   20.011314      18.418215      1.5930991     -1.9985911      18072.768    
    448000   1.0067142      0.0023323615   0.0030434758   19.940978      18.446007      1.4949706     -2.1243937      18034.51     
    449000   1.075161       0.0023323615  -0.0017362606   20.183077      18.586463      1.5966141     -1.9884707      18086.962    
    450000   1.0304906      0.0023323615   0.0045181501   20.267002      18.736724      1.5302785     -1.7857729      17958.265    
    451000   0.97017402     0.0023323615   0.0015177045   19.902146      18.461438      1.4407084     -1.9935296      17972.363    
    452000   0.99198418     0.0023323615   0.0038872524   19.774085      18.300989      1.4730965     -2.1580482      17921.901    
    453000   0.94752504     0.0023323615   0.0011151993   19.812204      18.405129      1.4070747     -2.175354       17951.33     
    454000   1.0727999      0.0023323615   0.0027137178   19.999909      18.406801      1.5931078     -2.1393665      17970.001    
    455000   0.99741659     0.0023323615  -0.00072224426  19.754573      18.273409      1.4811636     -2.216126       17939.183    
    456000   0.94972872     0.0023323615  -0.0010906958   19.866161      18.455814      1.4103471     -2.045266       17941.305    
    457000   1.1260097      0.0023323615   0.0017012003   20.266437      18.594312      1.6721245     -1.9399895      18002.136    
    458000   0.91823881     0.0023323615  -0.0027459377   20.008396      18.644811      1.3635846     -1.9013791      18140.794    
    459000   0.98134554     0.0023323615  -0.0039072972   20.090623      18.633325      1.4572981     -1.8554551      18098.414    
    460000   1.1059281      0.0023323615  -0.0014434076   20.644147      19.001844      1.6423033     -1.6408106      18003.954    
    461000   0.93379317     0.0023323615  -0.0043562987   19.968368      18.581686      1.3866829     -1.9688125      18077.992    
    462000   0.89040982     0.0023323615   0.00052964871  19.863699      18.541441      1.3222586     -1.8839226      18075.691    
    463000   1.0651318      0.0023323615  -0.00077787072  20.365451      18.78373       1.5817207     -1.8217266      18170.007    
    464000   0.85746755     0.0023323615  -0.0014761113   19.76143       18.48809       1.2733393     -2.1141483      18049.254    
    465000   0.97348934     0.0023323615  -0.00068685345  20.02166       18.576029      1.4456317     -1.8694163      17989.858    
    466000   0.87642876     0.0023323615  -0.0014064455   19.592105      18.290608      1.3014967     -2.1314211      17931.058    
    467000   0.93171699     0.0023323615   0.0061577677   20.106158      18.722559      1.3835997     -1.7581232      18121.053    
    468000   1.0571578      0.0023323615  -0.0029930154   20.475889      18.90601       1.5698794     -1.5911654      18233.564    
    469000   0.95535918     0.0023323615  -0.0015402478   19.821035      18.402326      1.4187084     -2.1105113      18221.265    
    470000   0.97385155     0.0023323615  -0.0011598168   19.880419      18.434249      1.4461696     -2.0846252      18112.431    
    471000   1.0044595      0.0023323615   0.0045128604   19.78568       18.294058      1.4916224     -2.1493348      18019.185    
    472000   0.89490184     0.0023323615  -0.0032797377   19.756295      18.427366      1.3289292     -2.0544332      18070.641    
    473000   1.0242256      0.0023323615   0.0013523901   19.958608      18.437633      1.520975      -1.9827848      18104.231    
    474000   1.0743468      0.0023323615   0.00075737245  20.017385      18.42198       1.595405      -2.0943036      18092.866    
    475000   1.1007547      0.0023323615  -0.00088566776  20.173597      18.538976      1.6346208     -1.9663851      17983.91     
    476000   1.0543501      0.0023323615  -0.0010201459   20.156044      18.590334      1.56571       -1.853302       17966.857    
    477000   0.89661776     0.0023323615   0.00053673624  19.943227      18.61175       1.3314774     -1.8913461      18066.834    
    478000   1.147604       0.0023323615   0.0022397141   20.415204      18.711012      1.704192      -1.8880094      18128.725    
    479000   1.061198       0.0023323615  -0.0015237392   20.346429      18.77055       1.575879      -1.7337755      18024.99     
    480000   1.0614692      0.0023323615  -0.0020926367   19.840659      18.264377      1.5762818     -2.2572762      17998.922    
    481000   1.0343198      0.0023323615  -0.00073068614  20.234994      18.699029      1.5359649     -1.7915025      18079.449    
    482000   0.81675812     0.0023323615   0.0022011238   19.715928      18.503043      1.2128858     -1.9956365      18029.806    
    483000   1.0277869      0.0023323615  -0.00054544016  20.102911      18.576648      1.5262636     -1.936315       18183.936    
    484000   0.95299214     0.0023323615   8.448869e-05   20.221561      18.806368      1.4151933     -1.8103236      18154.811    
    485000   1.071425       0.0023323615   0.0039145661   20.189708      18.598642      1.5910661     -1.9216103      18030.392    
    486000   0.84308926     0.0023323615  -0.0018217978   19.901155      18.649167      1.2519875     -1.8346366      18115.472    
    487000   1.0377293      0.0023323615  -0.0019643068   20.448242      18.907214      1.5410281     -1.5908343      18137.847    
    488000   1.025935       0.0023323615   0.00075653305  20.22553       18.702016      1.5235134     -1.9136252      18024.147    
    489000   1.0353105      0.0023323615   0.0032479194   20.210353      18.672916      1.5374361     -1.7806365      18094.024    
    490000   0.92371744     0.0023323615  -0.0020259673   20.206867      18.835147      1.3717204     -1.7758756      18091.876    
    491000   0.912455       0.0023323615   0.0025599479   19.878821      18.523825      1.3549957     -2.138207       18077.527    
    492000   1.0567489      0.0023323615   0.0052185742   20.016729      18.447457      1.5692722     -2.0925584      18043.609    
    493000   0.96195054     0.0023323615  -0.00062056393  20.045669      18.617172      1.4284965     -1.9844684      18174.626    
    494000   0.8981399      0.0023323615   0.0021675672   19.741017      18.40728       1.3337378     -2.0061604      18113.246    
    495000   1.0256293      0.0023323615   0.001537315    20.155205      18.632146      1.5230595     -1.7504567      18159.934    
    496000   1.0102331      0.0023323615   0.003391429    19.919174      18.418978      1.5001962     -2.1288175      18194.072    
    497000   1.0059753      0.0023323615   0.0036255915   19.884121      18.390247      1.4938733     -2.0982676      18111.915    
    498000   1.1292364      0.0023323615   0.0010600319   19.946357      18.269441      1.676916      -2.2429448      18082.905    
    499000   0.87334857     0.0023323615   0.0025934117   19.907436      18.610513      1.2969226     -1.9126014      18326.945    
    500000   0.91829119     0.0023323615  -0.00046971043  20.130138      18.766476      1.3636624     -1.7847675      18248.902    
    501000   1.0568251      0.0023323615   0.004227263    20.123373      18.553988      1.5693852     -1.9871754      18200.35     
    502000   1.0007584      0.0023323615  -0.005154933    20.415699      18.929573      1.4861262     -1.6429402      18284.723    
    503000   0.93998419     0.0023323615   8.1931337e-05  19.968946      18.573069      1.3958765     -1.9682873      18326.12     
    504000   0.98612689     0.0023323615  -0.00358289     20.115551      18.651152      1.4643984     -1.9166653      18069.643    
    505000   0.86893729     0.0023323615   0.0025397534   19.696415      18.406043      1.2903719     -2.0629683      17759.505    
    506000   1.0652299      0.0023323615  -0.0012121991   20.238578      18.656712      1.5818665     -1.8470362      18125.532    
    507000   0.9647868      0.0023323615  -0.0017021436   19.924046      18.491338      1.4327084     -1.9892192      18107.463    
    508000   0.91488852     0.0023323615   0.0048535194   20.193164      18.834555      1.3586094     -1.8275317      17964.021    
    509000   0.90289603     0.0023323615  -0.0039922568   19.994469      18.653668      1.3408006     -1.9031639      18317.763    
    510000   1.0231005      0.0023323615  -0.0015965827   19.906083      18.386779      1.5193043     -2.1313571      18257.298    
    511000   0.91767798     0.0023323615   0.002054273    20.066497      18.703745      1.3627518     -1.9093342      18247.778    
    512000   1.1714673      0.0023323615  -0.0010654425   20.144016      18.404387      1.7396289     -2.0910288      18338.151    
    513000   0.96610327     0.0023323615  -0.0027740174   19.785405      18.350742      1.4346633     -2.1061238      18242.916    
    514000   1.0018967      0.0023323615  -0.0014310083   20.219663      18.731846      1.4878166     -1.8695733      18190.442    
    515000   1.1388913      0.0023323615  -0.0030147346   20.569882      18.878628      1.6912535     -1.7328539      18178.188    
    516000   1.0794219      0.0023323615   0.0016762538   20.51059       18.907649      1.6029415     -1.8146001      18133.995    
    517000   1.0681681      0.0023323615  -0.00041009389  20.351331      18.765102      1.5862297     -1.8224468      18285.323    
    518000   0.9926709      0.0023323615   0.00019552067  19.899822      18.425706      1.4741163     -2.0189656      18121.514    
    519000   1.1512804      0.0023323615  -0.0026983633   20.246652      18.537001      1.7096514     -1.983889       18105.768    
    520000   0.98002887     0.0023323615  -0.00026323309  20.121693      18.66635       1.4553429     -1.8171788      18045.067    
    521000   1.0494636      0.0023323615   0.0012690589   19.882579      18.324125      1.5584535     -2.0899249      17985.722    
    522000   1.0644335      0.0023323615  -0.004162526    20.426572      18.845889      1.5806838     -1.6886371      17961.002    
    523000   0.85373268     0.0023323615  -0.0025237114   20.169562      18.901769      1.267793      -1.9515588      18030.789    
    524000   0.96242035     0.0023323615  -0.002682253    19.917708      18.488514      1.4291942     -2.0664023      17926.282    
    525000   0.98312166     0.0023323615   0.0021532655   20.002396      18.54246       1.4599357     -1.9677242      17946.334    
    526000   1.0160163      0.0023323615  -0.0047337404   20.098677      18.589893      1.5087842     -1.9549932      17972.835    
    527000   0.95162442     0.0023323615  -0.00092474157  19.848058      18.434895      1.4131623     -2.0530318      17944.601    
    528000   1.0116213      0.0023323615   0.0016037071   19.870009      18.367752      1.5022576     -2.1406767      17958.891    
    529000   0.95530043     0.0023323615   0.00079230778  19.970272      18.551651      1.4186211     -2.0176487      17995.937    
    530000   1.097795       0.0023323615   0.0010994608   19.855727      18.225501      1.6302256     -2.1855123      18034.464    
    531000   1.0338492      0.0023323615  -0.0020659821   20.11375       18.578484      1.5352661     -1.9552706      17920.267    
    532000   1.0466243      0.0023323615   0.0017353447   19.865586      18.311349      1.554237      -2.2602603      18103.118    
    533000   0.97276297     0.0023323615  -0.0002181302   19.857561      18.413008      1.444553      -2.0669269      17989.054    
    534000   0.93209859     0.0023323615   0.00016312464  19.884364      18.500198      1.3841664     -1.9938119      18056.17     
    535000   1.0242949      0.0023323615   0.0002928136   19.860719      18.339641      1.5210779     -2.1511991      17977.348    
    536000   1.0129007      0.0023323615   0.0030799972   19.812633      18.308476      1.5041576     -2.1490765      17903.507    
    537000   0.89702217     0.0023323615   0.0033580511   19.932319      18.600241      1.3320779     -1.9121574      17933.842    
    538000   0.8966431      0.0023323615  -0.0021105907   19.725201      18.393686      1.331515      -2.0996032      17877.978    
    539000   1.0046369      0.0023323615  -0.0034168797   19.802899      18.311013      1.4918858     -2.1997995      17911.999    
    540000   1.0305828      0.0023323615  -0.0012470833   19.964022      18.433606      1.5304154     -2.1096065      17937.774    
    541000   0.98359632     0.0023323615  -0.0025748768   19.974986      18.514346      1.4606405     -2.1183506      18029.024    
    542000   1.1192346      0.0023323615  -0.0010651189   20.145031      18.482968      1.6620633     -2.1035608      18067.295    
    543000   1.1010323      0.0023323615   0.00023788763  19.962744      18.327711      1.635033      -2.2154034      18156.314    
    544000   1.0895032      0.0023323615  -0.00045352061  20.113593      18.495681      1.6179123     -2.0510574      18152.45     
    545000   1.0169665      0.0023323615   0.0030103072   20.232423      18.722228      1.5101952     -1.8446952      18222.905    
    546000   1.0613917      0.0023323615   0.0016002951   20.343596      18.767429      1.5761667     -1.7775956      18133.165    
    547000   1.020474       0.0023323615  -0.0035121741   20.189761      18.674357      1.5154039     -1.7773403      18115.896    
    548000   0.96346529     0.0023323615  -0.0021721135   20.059846      18.6291        1.430746      -1.8858925      18164.383    
    549000   0.97946904     0.0023323615   0.00089253125  19.981802      18.52729       1.4545115     -1.9699015      18135.105    
    550000   0.99517122     0.0023323615  -0.0018250141   19.999812      18.521982      1.4778293     -2.0354995      18072.827    
    551000   0.98161674     0.0023323615   0.0014150686   20.025456      18.567755      1.4577009     -1.8099545      18122.537    
    552000   0.94292258     0.0023323615  -0.0036030802   20.055661      18.655421      1.40024       -1.881757       18232.545    
    553000   1.040261       0.0023323615   0.00063729631  20.12635       18.581562      1.5447876     -1.9809365      18119.895    
    554000   0.95017256     0.0023323615   0.0016617333   19.656063      18.245056      1.4110062     -2.2209786      18132.223    
    555000   0.99369189     0.0023323615   0.0016224194   19.911315      18.435682      1.4756325     -1.9836109      18109.28     
    556000   0.93623358     0.0023323615  -0.0030898085   20.041278      18.650971      1.3903069     -1.9014039      18005.202    
    557000   1.0735733      0.0023323615   0.0028524279   20.08254       18.488283      1.5942564     -2.0551035      18123.494    
    558000   1.0421732      0.0023323615   0.0027019555   20.28731       18.739683      1.5476272     -1.9094538      18046.32     
    559000   1.1810428      0.0023323615  -0.0015904717   20.548196      18.794347      1.7538485     -1.6966151      18129.212    
    560000   0.96269561     0.0023323615  -0.0014372863   20.027016      18.597413      1.429603      -1.8811789      18058.267    
    561000   1.0450027      0.0023323615  -0.00021367959  19.872892      18.321063      1.551829      -2.0972562      18151.305    
    562000   0.94787056     0.0023323615   0.0018695286   19.676294      18.268706      1.4075878     -2.080164       18217.135    
    563000   1.0185752      0.0023323615  -0.0020391793   19.976397      18.463813      1.5125842     -1.9511917      18194.607    
    564000   1.0073303      0.0023323615  -0.0012992147   20.165215      18.669329      1.4958855     -1.7897912      18230.973    
    565000   1.1104939      0.0023323615   0.00020106235  20.15884       18.509756      1.6490834     -2.0580952      18115.327    
    566000   1.0804637      0.0023323615  -0.0023932929   20.245973      18.641485      1.6044886     -1.8915006      18085.179    
    567000   0.91788864     0.0023323615  -0.0014205572   20.18187       18.818805      1.3630646     -1.8218248      18221.714    
    568000   0.99354587     0.0023323615  -0.0012378412   20.43166       18.956244      1.4754156     -1.5372633      18223.874    
    569000   0.83056922     0.0023323615  -0.0020527241   19.665729      18.432334      1.2333953     -2.0303165      18113.989    
    570000   0.96207482     0.0023323615   0.00037062988  20.127682      18.699         1.4286811     -1.9123158      17987.78     
    571000   1.0987596      0.0023323615  -0.0005563107   20.504975      18.873317      1.6316581     -1.625995       18055.425    
    572000   1.0969147      0.0023323615  -0.0021621344   20.549605      18.920687      1.6289183     -1.622285       18005.897    
    573000   0.82697397     0.0023323615   0.0012835612   19.667213      18.439156      1.2280564     -2.0372325      18093.312    
    574000   0.8907155      0.0023323615  -0.00027317142  20.00942       18.686707      1.3227125     -1.9028611      17999.73     
    575000   1.0094423      0.0023323615   0.0032156768   20.26          18.760978      1.4990218     -1.7964011      18031.256    
    576000   0.94980968     0.0023323615   0.0018608355   20.223092      18.812624      1.4104674     -1.8681241      18024.333    
    577000   1.194807       0.0023323615  -0.0015080253   20.455853      18.681564      1.7742884     -1.7805455      18066.925    
    578000   0.92003679     0.0023323615   0.0053317344   19.952264      18.586009      1.3662546     -1.9857235      17800.803    
    579000   1.0354623      0.0023323615  -0.0054785097   20.128956      18.591294      1.5376615     -1.9089845      17968.662    
    580000   0.97583849     0.0023323615  -0.00048612098  19.852374      18.403254      1.4491202     -2.0996936      18085.166    
    581000   0.95402594     0.0023323615  -0.0010115503   19.915366      18.498638      1.4167285     -2.0266984      18275.526    
    582000   1.04278        0.0023323615   0.00075394305  19.992285      18.443757      1.5485283     -2.1003494      18264.517    
    583000   0.96629202     0.0023323615  -0.00184718     20.224002      18.789058      1.4349436     -1.657376       18484.392    
    584000   0.94378641     0.0023323615  -0.0042841079   19.994574      18.593051      1.4015228     -1.9567007      18153.431    
    585000   1.1027671      0.0023323615   0.00046798755  20.284738      18.647129      1.6376091     -1.9661842      17974.47     
    586000   1.017813       0.0023323615   0.0029524646   20.402802      18.89135       1.5114523     -1.7983721      18023.083    
    587000   0.92307449     0.0023323615   0.0030218607   19.961365      18.590599      1.3707656     -1.9430895      17992.031    
    588000   0.93515857     0.0023323615   0.0015944461   19.975973      18.587263      1.3887105     -1.9107816      18073.694    
    589000   1.0103281      0.0023323615   0.0017507345   20.089886      18.589548      1.5003373     -1.9197795      17923.652    
    590000   1.0309061      0.0023323615   0.0010730591   19.806741      18.275845      1.5308956     -2.1584773      17917.761    
    591000   0.92117402     0.0023323615   0.00079661108  19.87707       18.509126      1.3679434     -2.094957       18024.368    
    592000   1.1789048      0.0023323615   0.0012590498   20.096312      18.345639      1.7506736     -2.2095383      17978.08     
    593000   1.0755057      0.0023323615  -0.00024599483  19.855685      18.258559      1.597126      -2.21291        17891.642    
    594000   0.96376205     0.0023323615  -0.00084502435  20.007636      18.57645       1.4311866     -2.0100448      17972.34     
    595000   0.90442721     0.0023323615  -0.00025315178  20.27072       18.927646      1.3430744     -1.5994404      18006.991    
    596000   1.0017805      0.0023323615  -0.00067022072  20.147956      18.660312      1.487644      -1.8809219      18096.498    
    597000   0.84741544     0.0023323615   0.00025533857  19.854315      18.595903      1.2584119     -1.8348776      18029.529    
    598000   1.0161179      0.0023323615  -7.7415146e-05  20.112332      18.603397      1.508935      -1.8522903      18152.431    
    599000   0.98854166     0.0023323615   0.0028267203   20.089341      18.621356      1.4679844     -1.8430378      18159.244    
    600000   1.0417828      0.0023323615   0.0027558923   19.805678      18.25863       1.5470475     -2.20042        18089.66     
    601000   1.0323448      0.0023323615  -0.0036825717   20.168778      18.635746      1.5330321     -1.8352282      18085.772    
    602000   0.98661286     0.0023323615  -0.00024637542  19.865333      18.400213      1.4651201     -2.0899594      18041.215    
    603000   0.92972745     0.0023323615   0.002523451    20.202865      18.822219      1.3806453     -1.6732894      18168.307    
    604000   0.87389673     0.0023323615  -0.0012500957   19.761768      18.464032      1.2977366     -2.0589898      18076.058    
    605000   0.94372019     0.0023323615  -0.00016802901  19.703859      18.302435      1.4014245     -2.1590178      18082.528    
    606000   1.0237896      0.0023323615  -0.00088204024  20.027389      18.507061      1.5203276     -1.9845223      17838.428    
    607000   0.90118132     0.0023323615  -0.0029523358   19.816699      18.478445      1.3382543     -2.1034336      18003.273    
    608000   1.0091628      0.0023323615  -0.004175275    19.944008      18.445401      1.4986067     -2.0818108      18149.638    
    609000   1.0324056      0.0023323615   0.0025161861   20.133728      18.600605      1.5331223     -1.9317308      18263.067    
    610000   1.0186989      0.0023323615   0.0021878211   20.064408      18.55164       1.5127678     -2.0013366      18031.428    
    611000   1.019069       0.0023323615  -0.0012137495   19.955049      18.441731      1.5133175     -1.9806801      17980.975    
    612000   1.1220773      0.0023323615  -0.0025933069   20.073095      18.40681       1.6662848     -2.0233793      18047.407    
    613000   0.82280656     0.0023323615   0.0038059154   19.801137      18.579269      1.2218677     -1.9046736      18037.942    
    614000   1.1195986      0.0023323615   0.00061744064  20.190829      18.528225      1.662604      -1.9784519      17982.355    
    615000   0.87579523     0.0023323615   0.00034077971  20.031677      18.731121      1.3005559     -1.8390703      18156.016    
    616000   1.0867535      0.0023323615   0.00011824844  20.035967      18.422138      1.613829      -2.0179711      18005.715    
    617000   0.98413402     0.0023323615  -0.0050316371   20.195559      18.73412       1.461439      -1.816319       17917.79     
    618000   1.097129       0.0023323615  -0.0015174956   20.132023      18.502786      1.6292366     -1.9902781      17962.663    
    619000   1.0196364      0.0023323615  -0.002870978    19.975963      18.461803      1.5141601     -2.0454036      17998.448    
    620000   1.0303842      0.0023323615   0.0027568728   20.091109      18.560988      1.5301206     -1.8837087      18060.632    
    621000   0.88562975     0.0023323615  -0.00036707169  20.340028      19.024868      1.3151602     -1.4668374      18179.157    
    622000   1.2045593      0.0023323615  -0.0023781321   20.564301      18.775531      1.7887706     -1.7249121      18094.461    
    623000   0.84842172     0.0023323615   0.0017736566   19.931009      18.671103      1.2599063     -1.8355779      18140.283    
    624000   1.0105565      0.0023323615   0.0026868006   20.238042      18.737366      1.5006764     -1.7317632      18241.739    
    625000   1.005587       0.0023323615  -0.0038845559   19.803548      18.310252      1.4932966     -2.1578863      18075.655    
    626000   0.98209746     0.0023323615   0.0036346722   20.353329      18.894914      1.4584147     -1.8031018      18207.272    
    627000   0.88768383     0.0023323615   0.0018241004   19.899201      18.58099       1.3182105     -1.982107       18008.951    
    628000   1.081412       0.0023323615  -0.0049453688   20.005731      18.399834      1.6058968     -2.0671506      17873.438    
    629000   1.100443       0.0023323615  -0.001987973    20.082694      18.448536      1.6341578     -2.0969601      17973.897    
    630000   1.1093706      0.0023323615   0.00084859537  20.244774      18.597359      1.6474154     -1.8971035      18036.273    
    631000   0.91305501     0.0023323615   0.0015545892   20.158576      18.802689      1.3558867     -1.7103902      18021.04     
    632000   1.1985417      0.0023323615   0.0045909652   20.318175      18.53834       1.7798344     -1.9383121      17999.584    
    633000   1.0140077      0.0023323615  -0.00070391106  19.984756      18.478955      1.5058014     -2.0240806      18011.898    
    634000   0.99402935     0.0023323615   0.0012648974   20.250814      18.774681      1.4761336     -1.6974417      17989.135    
    635000   0.95409762     0.0023323615   0.00075487013  20.176043      18.759208      1.416835      -1.7176555      18037.277    
    636000   0.91548922     0.0023323615  -0.0035390754   20.041097      18.681596      1.3595015     -1.9358419      17972.605    
    637000   1.0665876      0.0023323615   1.9654544e-05  20.297513      18.71363       1.5838826     -1.8166598      18028.822    
    638000   0.94294517     0.0023323615  -0.0016208835   19.816108      18.415834      1.4002736     -2.0447606      17982.022    
    639000   0.89198061     0.0023323615  -0.00096076525  19.659086      18.334495      1.3245912     -2.2178947      17958.494    
    640000   0.91511043     0.0023323615   0.0022541084   20.193306      18.834367      1.358939      -1.8035475      18054.517    
    641000   0.9082546      0.0023323615   0.0031179356   19.932302      18.583544      1.3487581     -1.8688256      18042.507    
    642000   1.0296833      0.0023323615  -0.0019169658   20.177713      18.648633      1.5290797     -1.8767615      18017.012    
    643000   1.1044339      0.0023323615  -0.0017048042   20.130098      18.490014      1.6400844     -1.9330202      18123.626    
    644000   0.99225586     0.0023323615   0.0020441958   20.007994      18.534494      1.4735        -1.9468792      18063.283    
    645000   1.130213       0.0023323615   0.0036292868   20.008037      18.329671      1.6783663     -2.1221458      18173.004    
    646000   0.9888174      0.0023323615   0.00013290827  19.871993      18.403599      1.4683938     -1.9733205      18218.801    
    647000   0.81784606     0.0023323615  -0.00080330739  19.747411      18.532909      1.2145014     -1.8484246      18175.847    
    648000   0.93360293     0.0023323615  -0.0041362368   19.746378      18.359978      1.3864003     -2.0410806      18123.856    
    649000   0.95590025     0.0023323615   0.0011687351   20.181532      18.76202       1.4195119     -1.8544418      18224.393    
    650000   1.0274539      0.0023323615  -0.0016627769   19.80856       18.282791      1.525769      -2.2696584      18269.362    
    651000   1.2067841      0.0023323615   0.0029138214   20.003967      18.211893      1.7920744     -2.2377517      18080.946    
    652000   0.93247668     0.0023323615   0.0045842003   19.800771      18.416043      1.3847279     -2.070205       18007.43     
    653000   1.1435726      0.0023323615  -0.0013773938   20.715945      19.01774       1.6982054     -1.5014499      18223.983    
    654000   1.0000914      0.0023323615  -0.0014774451   20.041503      18.556367      1.4851358     -1.9642579      18197.539    
    655000   1.1338401      0.0023323615  -0.0030986569   20.465449      18.781697      1.6837526     -1.7568732      18008.785    
    656000   1.0074246      0.0023323615  -0.0055752843   19.962691      18.466666      1.4960255     -2.0357649      18145.391    
    657000   0.97380724     0.0023323615   0.002851284    19.792962      18.346859      1.4461038     -2.1546109      18120.247    
    658000   1.1254222      0.0023323615  -0.00033085362  20.274083      18.602831      1.6712519     -1.9212016      18062.636    
    659000   0.94247868     0.0023323615   0.0011538646   19.668506      18.268925      1.3995808     -2.1763037      17863.036    
    660000   1.0915227      0.0023323615   0.0038116972   20.504769      18.883858      1.6209113     -1.7165524      17876.566    
    661000   0.92111145     0.0023323615   0.0011671185   19.590653      18.222803      1.3678505     -2.2708701      17930.694    
    662000   0.97548776     0.0023323615   0.00079581396  19.81905       18.370451      1.4485993     -2.0788786      18040.804    
    663000   1.1171279      0.0023323615  -0.0012661182   19.972741      18.313806      1.658935      -2.1829058      17911.7      
    664000   1.0308515      0.0023323615  -0.00077255541  20.124529      18.593715      1.5308144     -1.9289799      18041.326    
    665000   1.0738965      0.0023323615  -0.00084814135  20.238495      18.643758      1.5947363     -2.0933447      18002.84     
    666000   1.0376786      0.0023323615  -0.0026571824   20.043008      18.502055      1.5409528     -1.9999108      17981.467    
    667000   0.92496165     0.0023323615  -0.0012498277   19.876417      18.502849      1.373568      -2.0664955      18009.188    
    668000   0.9756418      0.0023323615  -0.00074086937  19.925133      18.476305      1.4488281     -1.9466506      17996.933    
    669000   0.90638949     0.0023323615   0.0023509245   19.751573      18.405585      1.3459884     -2.2002498      18007.576    
    670000   0.90900347     0.0023323615   0.00030840213  19.854791      18.504921      1.3498702     -2.0771026      17934.396    
    671000   1.0396168      0.0023323615   0.0014626636   19.947636      18.403805      1.5438309     -2.1106273      17932.105    
    672000   1.0578837      0.0023323615   0.001734984    19.958234      18.387277      1.5709573     -2.1437265      18030.532    
    673000   1.0590796      0.0023323615   3.4444358e-05  20.461754      18.889021      1.5727331     -1.6977857      18264.086    
    674000   1.0735967      0.0023323615  -0.00099057778  20.210959      18.616668      1.5942911     -1.8598117      18274.693    
    675000   1.0560879      0.0023323615  -0.0018301298   20.467823      18.899533      1.5682905     -1.7302526      18086.555    
    676000   0.94266656     0.0023323615  -0.0023454757   19.997959      18.598099      1.3998598     -1.9348091      18015.451    
    677000   1.1131264      0.0023323615   0.0018993826   20.286551      18.633558      1.6529926     -1.7680122      18089.61     
    678000   1.0356253      0.0023323615   0.0024209927   19.994469      18.456565      1.5379035     -1.9597718      18136.46     
    679000   1.0290282      0.0023323615  -0.00037490522  20.081413      18.553306      1.5281069     -2.118992       17947.695    
    680000   1.0549875      0.0023323615  -0.00016520497  20.053056      18.486399      1.5666565     -1.9265717      17906.931    
    681000   1.0235192      0.0023323615   0.0015112055   19.860013      18.340087      1.519926      -2.0569732      17964.693    
    682000   1.0946254      0.0023323615  -0.0044167344   20.160376      18.534857      1.6255188     -1.9865511      18146.533    
    683000   1.0331625      0.0023323615   0.00026201923  20.239157      18.704911      1.5342463     -1.7303028      18243.863    
    684000   0.99418119     0.0023323615  -0.0034208369   20.307623      18.831264      1.4763591     -1.712689       18053.214    
    685000   1.0482858      0.0023323615   0.0017494201   20.096083      18.539378      1.5567043     -1.8819217      18055.732    
    686000   1.0193985      0.0023323615  -0.0014568801   20.392406      18.878599      1.5138068     -1.7471644      17962.479    
    687000   0.92748627     0.0023323615  -0.006714327    20.006568      18.629251      1.3773171     -1.8619522      17893.22     
    688000   1.1182203      0.0023323615  -0.0021519521   20.29847       18.637913      1.6605572     -1.8887442      17982.18     
    689000   0.95107285     0.0023323615   8.2349509e-05  19.984728      18.572385      1.4123432     -2.0568898      17915.275    
    690000   1.1028371      0.0023323615   0.0030562227   20.066175      18.428462      1.6377131     -2.0084218      17910.417    
    691000   1.0300902      0.0023323615  -0.00087564443  19.985939      18.456255      1.529684      -1.9834346      18167.437    
    692000   1.0138928      0.0023323615  -0.0056257848   19.99678       18.49115       1.5056309     -1.9966898      18092.611    
    693000   0.98973507     0.0023323615   0.0014281531   19.774756      18.304999      1.4697566     -2.2233674      18045.619    
    694000   1.1597683      0.0023323615  -0.0036066286   20.197711      18.475455      1.7222559     -2.0648533      18048.712    
    695000   1.0823188      0.0023323615   0.0035106526   20.098073      18.49083       1.6072434     -2.1298671      18151.572    
    696000   1.019145       0.0023323615   0.0025326689   20.043392      18.529962      1.5134304     -1.934022       18043.185    
    697000   1.1137559      0.0023323615  -0.0026903684   20.204824      18.550896      1.6539275     -2.0803691      18014.863    
    698000   0.89748965     0.0023323615   0.0016171972   19.82918       18.496408      1.3327721     -1.946215       18063.532    
    699000   0.93940255     0.0023323615   0.00050348752  19.972564      18.577551      1.3950128     -2.0328492      18011.96     
    700000   0.99050279     0.0023323615  -0.0042011192   20.234682      18.763786      1.4708966     -1.8349056      18110.9      
    701000   0.93000083     0.0023323615  -0.0018957916   20.242897      18.861846      1.3810512     -1.7993966      18077.256    
    702000   0.94097025     0.0023323615  -0.0022164006   20.218239      18.820898      1.3973408     -1.7523268      18240.428    
    703000   1.0735638      0.0023323615   0.0027888661   19.936775      18.342532      1.5942423     -2.1088792      18137.643    
    704000   0.98854205     0.0023323615  -0.0012511344   20.139599      18.671614      1.4679849     -1.8952104      18174.825    
    705000   0.88191966     0.0023323615  -5.7093599e-05  19.834986      18.525335      1.3096507     -1.92418        18128.04     
    706000   1.0321117      0.0023323615  -0.0015353606   20.216199      18.683513      1.5326859     -1.917527       18179.465    
    707000   0.87670108     0.0023323615  -0.0019569188   19.964687      18.662785      1.3019011     -1.9072787      17994.499    
    708000   1.0096019      0.0023323615  -0.0037894194   20.059893      18.560635      1.4992588     -1.9245568      18165.536    
    709000   1.0002781      0.0023323615  -0.00015207511  20.070448      18.585035      1.4854131     -1.8816955      18106.57     
    710000   1.0848976      0.0023323615   0.0007702284   19.966437      18.355364      1.6110729     -2.183743       18085.53     
    711000   0.93632922     0.0023323615  -0.0006306735   19.873478      18.483029      1.3904489     -1.9884243      18162.839    
    712000   0.91426966     0.0023323615  -0.0027861505   19.71716       18.35947       1.3576904     -2.1460361      18200.944    
    713000   0.98276624     0.0023323615   0.0018615839   19.919502      18.460094      1.4594079     -2.1050021      18127.77     
    714000   1.1391886      0.0023323615  -0.00062466491  20.20836       18.516665      1.6916951     -1.977394       18149.374    
    715000   1.1488666      0.0023323615   0.0033907195   20.325605      18.619538      1.7060669     -1.9970001      18303.493    
    716000   1.1004742      0.0023323615   0.0018666178   20.309006      18.674801      1.6342042     -1.9354152      18168.678    
    717000   1.0678229      0.0023323615  -0.00070148715  20.179158      18.593441      1.585717      -1.8498872      18240.212    
    718000   1.1139412      0.0023323615  -0.0075823757   20.510913      18.85671       1.6542027     -1.871287       18247.395    
    719000   1.1124567      0.0023323615  -0.0033508279   20.368342      18.716343      1.6519982     -1.8979203      18293.933    
    720000   1.0122508      0.0023323615  -0.0026414167   20.097493      18.594301      1.5031925     -1.8956762      18278.124    
    721000   1.1011893      0.0023323615   0.0012592381   20.036354      18.401088      1.6352661     -2.0679981      18218.272    
    722000   1.1422138      0.0023323615   0.0020483295   20.569572      18.873385      1.6961875     -1.7296834      18098.027    
    723000   1.0990474      0.0023323615   0.0010079785   19.878499      18.246414      1.6320853     -2.2107847      18069.091    
    724000   0.89534262     0.0023323615  -0.00045572185  19.898037      18.568453      1.3295838     -1.9406744      18119.31     
    725000   1.0963892      0.0023323615   0.0014721423   20.349353      18.721215      1.628138      -1.7507867      18137.91     
    726000   1.1728455      0.0023323615  -0.0014796245   20.600617      18.858941      1.7416755     -1.7755664      18170.308    
    727000   0.99870687     0.0023323615  -0.0034183577   19.897823      18.414743      1.4830797     -2.0321973      18208.919    
    728000   1.0561437      0.0023323615   0.0020863912   20.094715      18.526342      1.5683734     -1.9242847      18410.95     
    729000   1.1199448      0.0023323615  -0.00033667647  20.223085      18.559967      1.663118      -2.1000538      18279.198    
    730000   0.95366678     0.0023323615  -0.0010497798   20.179653      18.763458      1.4161952     -1.7638633      18212.445    
    731000   1.0271377      0.0023323615   0.0013529158   19.961575      18.436275      1.5252994     -2.1411779      18245.56     
    732000   0.98173395     0.0023323615   0.00025116512  20.157849      18.699974      1.4578749     -1.8152383      18310.142    
    733000   1.1676602      0.0023323615  -0.0035133811   20.351178      18.617202      1.7339754     -1.8653871      18304.762    
    734000   1.1044137      0.0023323615   0.0012711166   20.326843      18.686789      1.6400543     -1.9007412      18253.187    
    735000   0.95828737     0.0023323615   0.0002636286   20.04432       18.621263      1.4230567     -1.9120947      18217.038    
    736000   0.94602197     0.0023323615   0.0060787222   20.037248      18.632405      1.4048426     -1.8672235      18259.182    
    737000   1.1251834      0.0023323615  -0.00063765432  20.289069      18.618171      1.6708973     -1.8788528      18173.517    
    738000   0.84725323     0.0023323615  -4.6741363e-05  20.119678      18.861507      1.2581711     -1.6974364      18312.268    
    739000   0.94441181     0.0023323615   0.0023727673   20.412433      19.009982      1.4024515     -1.5778975      18315.82     
    740000   0.94704096     0.0023323615   0.0017373257   20.551574      19.145218      1.4063558     -1.4406422      18307.918    
    741000   0.99791451     0.0023323615  -0.0022016416   20.339446      18.857543      1.481903      -1.6451767      18602.841    
    742000   0.93509386     0.0023323615   0.0016421811   20.14909       18.760476      1.3886144     -1.796603       18513.407    
    743000   0.95310729     0.0023323615   0.001157121    19.754141      18.338777      1.4153643     -2.1013707      18158.659    
    744000   0.90171106     0.0023323615   0.00068087454  19.869365      18.530324      1.3390409     -2.0440043      17912.41     
    745000   0.96432271     0.0023323615  -0.0023353258   19.884721      18.452702      1.4320192     -2.0396592      18188.45     
    746000   1.0261704      0.0023323615   0.0007137799   19.879965      18.356102      1.5238631     -2.0671792      18067.894    
    747000   1.0354383      0.0023323615  -0.0033875308   20.108101      18.570475      1.5376259     -1.967473       17987.278    
    748000   0.97205403     0.0023323615  -0.0035432829   20.454388      19.010887      1.4435002     -1.6887682      18059.864    
    749000   0.8188041      0.0023323615  -0.0017836763   19.777133      18.561209      1.2159241     -1.9523975      18337.845    
    750000   0.99601981     0.0023323615  -0.00012495205  20.209542      18.730452      1.4790894     -1.8578384      18374.106    
    751000   1.1423025      0.0023323615   0.0010421851   20.398722      18.702403      1.6963192     -1.8425977      18279.894    
    752000   1.0292758      0.0023323615   0.0027100553   20.111503      18.583028      1.5284745     -1.9088549      18224        
    753000   0.86425987     0.0023323615  -0.00067460584  19.785645      18.502219      1.2834259     -1.9170707      18193.668    
    754000   0.96753497     0.0023323615   0.0045445645   19.868175      18.431386      1.4367894     -2.0354972      18085.883    
    755000   0.88828715     0.0023323615  -0.0027740746   20.099887      18.780781      1.3191064     -1.7544589      18234.354    
    756000   1.0165017      0.0023323615   0.0030783059   19.664203      18.154698      1.509505      -2.1734609      18256.085    
    757000   0.92610211     0.0023323615  -0.0023113635   19.780327      18.405065      1.3752616     -2.0227467      18097.108    
    758000   1.1143987      0.0023323615  -0.00033151592  20.022785      18.367903      1.6548821     -2.0749135      17934.251    
    759000   0.94938381     0.0023323615  -0.0017351327   20.065445      18.65561       1.409835      -1.8929683      17967.73     
    760000   0.88860723     0.0023323615  -0.00039887108  19.956582      18.637         1.3195817     -1.8690747      17989.028    
    761000   0.99675561     0.0023323615   0.0025776741   20.126745      18.646563      1.4801821     -1.8766972      17988.282    
    762000   1.0154514      0.0023323615   0.0028006974   19.776848      18.268903      1.5079453     -2.1948628      18180.283    
    763000   1.0161256      0.0023323615  -0.0015976259   20.11438       18.605433      1.5089465     -2.0018858      18056.205    
    764000   1.0686915      0.0023323615   0.0041719021   20.019712      18.432705      1.5870069     -2.0474395      17847.532    
    765000   1.0309127      0.0023323615  -0.00026468739  20.296513      18.765608      1.5309053     -1.7919755      17908.759    
    766000   0.97948646     0.0023323615  -0.00020999707  20.29148       18.836942      1.4545374     -1.7571871      18033.578    
    767000   1.0365598      0.0023323615  -0.0013846354   20.269693      18.730402      1.5392913     -1.8366625      18169.498    
    768000   1.2124961      0.0023323615  -0.0028702186   20.277387      18.47683       1.8005567     -2.0754013      18244.656    
    769000   0.96572096     0.0023323615   0.0012227894   19.823015      18.38892       1.4340956     -1.9728406      18222.047    
    770000   0.93046904     0.0023323615  -0.00015806525  20.204037      18.822291      1.3817465     -1.8051618      18120.846    
    771000   1.0176219      0.0023323615   0.0035710368   20.216969      18.7058        1.5111686     -1.8763045      18054.154    
    772000   0.98026065     0.0023323615   0.00046968284  20.088342      18.632655      1.4556871     -1.8841643      18090.007    
    773000   0.98631349     0.0023323615   0.0014321376   19.968004      18.503329      1.4646755     -1.9992343      18287.752    
    774000   1.1031132      0.0023323615   0.0012114323   20.298201      18.660078      1.638123      -1.9139718      18304.685    
    775000   1.005729       0.0023323615   0.0046697963   20.519303      19.025796      1.4935076     -1.547677       18434.661    
    776000   1.0461238      0.0023323615   0.00094461557  20.196937      18.643443      1.5534939     -1.9134631      18195.758    
    777000   1.0353984      0.0023323615   0.0023915934   20.066166      18.5286        1.5375666     -2.0769709      17933.606    
    778000   1.0381073      0.0023323615  -0.0033136398   19.86934       18.32775       1.5415893     -2.1245485      18000.282    
    779000   1.004118       0.0023323615  -8.9758863e-05  20.132447      18.641332      1.4911153     -1.9357494      18158.292    
    780000   1.0821506      0.0023323615   0.0010597959   20.591782      18.984788      1.6069936     -1.6675131      18194.431    
    781000   0.91873671     0.0023323615   0.0031558732   19.971389      18.607065      1.364324      -1.9383827      18161.044    
    782000   1.1884118      0.0023323615  -0.00030769708  20.16793       18.403139      1.7647915     -2.1079613      18113.831    
    783000   0.97826459     0.0023323615   0.0025969513   20.235968      18.783245      1.4527229     -1.7156689      18090.132    
    784000   1.0765851      0.0023323615   0.0023272404   20.30348       18.704751      1.5987289     -1.6884162      18106.212    
    785000   1.0594703      0.0023323615   0.0020591063   20.183854      18.610541      1.5733134     -1.9937204      18063.051    
    786000   1.0608966      0.0023323615  -0.00079572123  20.213096      18.637665      1.5754315     -1.8664566      18139.683    
    787000   1.0203146      0.0023323615   0.0021368263   19.901651      18.386484      1.5151671     -2.0214957      18104.369    
    788000   1.0600406      0.0023323615   0.0013355174   20.402423      18.828262      1.5741603     -1.8529808      18078.771    
    789000   0.98011483     0.0023323615  -0.0021129671   20.185828      18.730357      1.4554705     -1.8087763      18029.545    
    790000   1.0760689      0.0023323615   0.0013820503   20.225828      18.627866      1.5979623     -1.9257909      18247.275    
    791000   0.96906803     0.0023323615  -0.0032058306   19.968862      18.529796      1.439066      -1.9052558      18171.426    
    792000   1.167183       0.0023323615   0.0038672651   20.35818       18.624914      1.7332668     -1.8750032      18320.9      
    793000   0.98336091     0.0023323615   0.0022083496   19.91806       18.457769      1.460291      -2.1265687      18226.259    
    794000   0.92288134     0.0023323615  -0.0030304236   20.268803      18.898324      1.3704788     -1.6214011      18298.43     
    795000   0.91933281     0.0023323615  -0.0033629919   19.801093      18.435884      1.3652092     -2.1203536      18295.894    
    796000   1.0133995      0.0023323615  -0.0023188002   19.926473      18.421575      1.5048983     -2.0913428      18289.97     
    797000   1.0131348      0.0023323615   0.0033719299   19.902345      18.39784       1.5045052     -2.1108952      18199.039    
    798000   0.89395784     0.0023323615  -0.0022178601   20.098698      18.771171      1.3275274     -1.873929       18196.242    
    799000   0.78867105     0.0023323615   0.0048666945   19.786469      18.615293      1.1711765     -1.8446031      18234.657    
    800000   0.94321166     0.0023323615   0.0011783128   19.986612      18.585943      1.4006693     -2.0389538      18170.07     
    801000   0.92771767     0.0023323615   0.00078807898  19.832615      18.454955      1.3776607     -2.0383352      18044.858    
    802000   0.9788479      0.0023323615  -0.0029030323   19.991768      18.538179      1.4535891     -2.0633249      18151.539    
    803000   1.0569997      0.0023323615   0.0046398676   19.927073      18.357428      1.5696445     -2.0739669      18129.321    
    804000   1.0598203      0.0023323615  -0.0066836322   20.034473      18.46064       1.5738332     -2.0557316      18147.909    
    805000   0.93791065     0.0023323615  -0.0035080051   19.790832      18.398035      1.3927973     -2.1191317      18068.839    
    806000   1.1149561      0.0023323615   0.0034740119   19.844889      18.18918       1.6557098     -2.2346606      18062.796    
    807000   0.89372507     0.0023323615   0.001296475    19.889472      18.56229       1.3271817     -1.868815       18188.532    
    808000   1.1004949      0.0023323615   0.0036502871   20.016976      18.382741      1.6342349     -2.217569       18119.922    
    809000   0.99624102     0.0023323615   0.00055668338  20.082957      18.603539      1.4794179     -2.0232455      18106.658    
    810000   1.0650965      0.0023323615   0.00084114729  20.041211      18.459543      1.5816683     -2.0018806      18025.013    
    811000   1.0173367      0.0023323615   0.00099347316  19.991602      18.480857      1.5107451     -2.022309       18154.296    
    812000   0.89593275     0.0023323615  -0.00088066705  19.921149      18.590688      1.3304601     -1.930544       18138.753    
    813000   0.93036055     0.0023323615   0.0047454062   19.957515      18.57593       1.3815854     -2.0398769      18306.491    
    814000   0.98760871     0.0023323615  -0.0032353725   20.104485      18.637886      1.4665989     -1.9235557      18255.628    
    815000   0.97241257     0.0023323615  -0.0025353545   19.982903      18.538871      1.4440327     -2.0235919      18228.406    
    816000   0.99917542     0.0023323615  -0.0014006077   19.87696       18.393184      1.4837755     -2.1491955      18103.952    
    817000   1.0214934      0.0023323615   0.0014141311   20.108937      18.59202       1.5169178     -1.9521273      18146.404    
    818000   1.1248661      0.0023323615   0.0013923631   20.099326      18.4289        1.6704261     -2.0214303      18216.875    
    819000   1.0661439      0.0023323615  -0.0032779684   20.03222       18.448996      1.5832237     -2.0311376      18210.162    
    820000   0.98152015     0.0023323615   0.0036728867   19.948672      18.491114      1.4575574     -2.0473283      18111.83     
    821000   1.1591549      0.0023323615   0.0028782785   20.177311      18.455966      1.721345      -2.0567904      18151.186    
    822000   1.0102507      0.0023323615   7.6762893e-05  19.736421      18.236198      1.5002223     -2.1622822      18137.491    
    823000   1.0658625      0.0023323615   0.0028299428   20.012689      18.429883      1.5828059     -2.0841444      18075.285    
    824000   0.97690649     0.0023323615  -0.0046367577   19.953205      18.502499      1.4507061     -2.0139107      18082.217    
    825000   1.1252205      0.0023323615   4.3025535e-05  20.11003       18.439077      1.6709524     -2.093973       18166.697    
    826000   0.99138477     0.0023323615  -0.0026220165   19.936165      18.463959      1.4722064     -2.0498061      18175.321    
    827000   1.0271103      0.0023323615   0.0019964883   19.768065      18.242806      1.5252588     -2.1771864      18104.681    
    828000   1.0406832      0.0023323615  -0.00063370719  19.898333      18.352919      1.5454145     -2.1569226      18096.419    
    829000   0.91536592     0.0023323615  -9.6614744e-05  19.581368      18.22205       1.3593184     -2.313807       18042.109    
    830000   0.98653977     0.0023323615  -0.00091678499  20.028701      18.56369       1.4650116     -1.9597332      18001.025    
    831000   0.9899328      0.0023323615   0.0014454835   19.824087      18.354037      1.4700502     -2.1664548      18083.099    
    832000   1.0003419      0.0023323615   0.0024848072   19.843304      18.357797      1.4855077     -2.1246347      18153.322    
    833000   1.1001957      0.0023323615  -0.00044380662  19.955257      18.321467      1.6337906     -2.0834592      18087.149    
    834000   0.97263257     0.0023323615  -0.0023352427   20.094803      18.650444      1.4443594     -1.7888285      18036.136    
    835000   1.1262396      0.0023323615   0.0018757385   20.162442      18.489977      1.6724658     -1.9929895      18055.095    
    836000   0.78442475     0.0023323615  -0.0046351032   19.552799      18.387928      1.1648708     -2.0744543      18234.88     
    837000   1.0988142      0.0023323615   0.0040100723   20.278569      18.64683       1.6317391     -1.8926218      18335.409    
    838000   1.0057982      0.0023323615  -0.00032115694  20.079882      18.586272      1.4936103     -2.0055569      18242.635    
    839000   1.0720098      0.0023323615  -0.0023995309   20.131039      18.539104      1.5919346     -1.9835975      18194.852    
    840000   0.97712477     0.0023323615  -0.00036647896  19.971851      18.520821      1.4510303     -2.0660986      18177.138    
    841000   0.84312962     0.0023323615   0.00090820839  19.91466       18.662612      1.2520475     -1.9178644      18136.259    
    842000   0.94505906     0.0023323615   0.00050375704  20.193999      18.790586      1.4034127     -1.7374004      18282.506    
    843000   0.92293217     0.0023323615   1.7908043e-05  19.552429      18.181875      1.3705543     -2.2824727      18206.986    
    844000   1.1565463      0.0023323615   0.0029033485   20.365476      18.648004      1.7174713     -1.7673523      18266.71     
    845000   1.0096904      0.0023323615  -0.0012157677   19.930408      18.431017      1.4993903     -1.9753853      18184.427    
    846000   1.0486227      0.0023323615  -0.0019364839   20.517344      18.960139      1.5572047     -1.5661313      18278.877    
    847000   0.94521475     0.0023323615  -0.00063261931  19.784119      18.380476      1.4036439     -2.0132995      18342.468    
    848000   1.118048       0.0023323615  -0.0018046978   20.153806      18.493505      1.6603013     -2.0389292      18088.037    
    849000   1.1491191      0.0023323615  -0.0001921748   19.865538      18.159096      1.7064419     -2.2529705      18219.632    
    850000   0.88795922     0.0023323615   0.0017967689   19.773401      18.454781      1.3186194     -2.0313104      18194.62     
    851000   1.0454568      0.0023323615  -0.0023063338   20.284833      18.732329      1.5525034     -1.9809841      18233.465    
    852000   1.0534091      0.0023323615   0.0025806593   20.188783      18.624471      1.5643125     -1.8554606      18324.055    
    853000   1.0426447      0.0023323615  -0.002243311    20.074787      18.52646       1.5483274     -1.9274302      18325.428    
    854000   1.0675274      0.0023323615   0.0012217141   19.972681      18.387403      1.5852782     -2.1519866      18280.105    
    855000   1.0799419      0.0023323615   0.0032824185   20.264895      18.661181      1.6037137     -1.9018138      18227.098    
    856000   0.99499186     0.0023323615   0.00022478415  20.299458      18.821895      1.4775629     -1.846226       18237.766    
    857000   0.95285141     0.0023323615   0.0016052422   20.207499      18.792514      1.4149843     -1.6593862      18370.312    
    858000   1.0183639      0.0023323615   0.0019993102   19.766752      18.254481      1.5122705     -2.195468       18290.165    
    859000   1.0468909      0.0023323615   0.0010482575   19.986429      18.431796      1.554633      -2.0344514      18261.169    
    860000   0.88788419     0.0023323615  -0.0011681947   19.987066      18.668558      1.318508      -1.8920876      18103.319    
    861000   0.90852963     0.0023323615  -0.0023811655   19.652734      18.303568      1.3491665     -2.1917255      18133.83     
    862000   1.0816622      0.0023323615   0.0015771073   20.16003       18.553762      1.6062684     -2.0318937      18081.749    
    863000   0.94855826     0.0023323615  -0.0020870267   19.801275      18.392666      1.408609      -2.0681053      18220.853    
    864000   0.96516556     0.0023323615   0.00097824214  20.01308       18.579809      1.4332709     -1.8649636      18224.436    
    865000   0.99498884     0.0023323615  -0.00079135189  19.794543      18.316984      1.4775584     -2.1712284      18265.972    
    866000   1.0363635      0.0023323615   0.00022541337  20.170041      18.631041      1.5389998     -1.9528141      18165.46     
    867000   0.9458771      0.0023323615   0.0024308448   19.67519       18.270562      1.4046275     -2.3995064      18186.706    
    868000   1.0954837      0.0023323615  -0.00082788128  19.959704      18.332911      1.6267933     -2.2293545      18046.904    
    869000   1.0896206      0.0023323615  -0.00096009453  20.139526      18.521439      1.6180866     -2.1028068      18144.719    
    870000   1.062624       0.0023323615  -0.00023704323  20.286085      18.708088      1.5779966     -1.8118741      18098.9      
    871000   0.97473787     0.0023323615   0.00013317997  19.828786      18.3813        1.4474857     -2.1447752      18195.051    
    872000   1.0537444      0.0023323615   0.00042992964  20.104042      18.539232      1.5648105     -1.9457651      18153.071    
    873000   0.9621812      0.0023323615   0.0017714782   19.919253      18.490414      1.4288391     -1.9688398      18132.104    
    874000   0.862801       0.0023323615  -0.00527546     19.96111       18.67985       1.2812595     -1.8436712      18164.812    
    875000   0.90587388     0.0023323615   0.0030895581   19.886718      18.541496      1.3452227     -1.974718       18109.911    
    876000   1.0208303      0.0023323615   0.0040508844   19.958088      18.442155      1.515933      -2.0315926      18048.686    
    877000   1.0721089      0.0023323615  -0.0023219157   20.098193      18.506111      1.5920817     -1.9905338      18169.385    
    878000   1.0341078      0.0023323615  -0.0015689109   20.196718      18.661068      1.5356501     -1.8368808      18265.988    
    879000   1.1140058      0.0023323615   0.0011836371   20.251271      18.596973      1.6542985     -1.8540019      18242.702    
    880000   0.98141494     0.0023323615   0.00045631378  19.885839      18.428438      1.4574012     -2.0796156      18112.398    
    881000   0.93398091     0.0023323615  -0.002685222    20.002317      18.615355      1.3869616     -1.8871346      18013.598    
    882000   0.94505816     0.0023323615  -0.0035658759   19.713136      18.309724      1.4034114     -2.14591        18106.977    
    883000   1.0229249      0.0023323615  -0.0030959397   20.217543      18.698499      1.5190434     -1.8068689      18386.542    
    884000   0.94390869     0.0023323615   0.0037350491   19.914702      18.512998      1.4017044     -2.0343825      18144.089    
    885000   1.0043544      0.0023323615  -0.00056831757  20.601202      19.109736      1.4914662     -1.7269078      18088.02     
    886000   0.90467859     0.0023323615  -0.0010859091   19.863107      18.519659      1.3434477     -1.9491174      17945.682    
    887000   1.0103612      0.0023323615   0.0020711214   20.057472      18.557085      1.5003863     -1.9008092      18082.266    
    888000   0.88421223     0.0023323615  -0.0020383127   19.95756       18.644505      1.3130552     -1.8857846      18121.908    
    889000   0.87831488     0.0023323615  -0.0016286717   19.939404      18.635107      1.3042976     -1.9069425      18173.653    
    890000   0.98317233     0.0023323615   0.00015117568  20.018725      18.558714      1.4600109     -1.9768769      18127.823    
    891000   0.92788599     0.0023323615  -0.0025412413   19.952415      18.574504      1.3779107     -1.8674009      18176.32     
    892000   0.89386942     0.0023323615  -0.0022551298   19.964895      18.637499      1.3273961     -1.924992       18131.501    
    893000   1.0892817      0.0023323615   0.0030856984   20.376537      18.758954      1.6175833     -1.8014489      18077.806    
    894000   0.97636802     0.0023323615   0.00014869612  20.275329      18.825423      1.4499065     -1.7625528      18239.728    
    895000   1.1556795      0.0023323615  -0.0026099784   19.96679       18.250606      1.7161841     -2.2886868      17968.27     
    896000   0.92752965     0.0023323615  -0.0041571494   20.075937      18.698556      1.3773815     -1.8205896      18142.905    
    897000   0.95433614     0.0023323615   0.00037303441  20.100217      18.683028      1.4171892     -1.7700702      18084.497    
    898000   0.94201802     0.0023323615   0.0018253563   19.896207      18.49731       1.3988968     -2.0212559      18081.624    
    899000   1.1166697      0.0023323615  -0.0013023872   20.005475      18.347221      1.6582544     -2.0794737      18108.458    
    900000   1.1218232      0.0023323615   0.0038061487   20.026153      18.360245      1.6659075     -2.1652223      18089.283    
    901000   1.0346603      0.0023323615  -0.0025614919   20.000503      18.464033      1.5364705     -2.0879246      18183.092    
    902000   1.0186903      0.0023323615   9.5443917e-06  19.872282      18.359527      1.5127551     -2.0518401      18203.563    
    903000   0.94579227     0.0023323615  -6.5734541e-05  20.149045      18.744544      1.4045015     -1.7684013      18110.643    
    904000   0.96347643     0.0023323615   0.00073393673  20.232295      18.801533      1.4307625     -1.7872127      18219.968    
    905000   0.98224703     0.0023323615  -0.002460988    20.059544      18.600908      1.4586368     -1.9881018      18010.257    
    906000   0.86221279     0.0023323615  -0.0031180572   19.770156      18.48977       1.280386      -2.0610764      18142.631    
    907000   1.0081747      0.0023323615  -0.0020098483   19.840564      18.343424      1.4971395     -2.150917       18160.443    
    908000   0.99133677     0.0023323615  -0.0048249746   20.029912      18.557777      1.4721351     -2.0589303      18258.45     
    909000   1.0561904      0.0023323615  -0.0006247308   20.283919      18.715476      1.5684427     -1.8797187      18046.607    
    910000   1.017052       0.0023323615   0.0048113333   19.959521      18.449199      1.5103223     -1.9068773      18166.148    
    911000   0.96166131     0.0023323615   0.00014688834  20.067103      18.639036      1.4280671     -2.0074366      18154.263    
    912000   1.0122279      0.0023323615   6.3219631e-05  19.995928      18.49277       1.5031584     -1.9303496      18073.481    
    913000   1.0199331      0.0023323615   0.000440476    19.788613      18.274012      1.5146006     -2.1705369      18186.203    
    914000   0.91309949     0.0023323615  -0.00046577737  20.076983      18.721031      1.3559527     -1.8158419      18178.641    
    915000   1.0560443      0.0023323615   0.00044376534  20.303984      18.735759      1.5682257     -1.9749813      18208.976    
    916000   1.0577668      0.0023323615  -0.0029803046   19.981276      18.410492      1.5707837     -2.1163739      18182.714    
    917000   0.93654573     0.0023323615   0.0029696558   20.050669      18.659899      1.3907704     -1.8560537      18182.052    
    918000   1.0755962      0.0023323615   0.0013159312   19.986226      18.388966      1.5972604     -2.1003498      17853.278    
    919000   1.0368078      0.0023323615  -0.0049015122   20.121625      18.581965      1.5396596     -2.0025721      17895.56     
    920000   1.0618069      0.0023323615  -0.00015302865  20.484678      18.907895      1.5767833     -1.6660969      18140.441    
    921000   0.99609603     0.0023323615  -0.0032695746   19.840416      18.361213      1.4792026     -2.1328217      18000.321    
    922000   1.1013693      0.0023323615   0.0014086071   20.425797      18.790263      1.6355334     -1.9110019      17990.199    
    923000   0.93665438     0.0023323615   0.0024919756   20.11342       18.722488      1.3909318     -1.9113127      18105.597    
    924000   0.95825767     0.0023323615   0.0013320221   19.999683      18.57667       1.4230126     -1.8601662      18341.618    
    925000   0.96501506     0.0023323615  -0.0011413569   19.950222      18.517175      1.4330474     -1.9944963      17995.871    
    926000   1.0724577      0.0023323615  -0.00015917672  20.106042      18.513442      1.5925996     -2.070617       18129.107    
    927000   1.1314801      0.0023323615  -0.00092454133  20.126497      18.446249      1.680248      -2.1384463      18024.61     
    928000   0.92751902     0.0023323615   0.0020215785   19.858267      18.480901      1.3773658     -1.9849175      18167.877    
    929000   1.0538502      0.0023323615  -0.0032988129   20.504331      18.939363      1.5649675     -1.7203527      18120.543    
    930000   0.92552295     0.0023323615   0.0015608823   20.003359      18.628957      1.3744016     -1.8701665      18257.509    
    931000   1.065836       0.0023323615  -0.0019248116   20.233693      18.650927      1.5827664     -1.857242       18356.592    
    932000   0.92418343     0.0023323615   0.0026147456   20.010271      18.637859      1.3724124     -1.7985644      18248.469    
    933000   1.0579007      0.0023323615   0.0026367206   20.118678      18.547695      1.5709826     -1.9677076      18232.019    
    934000   0.97316786     0.0023323615   2.6594474e-05  19.818638      18.373484      1.4451543     -2.1115742      18186.558    
    935000   1.0419969      0.0023323615   0.0035422556   20.282887      18.735521      1.5473654     -1.7712995      18072.205    
    936000   1.0534628      0.0023323615  -0.0015942869   20.301693      18.737301      1.5643923     -1.9161654      18144.435    
    937000   1.0028638      0.0023323615  -0.0021130617   19.98405       18.494797      1.4892527     -2.0283618      18221.475    
    938000   0.98556412     0.0023323615  -0.0025663858   20.137213      18.673651      1.4635627     -1.9144148      18214.458    
    939000   0.90084453     0.0023323615  -0.0017598749   20.019116      18.681362      1.3377541     -1.7581735      18321.203    
    940000   0.95464577     0.0023323615   0.0013004292   20.042328      18.624679      1.417649      -1.8972771      18383.321    
    941000   0.95260646     0.0023323615  -0.0011814984   19.976374      18.561753      1.4146206     -1.8492332      18225.028    
    942000   0.91205901     0.0023323615  -0.00099106524  20.037097      18.682689      1.3544076     -1.8411078      18339.529    
    943000   0.76531133     0.0023323615   0.00041704962  19.81609       18.679603      1.1364873     -1.82584        18279.834    
    944000   1.1723885      0.0023323615   0.00093940403  20.275318      18.534321      1.740997      -1.9073764      18217.893    
    945000   1.0618223      0.0023323615   0.0030159753   19.92714       18.350334      1.5768062     -2.0883868      18087.037    
    946000   0.97300045     0.0023323615   0.00058153681  20.171507      18.726601      1.4449057     -1.7969914      17953.933    
    947000   0.94840568     0.0023323615   7.0353956e-06  19.970217      18.561835      1.4083824     -1.9370686      18099.428    
    948000   0.9894867      0.0023323615  -0.001507164    19.508806      18.039418      1.4693878     -2.4621233      18019.283    
    949000   0.97915819     0.0023323615  -0.0032006629   20.189298      18.735249      1.4540499     -1.8023637      18002.318    
    950000   1.0626564      0.0023323615   0.0017005604   20.20062       18.622575      1.5780448     -1.8012468      18137.138    
    951000   1.0608555      0.0023323615  -0.0010590556   20.316671      18.741301      1.5753704     -1.8151482      18104.793    
    952000   0.94606801     0.0023323615  -0.0030450451   20.154635      18.749724      1.404911      -1.8143517      18313.027    
    953000   1.104445       0.0023323615  -0.00094348503  20.241549      18.601448      1.6401009     -1.9083535      18318.271    
    954000   1.1408862      0.0023323615   0.0058041166   20.203472      18.509256      1.694216      -1.9601768      18271.505    
    955000   0.95099094     0.0023323615  -0.0011423859   19.8941        18.481878      1.4122215     -1.98821        18154.923    
    956000   0.94018094     0.0023323615   0.0035740766   19.789687      18.393518      1.3961687     -2.0157689      18197.128    
    957000   0.96204424     0.0023323615   0.0021068237   20.013005      18.584369      1.4286357     -1.9637937      18274.944    
    958000   1.0282922      0.0023323615   0.0009584785   19.920523      18.393509      1.5270138     -2.263821       18392.386    
    959000   0.9720408      0.0023323615  -0.0012129432   20.060135      18.616655      1.4434806     -2.0051265      18430.788    
    960000   0.85080525     0.0023323615  -0.00014597765  19.833774      18.570329      1.2634458     -1.8838583      18206.053    
    961000   0.92551594     0.0023323615   0.0016728686   19.838372      18.463981      1.3743912     -1.9708825      18055.147    
    962000   1.0293858      0.0023323615  -0.0005850359   19.874681      18.346043      1.5286379     -2.1105959      18007.105    
    963000   1.1353245      0.0023323615   0.0016242539   20.294514      18.608557      1.6859569     -1.9004332      18046.493    
    964000   0.94786106     0.0023323615  -0.0012466271   19.9032        18.495626      1.4075737     -1.8912984      18020.425    
    965000   1.061114       0.0023323615   0.00028745333  20.21497       18.639215      1.5757543     -1.8668977      18229.408    
    966000   1.0030515      0.0023323615  -0.0009760027   20.120283      18.630752      1.4895314     -1.8658097      18049.081    
    967000   1.143467       0.0023323615   0.0024003751   20.337149      18.6391        1.6980484     -1.8490548      18058.796    
    968000   1.0160928      0.0023323615   0.00061813077  19.856285      18.347387      1.5088979     -2.0973256      18053.714    
    969000   0.94173455     0.0023323615  -0.0033423321   19.889918      18.491442      1.3984758     -2.0494524      18092.581    
    970000   1.1426091      0.0023323615   0.0038795858   19.963697      18.266922      1.6967745     -2.2257511      18007.365    
    971000   0.95908052     0.0023323615   0.0019773902   19.75521       18.330975      1.4242346     -2.142518       17869.544    
    972000   1.0036277      0.0023323615  -0.0033517059   20.09391       18.603522      1.4903871     -1.9012653      18093.273    
    973000   0.88441861     0.0023323615  -0.0025629009   19.740699      18.427338      1.3133616     -2.0689303      18131.673    
    974000   1.05773        0.0023323615  -0.0004829384   19.950674      18.379945      1.5707291     -2.0747183      19368.293    
    975000   0.99369154     0.0023323615   0.0013456984   19.892097      18.416465      1.4756319     -2.1016839      19197.64     
    976000   1.0292413      0.0023323615  -0.00133084     20.129605      18.601181      1.5284233     -1.9242752      19141.807    
    977000   0.92386188     0.0023323615   1.6918037e-05  19.680768      18.308834      1.3719349     -2.1250169      19655.033    
    978000   0.91232659     0.0023323615  -0.0042440713   19.95657       18.601765      1.354805      -1.9242141      18966.433    
    979000   0.9489051      0.0023323615  -0.0012725317   19.633562      18.224438      1.4091241     -2.3059756      18311.381    
    980000   1.0432319      0.0023323615  -0.0022882637   20.324894      18.775695      1.5491993     -1.9517596      18086.873    
    981000   1.1644389      0.0023323615   0.0011893267   20.494832      18.76564       1.7291918     -1.882522       18095.747    
    982000   0.97122781     0.0023323615   0.0026609793   20.014762      18.572488      1.4422733     -2.020997       18703.115    
    983000   0.90908346     0.0023323615  -0.0028549943   19.842142      18.492153      1.3499889     -1.8903832      18131.544    
    984000   0.98941986     0.0023323615   0.00021224623  19.950796      18.481508      1.4692885     -2.0130772      18020.258    
    985000   0.81764427     0.0023323615   0.00019414977  19.578917      18.364715      1.2142017     -2.1254831      18419.312    
    986000   1.0231417      0.0023323615   0.0024044123   20.061215      18.54185       1.5193655     -1.9141167      18873.135    
    987000   1.0023356      0.0023323615   0.0015040265   20.045679      18.55721       1.4884684     -2.0801159      18217.849    
    988000   0.85512866     0.0023323615  -0.0046372337   19.80861       18.538744      1.2698661     -1.9532169      18463.715    
    989000   1.084504       0.0023323615   0.00040535673  20.178355      18.567866      1.6104885     -1.9378863      18590.485    
    990000   1.067098       0.0023323615  -0.0013930418   20.368464      18.783823      1.5846405     -1.8536267      18543.796    
    991000   0.88713544     0.0023323615  -0.0027924694   20.086215      18.768819      1.3173961     -1.9461537      18727.398    
    992000   0.95085315     0.0023323615   0.0012876985   20.024276      18.612259      1.4120169     -1.9677072      19041.643    
    993000   1.0071433      0.0023323615  -0.0023294297   19.77545       18.279842      1.4956078     -2.2254536      19698.902    
    994000   0.86892116     0.0023323615   0.0015199464   19.973105      18.682757      1.2903479     -1.9477978      19473.619    
    995000   0.99463048     0.0023323615  -0.0029400861   19.823382      18.346356      1.4770263     -2.0859249      19472.689    
    996000   0.97111473     0.0023323615   0.0022131073   19.620634      18.178529      1.4421054     -2.308629       19282.12     
    997000   1.0318218      0.0023323615   0.00085841383  19.736833      18.204577      1.5322553     -2.1944081      19731.531    
    998000   0.92345726     0.0023323615   0.00062064051  20.048135      18.676801      1.371334      -1.8752141      19675.774    
    999000   0.97600805     0.0023323615  -0.00030410618  20.242009      18.792637      1.449372      -1.8462081      19447.795    
   1000000   1.0620515      0.0023323615  -0.0017103572   20.187952      18.610806      1.5771465     -1.901263       19122.217    
Loop time of 55.1212 on 1 procs for 1000000 steps with 100 atoms

Performance: 7837277.117 tau/day, 18141.845 timesteps/s
99.5% CPU use with 1 MPI tasks x 1 OpenMP threads

MPI task timing breakdown:
Section |  min time  |  avg time  |  max time  |%varavg| %total
---------------------------------------------------------------
Pair    | 46.197     | 46.197     | 46.197     |   0.0 | 83.81
Bond    | 1.2784     | 1.2784     | 1.2784     |   0.0 |  2.32
Neigh   | 3.7695     | 3.7695     | 3.7695     |   0.0 |  6.84
Comm    | 1.3731     | 1.3731     | 1.3731     |   0.0 |  2.49
Output  | 0.21235    | 0.21235    | 0.21235    |   0.0 |  0.39
Modify  | 1.9376     | 1.9376     | 1.9376     |   0.0 |  3.52
Other   |            | 0.3535     |            |       |  0.64

Nlocal:            100 ave         100 max         100 min
Histogram: 1 0 0 0 0 0 0 0 0 0
Nghost:            300 ave         300 max         300 min
Histogram: 1 0 0 0 0 0 0 0 0 0
Neighs:           4851 ave        4851 max        4851 min
Histogram: 1 0 0 0 0 0 0 0 0 0

Total # of neighbors = 4851
Ave neighs/atom = 48.51
Ave special neighs/atom = 1.98
Neighbor list builds = 97782
Dangerous builds = 79135

write_data      ${outputfile_assembled} nofix nocoeff
write_data      7_assembled.data nofix nocoeff
System init for write_data ...
Generated 0 of 6 mixed pair_coeff terms from geometric mixing rule

Total wall time: 0:00:56
